*SPEF "ieee 1481-1999"
*DESIGN "caravel_secure_boot"
*DATE "03:49:51 Friday February 20, 2026"
*VENDOR "The OpenROAD Project"
*PROGRAM "OpenROAD"
*VERSION "edf00dff99f6c40d67a30c0e22a8191c5d2ed9d6"
*DESIGN_FLOW "NAME_SCOPE LOCAL" "PIN_CAP NONE"
*DIVIDER /
*DELIMITER :
*BUS_DELIMITER []
*T_UNIT 1 NS
*C_UNIT 1 PF
*R_UNIT 1 OHM
*L_UNIT 1 HENRY

*NAME_MAP
*3 clk
*4 clock_glitch
*5 cold_reset_req
*6 debug_enable
*7 file_denied
*8 fsm_error
*9 fw_fail
*10 fw_ok
*11 global_pin_ok
*12 group_autolock
*13 group_error
*14 group_suspended
*15 group_unlocked
*16 hdr_parse_fail
*17 illegal_in
*18 power_glitch
*19 reset
*20 safe_led
*21 security_breach
*22 size_mismatch
*23 tamper_in
*24 unlock_enable
*25 unlock_req
*26 warm_reset_req
*27 _000_
*28 _001_
*29 _002_
*30 _003_
*31 _004_
*32 _005_
*33 _006_
*34 _007_
*35 _008_
*36 _009_
*37 _010_
*38 _011_
*39 _012_
*40 _013_
*41 _014_
*42 _015_
*43 _016_
*44 _017_
*45 _018_
*46 _019_
*47 _020_
*48 _021_
*49 _022_
*50 _023_
*51 _024_
*52 _025_
*53 _026_
*54 _027_
*55 _028_
*56 _029_
*57 _030_
*58 _031_
*59 _032_
*60 _033_
*61 _034_
*62 _035_
*63 _036_
*64 _037_
*65 _038_
*66 _039_
*67 _040_
*68 _041_
*69 _042_
*70 _043_
*71 _044_
*72 _045_
*73 _046_
*74 _047_
*75 _048_
*76 _049_
*77 _050_
*78 _051_
*79 _052_
*80 _053_
*81 _054_
*82 _055_
*83 _056_
*84 _057_
*85 _058_
*86 _059_
*87 _060_
*88 _061_
*89 _062_
*90 _063_
*91 _064_
*92 _065_
*93 _066_
*94 _067_
*95 _068_
*96 _069_
*97 _070_
*98 _071_
*99 _072_
*100 _073_
*101 _074_
*102 _075_
*103 _076_
*104 _077_
*105 _078_
*106 _079_
*107 _080_
*108 _081_
*109 _082_
*110 _083_
*111 _084_
*112 _085_
*113 _086_
*114 _087_
*115 _088_
*116 _089_
*117 _090_
*118 _091_
*119 _092_
*120 _093_
*121 _094_
*122 _095_
*123 _096_
*124 _097_
*125 _098_
*126 _099_
*127 _100_
*128 _101_
*129 _102_
*130 _103_
*131 _104_
*132 _105_
*133 _106_
*134 _107_
*135 _108_
*136 _109_
*137 _110_
*138 _111_
*139 _112_
*140 _113_
*141 _114_
*142 _115_
*143 _116_
*144 _117_
*145 _118_
*146 _119_
*147 _120_
*148 _121_
*149 _122_
*150 _123_
*151 _124_
*152 _125_
*153 _126_
*154 _127_
*155 _128_
*156 _129_
*157 _130_
*158 _131_
*159 _132_
*160 _133_
*161 _134_
*162 _135_
*163 _136_
*164 _137_
*165 _138_
*166 _139_
*167 _140_
*168 _141_
*169 _142_
*170 _143_
*171 _144_
*172 _145_
*173 _146_
*174 _147_
*175 _148_
*176 _149_
*177 _150_
*178 _151_
*179 _152_
*180 _153_
*181 _154_
*182 _155_
*183 _156_
*184 _157_
*185 _158_
*186 _159_
*187 _160_
*188 _161_
*189 _162_
*190 _163_
*191 _164_
*192 _165_
*193 _166_
*194 _167_
*195 _168_
*196 _169_
*197 _170_
*198 _171_
*199 _172_
*200 _173_
*201 _174_
*202 _175_
*203 _176_
*204 _177_
*205 _178_
*206 _179_
*207 _180_
*208 _181_
*209 _182_
*210 _183_
*211 _184_
*212 _185_
*213 _186_
*214 _187_
*215 _188_
*216 _189_
*217 _190_
*218 _191_
*219 _192_
*220 _193_
*221 _194_
*222 _195_
*223 _196_
*224 _197_
*225 _198_
*226 _199_
*227 _200_
*228 _201_
*229 _202_
*230 _203_
*231 _204_
*232 _205_
*233 _206_
*234 _207_
*235 _208_
*236 _209_
*237 _210_
*238 _211_
*239 _212_
*240 _213_
*241 _214_
*242 _215_
*243 clknet_0_clk
*244 clknet_2_0__leaf_clk
*245 clknet_2_1__leaf_clk
*246 clknet_2_2__leaf_clk
*247 clknet_2_3__leaf_clk
*248 net1
*249 net10
*250 net11
*251 net12
*252 net13
*253 net14
*254 net15
*255 net16
*256 net17
*257 net18
*258 net19
*259 net2
*260 net20
*261 net21
*262 net22
*263 net23
*264 net24
*265 net25
*266 net26
*267 net27
*268 net28
*269 net29
*270 net3
*271 net30
*272 net31
*273 net32
*274 net33
*275 net34
*276 net35
*277 net36
*278 net37
*279 net38
*280 net39
*281 net4
*282 net40
*283 net41
*284 net42
*285 net43
*286 net44
*287 net5
*288 net6
*289 net7
*290 net8
*291 net9
*292 u_system\.global_timeout_count\[0\]
*293 u_system\.global_timeout_count\[10\]
*294 u_system\.global_timeout_count\[11\]
*295 u_system\.global_timeout_count\[12\]
*296 u_system\.global_timeout_count\[13\]
*297 u_system\.global_timeout_count\[14\]
*298 u_system\.global_timeout_count\[15\]
*299 u_system\.global_timeout_count\[1\]
*300 u_system\.global_timeout_count\[2\]
*301 u_system\.global_timeout_count\[3\]
*302 u_system\.global_timeout_count\[4\]
*303 u_system\.global_timeout_count\[5\]
*304 u_system\.global_timeout_count\[6\]
*305 u_system\.global_timeout_count\[7\]
*306 u_system\.global_timeout_count\[8\]
*307 u_system\.global_timeout_count\[9\]
*308 u_system\.group_state_bits\[0\]
*309 u_system\.group_state_bits\[1\]
*310 u_system\.group_state_bits\[2\]
*311 u_system\.group_state_bits\[3\]
*312 u_system\.group_timeout_count\[0\]
*313 u_system\.group_timeout_count\[10\]
*314 u_system\.group_timeout_count\[11\]
*315 u_system\.group_timeout_count\[12\]
*316 u_system\.group_timeout_count\[13\]
*317 u_system\.group_timeout_count\[14\]
*318 u_system\.group_timeout_count\[15\]
*319 u_system\.group_timeout_count\[1\]
*320 u_system\.group_timeout_count\[2\]
*321 u_system\.group_timeout_count\[3\]
*322 u_system\.group_timeout_count\[4\]
*323 u_system\.group_timeout_count\[5\]
*324 u_system\.group_timeout_count\[6\]
*325 u_system\.group_timeout_count\[7\]
*326 u_system\.group_timeout_count\[8\]
*327 u_system\.group_timeout_count\[9\]
*328 u_system\.sticky_illegal
*329 u_system\.sticky_tamper
*330 u_system\.u_global\.denial_counter\[0\]
*331 u_system\.u_global\.denial_counter\[1\]
*332 u_system\.u_global\.prev_state\[0\]
*333 u_system\.u_global\.prev_state\[1\]
*334 u_system\.u_global\.prev_state\[2\]
*335 u_system\.u_global\.prev_state\[3\]
*336 u_system\.u_global\.prev_state\[4\]
*337 u_system\.u_global\.state\[0\]
*338 u_system\.u_global\.state\[1\]
*339 u_system\.u_global\.state\[2\]
*340 u_system\.u_global\.state\[3\]
*341 u_system\.u_global\.state\[4\]
*342 FILLER_0_100
*343 FILLER_0_104
*344 FILLER_0_111
*345 FILLER_0_113
*346 FILLER_0_125
*347 FILLER_0_137
*348 FILLER_0_139
*349 FILLER_0_141
*350 FILLER_0_15
*351 FILLER_0_154
*352 FILLER_0_166
*353 FILLER_0_169
*354 FILLER_0_181
*355 FILLER_0_183
*356 FILLER_0_27
*357 FILLER_0_29
*358 FILLER_0_3
*359 FILLER_0_33
*360 FILLER_0_41
*361 FILLER_0_53
*362 FILLER_0_55
*363 FILLER_0_57
*364 FILLER_0_69
*365 FILLER_0_81
*366 FILLER_0_83
*367 FILLER_0_85
*368 FILLER_0_93
*369 FILLER_0_98
*370 FILLER_10_101
*371 FILLER_10_108
*372 FILLER_10_110
*373 FILLER_10_119
*374 FILLER_10_131
*375 FILLER_10_138
*376 FILLER_10_148
*377 FILLER_10_15
*378 FILLER_10_27
*379 FILLER_10_29
*380 FILLER_10_3
*381 FILLER_10_46
*382 FILLER_10_58
*383 FILLER_10_70
*384 FILLER_10_72
*385 FILLER_10_81
*386 FILLER_10_83
*387 FILLER_10_85
*388 FILLER_10_97
*389 FILLER_11_111
*390 FILLER_11_117
*391 FILLER_11_134
*392 FILLER_11_138
*393 FILLER_11_15
*394 FILLER_11_156
*395 FILLER_11_169
*396 FILLER_11_177
*397 FILLER_11_179
*398 FILLER_11_27
*399 FILLER_11_3
*400 FILLER_11_39
*401 FILLER_11_51
*402 FILLER_11_55
*403 FILLER_11_57
*404 FILLER_11_69
*405 FILLER_11_81
*406 FILLER_11_98
*407 FILLER_12_101
*408 FILLER_12_116
*409 FILLER_12_128
*410 FILLER_12_141
*411 FILLER_12_153
*412 FILLER_12_165
*413 FILLER_12_173
*414 FILLER_12_22
*415 FILLER_12_26
*416 FILLER_12_29
*417 FILLER_12_3
*418 FILLER_12_44
*419 FILLER_12_46
*420 FILLER_12_5
*421 FILLER_12_63
*422 FILLER_12_75
*423 FILLER_12_83
*424 FILLER_12_85
*425 FILLER_12_97
*426 FILLER_13_101
*427 FILLER_13_108
*428 FILLER_13_113
*429 FILLER_13_125
*430 FILLER_13_137
*431 FILLER_13_141
*432 FILLER_13_143
*433 FILLER_13_148
*434 FILLER_13_166
*435 FILLER_13_169
*436 FILLER_13_18
*437 FILLER_13_54
*438 FILLER_13_57
*439 FILLER_13_59
*440 FILLER_13_6
*441 FILLER_13_63
*442 FILLER_13_71
*443 FILLER_13_77
*444 FILLER_13_89
*445 FILLER_14_107
*446 FILLER_14_109
*447 FILLER_14_119
*448 FILLER_14_123
*449 FILLER_14_125
*450 FILLER_14_133
*451 FILLER_14_137
*452 FILLER_14_139
*453 FILLER_14_141
*454 FILLER_14_153
*455 FILLER_14_161
*456 FILLER_14_21
*457 FILLER_14_25
*458 FILLER_14_27
*459 FILLER_14_29
*460 FILLER_14_3
*461 FILLER_14_40
*462 FILLER_14_52
*463 FILLER_14_85
*464 FILLER_14_93
*465 FILLER_15_110
*466 FILLER_15_113
*467 FILLER_15_119
*468 FILLER_15_123
*469 FILLER_15_137
*470 FILLER_15_147
*471 FILLER_15_159
*472 FILLER_15_161
*473 FILLER_15_165
*474 FILLER_15_167
*475 FILLER_15_169
*476 FILLER_15_177
*477 FILLER_15_179
*478 FILLER_15_18
*479 FILLER_15_30
*480 FILLER_15_42
*481 FILLER_15_54
*482 FILLER_15_57
*483 FILLER_15_6
*484 FILLER_15_69
*485 FILLER_15_81
*486 FILLER_15_85
*487 FILLER_15_98
*488 FILLER_16_120
*489 FILLER_16_128
*490 FILLER_16_158
*491 FILLER_16_166
*492 FILLER_16_168
*493 FILLER_16_20
*494 FILLER_16_36
*495 FILLER_16_48
*496 FILLER_16_56
*497 FILLER_16_65
*498 FILLER_16_72
*499 FILLER_16_85
*500 FILLER_16_9
*501 FILLER_17_101
*502 FILLER_17_109
*503 FILLER_17_111
*504 FILLER_17_113
*505 FILLER_17_127
*506 FILLER_17_139
*507 FILLER_17_151
*508 FILLER_17_169
*509 FILLER_17_179
*510 FILLER_17_26
*511 FILLER_17_3
*512 FILLER_17_47
*513 FILLER_17_52
*514 FILLER_17_89
*515 FILLER_18_102
*516 FILLER_18_107
*517 FILLER_18_111
*518 FILLER_18_127
*519 FILLER_18_131
*520 FILLER_18_133
*521 FILLER_18_141
*522 FILLER_18_15
*523 FILLER_18_150
*524 FILLER_18_162
*525 FILLER_18_166
*526 FILLER_18_27
*527 FILLER_18_29
*528 FILLER_18_3
*529 FILLER_18_41
*530 FILLER_18_45
*531 FILLER_18_50
*532 FILLER_18_62
*533 FILLER_18_75
*534 FILLER_18_83
*535 FILLER_18_98
*536 FILLER_19_106
*537 FILLER_19_110
*538 FILLER_19_113
*539 FILLER_19_117
*540 FILLER_19_129
*541 FILLER_19_141
*542 FILLER_19_153
*543 FILLER_19_165
*544 FILLER_19_167
*545 FILLER_19_169
*546 FILLER_19_18
*547 FILLER_19_30
*548 FILLER_19_34
*549 FILLER_19_36
*550 FILLER_19_40
*551 FILLER_19_52
*552 FILLER_19_57
*553 FILLER_19_6
*554 FILLER_19_69
*555 FILLER_19_81
*556 FILLER_19_93
*557 FILLER_1_109
*558 FILLER_1_111
*559 FILLER_1_113
*560 FILLER_1_135
*561 FILLER_1_15
*562 FILLER_1_164
*563 FILLER_1_179
*564 FILLER_1_183
*565 FILLER_1_23
*566 FILLER_1_3
*567 FILLER_1_31
*568 FILLER_1_33
*569 FILLER_1_50
*570 FILLER_1_54
*571 FILLER_1_62
*572 FILLER_1_66
*573 FILLER_1_68
*574 FILLER_1_90
*575 FILLER_1_92
*576 FILLER_20_102
*577 FILLER_20_110
*578 FILLER_20_122
*579 FILLER_20_13
*580 FILLER_20_133
*581 FILLER_20_137
*582 FILLER_20_139
*583 FILLER_20_141
*584 FILLER_20_153
*585 FILLER_20_157
*586 FILLER_20_159
*587 FILLER_20_168
*588 FILLER_20_176
*589 FILLER_20_21
*590 FILLER_20_25
*591 FILLER_20_27
*592 FILLER_20_29
*593 FILLER_20_3
*594 FILLER_20_33
*595 FILLER_20_39
*596 FILLER_20_51
*597 FILLER_20_59
*598 FILLER_20_67
*599 FILLER_20_7
*600 FILLER_20_85
*601 FILLER_20_9
*602 FILLER_20_94
*603 FILLER_21_101
*604 FILLER_21_105
*605 FILLER_21_107
*606 FILLER_21_116
*607 FILLER_21_124
*608 FILLER_21_131
*609 FILLER_21_169
*610 FILLER_21_178
*611 FILLER_21_25
*612 FILLER_21_27
*613 FILLER_21_51
*614 FILLER_21_55
*615 FILLER_21_57
*616 FILLER_21_59
*617 FILLER_21_63
*618 FILLER_21_93
*619 FILLER_22_139
*620 FILLER_22_156
*621 FILLER_22_19
*622 FILLER_22_27
*623 FILLER_22_29
*624 FILLER_22_3
*625 FILLER_22_41
*626 FILLER_22_53
*627 FILLER_22_57
*628 FILLER_22_63
*629 FILLER_22_85
*630 FILLER_22_89
*631 FILLER_22_91
*632 FILLER_23_106
*633 FILLER_23_11
*634 FILLER_23_110
*635 FILLER_23_113
*636 FILLER_23_125
*637 FILLER_23_13
*638 FILLER_23_137
*639 FILLER_23_149
*640 FILLER_23_161
*641 FILLER_23_169
*642 FILLER_23_173
*643 FILLER_23_175
*644 FILLER_23_21
*645 FILLER_23_3
*646 FILLER_23_33
*647 FILLER_23_45
*648 FILLER_23_53
*649 FILLER_23_55
*650 FILLER_23_57
*651 FILLER_23_70
*652 FILLER_23_82
*653 FILLER_23_94
*654 FILLER_24_101
*655 FILLER_24_119
*656 FILLER_24_123
*657 FILLER_24_13
*658 FILLER_24_134
*659 FILLER_24_136
*660 FILLER_24_141
*661 FILLER_24_152
*662 FILLER_24_156
*663 FILLER_24_174
*664 FILLER_24_27
*665 FILLER_24_29
*666 FILLER_24_3
*667 FILLER_24_44
*668 FILLER_24_46
*669 FILLER_24_53
*670 FILLER_24_57
*671 FILLER_24_65
*672 FILLER_24_7
*673 FILLER_24_74
*674 FILLER_24_78
*675 FILLER_24_83
*676 FILLER_24_85
*677 FILLER_24_97
*678 FILLER_25_109
*679 FILLER_25_111
*680 FILLER_25_113
*681 FILLER_25_125
*682 FILLER_25_127
*683 FILLER_25_153
*684 FILLER_25_159
*685 FILLER_25_167
*686 FILLER_25_169
*687 FILLER_25_175
*688 FILLER_25_180
*689 FILLER_25_19
*690 FILLER_25_21
*691 FILLER_25_38
*692 FILLER_25_55
*693 FILLER_25_62
*694 FILLER_25_70
*695 FILLER_25_72
*696 FILLER_26_109
*697 FILLER_26_113
*698 FILLER_26_118
*699 FILLER_26_130
*700 FILLER_26_138
*701 FILLER_26_141
*702 FILLER_26_15
*703 FILLER_26_153
*704 FILLER_26_165
*705 FILLER_26_167
*706 FILLER_26_27
*707 FILLER_26_29
*708 FILLER_26_3
*709 FILLER_26_41
*710 FILLER_26_53
*711 FILLER_26_65
*712 FILLER_26_72
*713 FILLER_26_76
*714 FILLER_26_81
*715 FILLER_26_83
*716 FILLER_26_85
*717 FILLER_26_97
*718 FILLER_27_105
*719 FILLER_27_109
*720 FILLER_27_111
*721 FILLER_27_113
*722 FILLER_27_121
*723 FILLER_27_127
*724 FILLER_27_136
*725 FILLER_27_148
*726 FILLER_27_15
*727 FILLER_27_160
*728 FILLER_27_169
*729 FILLER_27_181
*730 FILLER_27_183
*731 FILLER_27_27
*732 FILLER_27_3
*733 FILLER_27_39
*734 FILLER_27_51
*735 FILLER_27_55
*736 FILLER_27_57
*737 FILLER_27_69
*738 FILLER_27_81
*739 FILLER_27_93
*740 FILLER_28_115
*741 FILLER_28_15
*742 FILLER_28_158
*743 FILLER_28_175
*744 FILLER_28_180
*745 FILLER_28_27
*746 FILLER_28_29
*747 FILLER_28_3
*748 FILLER_28_37
*749 FILLER_28_41
*750 FILLER_28_51
*751 FILLER_28_55
*752 FILLER_28_64
*753 FILLER_28_71
*754 FILLER_28_81
*755 FILLER_28_83
*756 FILLER_28_89
*757 FILLER_29_102
*758 FILLER_29_110
*759 FILLER_29_129
*760 FILLER_29_141
*761 FILLER_29_145
*762 FILLER_29_15
*763 FILLER_29_163
*764 FILLER_29_167
*765 FILLER_29_169
*766 FILLER_29_181
*767 FILLER_29_183
*768 FILLER_29_27
*769 FILLER_29_29
*770 FILLER_29_3
*771 FILLER_29_46
*772 FILLER_29_54
*773 FILLER_29_73
*774 FILLER_2_106
*775 FILLER_2_114
*776 FILLER_2_118
*777 FILLER_2_122
*778 FILLER_2_124
*779 FILLER_2_139
*780 FILLER_2_146
*781 FILLER_2_148
*782 FILLER_2_152
*783 FILLER_2_160
*784 FILLER_2_27
*785 FILLER_2_29
*786 FILLER_2_3
*787 FILLER_2_33
*788 FILLER_2_44
*789 FILLER_2_69
*790 FILLER_2_71
*791 FILLER_2_83
*792 FILLER_30_109
*793 FILLER_30_111
*794 FILLER_30_113
*795 FILLER_30_121
*796 FILLER_30_125
*797 FILLER_30_137
*798 FILLER_30_139
*799 FILLER_30_141
*800 FILLER_30_15
*801 FILLER_30_153
*802 FILLER_30_165
*803 FILLER_30_167
*804 FILLER_30_169
*805 FILLER_30_181
*806 FILLER_30_183
*807 FILLER_30_27
*808 FILLER_30_29
*809 FILLER_30_3
*810 FILLER_30_41
*811 FILLER_30_53
*812 FILLER_30_55
*813 FILLER_30_65
*814 FILLER_30_77
*815 FILLER_30_79
*816 FILLER_30_83
*817 FILLER_30_85
*818 FILLER_30_97
*819 FILLER_3_101
*820 FILLER_3_113
*821 FILLER_3_121
*822 FILLER_3_133
*823 FILLER_3_145
*824 FILLER_3_15
*825 FILLER_3_157
*826 FILLER_3_165
*827 FILLER_3_167
*828 FILLER_3_174
*829 FILLER_3_182
*830 FILLER_3_3
*831 FILLER_3_32
*832 FILLER_3_44
*833 FILLER_3_60
*834 FILLER_3_72
*835 FILLER_3_76
*836 FILLER_3_89
*837 FILLER_4_101
*838 FILLER_4_109
*839 FILLER_4_131
*840 FILLER_4_139
*841 FILLER_4_141
*842 FILLER_4_15
*843 FILLER_4_153
*844 FILLER_4_165
*845 FILLER_4_177
*846 FILLER_4_181
*847 FILLER_4_183
*848 FILLER_4_19
*849 FILLER_4_27
*850 FILLER_4_29
*851 FILLER_4_3
*852 FILLER_4_38
*853 FILLER_4_50
*854 FILLER_4_62
*855 FILLER_4_64
*856 FILLER_4_72
*857 FILLER_4_85
*858 FILLER_4_93
*859 FILLER_4_95
*860 FILLER_5_100
*861 FILLER_5_113
*862 FILLER_5_125
*863 FILLER_5_156
*864 FILLER_5_165
*865 FILLER_5_167
*866 FILLER_5_172
*867 FILLER_5_21
*868 FILLER_5_3
*869 FILLER_5_35
*870 FILLER_5_39
*871 FILLER_5_57
*872 FILLER_5_61
*873 FILLER_5_79
*874 FILLER_5_91
*875 FILLER_6_105
*876 FILLER_6_117
*877 FILLER_6_125
*878 FILLER_6_137
*879 FILLER_6_139
*880 FILLER_6_141
*881 FILLER_6_15
*882 FILLER_6_153
*883 FILLER_6_157
*884 FILLER_6_27
*885 FILLER_6_3
*886 FILLER_6_52
*887 FILLER_6_64
*888 FILLER_6_81
*889 FILLER_6_83
*890 FILLER_6_85
*891 FILLER_6_87
*892 FILLER_7_107
*893 FILLER_7_111
*894 FILLER_7_119
*895 FILLER_7_138
*896 FILLER_7_144
*897 FILLER_7_15
*898 FILLER_7_156
*899 FILLER_7_160
*900 FILLER_7_169
*901 FILLER_7_175
*902 FILLER_7_183
*903 FILLER_7_27
*904 FILLER_7_3
*905 FILLER_7_39
*906 FILLER_7_47
*907 FILLER_7_57
*908 FILLER_7_69
*909 FILLER_7_81
*910 FILLER_7_89
*911 FILLER_7_91
*912 FILLER_8_105
*913 FILLER_8_107
*914 FILLER_8_111
*915 FILLER_8_137
*916 FILLER_8_139
*917 FILLER_8_15
*918 FILLER_8_150
*919 FILLER_8_156
*920 FILLER_8_168
*921 FILLER_8_180
*922 FILLER_8_22
*923 FILLER_8_26
*924 FILLER_8_29
*925 FILLER_8_3
*926 FILLER_8_41
*927 FILLER_8_49
*928 FILLER_8_73
*929 FILLER_8_79
*930 FILLER_8_83
*931 FILLER_8_85
*932 FILLER_8_97
*933 FILLER_9_100
*934 FILLER_9_104
*935 FILLER_9_133
*936 FILLER_9_137
*937 FILLER_9_141
*938 FILLER_9_153
*939 FILLER_9_180
*940 FILLER_9_26
*941 FILLER_9_3
*942 FILLER_9_43
*943 FILLER_9_47
*944 FILLER_9_57
*945 FILLER_9_61
*946 FILLER_9_63
*947 FILLER_9_7
*948 FILLER_9_9
*949 PHY_EDGE_ROW_0_Left_31
*950 PHY_EDGE_ROW_0_Right_0
*951 PHY_EDGE_ROW_10_Left_41
*952 PHY_EDGE_ROW_10_Right_10
*953 PHY_EDGE_ROW_11_Left_42
*954 PHY_EDGE_ROW_11_Right_11
*955 PHY_EDGE_ROW_12_Left_43
*956 PHY_EDGE_ROW_12_Right_12
*957 PHY_EDGE_ROW_13_Left_44
*958 PHY_EDGE_ROW_13_Right_13
*959 PHY_EDGE_ROW_14_Left_45
*960 PHY_EDGE_ROW_14_Right_14
*961 PHY_EDGE_ROW_15_Left_46
*962 PHY_EDGE_ROW_15_Right_15
*963 PHY_EDGE_ROW_16_Left_47
*964 PHY_EDGE_ROW_16_Right_16
*965 PHY_EDGE_ROW_17_Left_48
*966 PHY_EDGE_ROW_17_Right_17
*967 PHY_EDGE_ROW_18_Left_49
*968 PHY_EDGE_ROW_18_Right_18
*969 PHY_EDGE_ROW_19_Left_50
*970 PHY_EDGE_ROW_19_Right_19
*971 PHY_EDGE_ROW_1_Left_32
*972 PHY_EDGE_ROW_1_Right_1
*973 PHY_EDGE_ROW_20_Left_51
*974 PHY_EDGE_ROW_20_Right_20
*975 PHY_EDGE_ROW_21_Left_52
*976 PHY_EDGE_ROW_21_Right_21
*977 PHY_EDGE_ROW_22_Left_53
*978 PHY_EDGE_ROW_22_Right_22
*979 PHY_EDGE_ROW_23_Left_54
*980 PHY_EDGE_ROW_23_Right_23
*981 PHY_EDGE_ROW_24_Left_55
*982 PHY_EDGE_ROW_24_Right_24
*983 PHY_EDGE_ROW_25_Left_56
*984 PHY_EDGE_ROW_25_Right_25
*985 PHY_EDGE_ROW_26_Left_57
*986 PHY_EDGE_ROW_26_Right_26
*987 PHY_EDGE_ROW_27_Left_58
*988 PHY_EDGE_ROW_27_Right_27
*989 PHY_EDGE_ROW_28_Left_59
*990 PHY_EDGE_ROW_28_Right_28
*991 PHY_EDGE_ROW_29_Left_60
*992 PHY_EDGE_ROW_29_Right_29
*993 PHY_EDGE_ROW_2_Left_33
*994 PHY_EDGE_ROW_2_Right_2
*995 PHY_EDGE_ROW_30_Left_61
*996 PHY_EDGE_ROW_30_Right_30
*997 PHY_EDGE_ROW_3_Left_34
*998 PHY_EDGE_ROW_3_Right_3
*999 PHY_EDGE_ROW_4_Left_35
*1000 PHY_EDGE_ROW_4_Right_4
*1001 PHY_EDGE_ROW_5_Left_36
*1002 PHY_EDGE_ROW_5_Right_5
*1003 PHY_EDGE_ROW_6_Left_37
*1004 PHY_EDGE_ROW_6_Right_6
*1005 PHY_EDGE_ROW_7_Left_38
*1006 PHY_EDGE_ROW_7_Right_7
*1007 PHY_EDGE_ROW_8_Left_39
*1008 PHY_EDGE_ROW_8_Right_8
*1009 PHY_EDGE_ROW_9_Left_40
*1010 PHY_EDGE_ROW_9_Right_9
*1011 TAP_TAPCELL_ROW_0_62
*1012 TAP_TAPCELL_ROW_0_63
*1013 TAP_TAPCELL_ROW_0_64
*1014 TAP_TAPCELL_ROW_0_65
*1015 TAP_TAPCELL_ROW_0_66
*1016 TAP_TAPCELL_ROW_0_67
*1017 TAP_TAPCELL_ROW_10_95
*1018 TAP_TAPCELL_ROW_10_96
*1019 TAP_TAPCELL_ROW_10_97
*1020 TAP_TAPCELL_ROW_11_100
*1021 TAP_TAPCELL_ROW_11_98
*1022 TAP_TAPCELL_ROW_11_99
*1023 TAP_TAPCELL_ROW_12_101
*1024 TAP_TAPCELL_ROW_12_102
*1025 TAP_TAPCELL_ROW_12_103
*1026 TAP_TAPCELL_ROW_13_104
*1027 TAP_TAPCELL_ROW_13_105
*1028 TAP_TAPCELL_ROW_13_106
*1029 TAP_TAPCELL_ROW_14_107
*1030 TAP_TAPCELL_ROW_14_108
*1031 TAP_TAPCELL_ROW_14_109
*1032 TAP_TAPCELL_ROW_15_110
*1033 TAP_TAPCELL_ROW_15_111
*1034 TAP_TAPCELL_ROW_15_112
*1035 TAP_TAPCELL_ROW_16_113
*1036 TAP_TAPCELL_ROW_16_114
*1037 TAP_TAPCELL_ROW_16_115
*1038 TAP_TAPCELL_ROW_17_116
*1039 TAP_TAPCELL_ROW_17_117
*1040 TAP_TAPCELL_ROW_17_118
*1041 TAP_TAPCELL_ROW_18_119
*1042 TAP_TAPCELL_ROW_18_120
*1043 TAP_TAPCELL_ROW_18_121
*1044 TAP_TAPCELL_ROW_19_122
*1045 TAP_TAPCELL_ROW_19_123
*1046 TAP_TAPCELL_ROW_19_124
*1047 TAP_TAPCELL_ROW_1_68
*1048 TAP_TAPCELL_ROW_1_69
*1049 TAP_TAPCELL_ROW_1_70
*1050 TAP_TAPCELL_ROW_20_125
*1051 TAP_TAPCELL_ROW_20_126
*1052 TAP_TAPCELL_ROW_20_127
*1053 TAP_TAPCELL_ROW_21_128
*1054 TAP_TAPCELL_ROW_21_129
*1055 TAP_TAPCELL_ROW_21_130
*1056 TAP_TAPCELL_ROW_22_131
*1057 TAP_TAPCELL_ROW_22_132
*1058 TAP_TAPCELL_ROW_22_133
*1059 TAP_TAPCELL_ROW_23_134
*1060 TAP_TAPCELL_ROW_23_135
*1061 TAP_TAPCELL_ROW_23_136
*1062 TAP_TAPCELL_ROW_24_137
*1063 TAP_TAPCELL_ROW_24_138
*1064 TAP_TAPCELL_ROW_24_139
*1065 TAP_TAPCELL_ROW_25_140
*1066 TAP_TAPCELL_ROW_25_141
*1067 TAP_TAPCELL_ROW_25_142
*1068 TAP_TAPCELL_ROW_26_143
*1069 TAP_TAPCELL_ROW_26_144
*1070 TAP_TAPCELL_ROW_26_145
*1071 TAP_TAPCELL_ROW_27_146
*1072 TAP_TAPCELL_ROW_27_147
*1073 TAP_TAPCELL_ROW_27_148
*1074 TAP_TAPCELL_ROW_28_149
*1075 TAP_TAPCELL_ROW_28_150
*1076 TAP_TAPCELL_ROW_28_151
*1077 TAP_TAPCELL_ROW_29_152
*1078 TAP_TAPCELL_ROW_29_153
*1079 TAP_TAPCELL_ROW_29_154
*1080 TAP_TAPCELL_ROW_2_71
*1081 TAP_TAPCELL_ROW_2_72
*1082 TAP_TAPCELL_ROW_2_73
*1083 TAP_TAPCELL_ROW_30_155
*1084 TAP_TAPCELL_ROW_30_156
*1085 TAP_TAPCELL_ROW_30_157
*1086 TAP_TAPCELL_ROW_30_158
*1087 TAP_TAPCELL_ROW_30_159
*1088 TAP_TAPCELL_ROW_30_160
*1089 TAP_TAPCELL_ROW_3_74
*1090 TAP_TAPCELL_ROW_3_75
*1091 TAP_TAPCELL_ROW_3_76
*1092 TAP_TAPCELL_ROW_4_77
*1093 TAP_TAPCELL_ROW_4_78
*1094 TAP_TAPCELL_ROW_4_79
*1095 TAP_TAPCELL_ROW_5_80
*1096 TAP_TAPCELL_ROW_5_81
*1097 TAP_TAPCELL_ROW_5_82
*1098 TAP_TAPCELL_ROW_6_83
*1099 TAP_TAPCELL_ROW_6_84
*1100 TAP_TAPCELL_ROW_6_85
*1101 TAP_TAPCELL_ROW_7_86
*1102 TAP_TAPCELL_ROW_7_87
*1103 TAP_TAPCELL_ROW_7_88
*1104 TAP_TAPCELL_ROW_8_89
*1105 TAP_TAPCELL_ROW_8_90
*1106 TAP_TAPCELL_ROW_8_91
*1107 TAP_TAPCELL_ROW_9_92
*1108 TAP_TAPCELL_ROW_9_93
*1109 TAP_TAPCELL_ROW_9_94
*1110 _216_
*1111 _217_
*1112 _218_
*1113 _219_
*1114 _220_
*1115 _221_
*1116 _222_
*1117 _223_
*1118 _224_
*1119 _225_
*1120 _226_
*1121 _227_
*1122 _228_
*1123 _229_
*1124 _230_
*1125 _231_
*1126 _232_
*1127 _233_
*1128 _234_
*1129 _235_
*1130 _236_
*1131 _237_
*1132 _238_
*1133 _239_
*1134 _240_
*1135 _241_
*1136 _242_
*1137 _243_
*1138 _244_
*1139 _245_
*1140 _246_
*1141 _247_
*1142 _248_
*1143 _249_
*1144 _250_
*1145 _251_
*1146 _252_
*1147 _253_
*1148 _254_
*1149 _255_
*1150 _256_
*1151 _257_
*1152 _258_
*1153 _259_
*1154 _260_
*1155 _261_
*1156 _262_
*1157 _263_
*1158 _264_
*1159 _265_
*1160 _266_
*1161 _267_
*1162 _268_
*1163 _269_
*1164 _270_
*1165 _271_
*1166 _272_
*1167 _273_
*1168 _274_
*1169 _275_
*1170 _276_
*1171 _277_
*1172 _278_
*1173 _279_
*1174 _280_
*1175 _281_
*1176 _282_
*1177 _283_
*1178 _284_
*1179 _285_
*1180 _286_
*1181 _287_
*1182 _288_
*1183 _289_
*1184 _290_
*1185 _291_
*1186 _292_
*1187 _293_
*1188 _294_
*1189 _295_
*1190 _296_
*1191 _297_
*1192 _298_
*1193 _299_
*1194 _300_
*1195 _301_
*1196 _302_
*1197 _303_
*1198 _304_
*1199 _305_
*1200 _306_
*1201 _307_
*1202 _308_
*1203 _309_
*1204 _310_
*1205 _311_
*1206 _312_
*1207 _313_
*1208 _314_
*1209 _315_
*1210 _316_
*1211 _317_
*1212 _318_
*1213 _319_
*1214 _320_
*1215 _321_
*1216 _322_
*1217 _323_
*1218 _324_
*1219 _325_
*1220 _326_
*1221 _327_
*1222 _328_
*1223 _329_
*1224 _330_
*1225 _331_
*1226 _332_
*1227 _333_
*1228 _334_
*1229 _335_
*1230 _336_
*1231 _337_
*1232 _338_
*1233 _339_
*1234 _340_
*1235 _341_
*1236 _342_
*1237 _343_
*1238 _344_
*1239 _345_
*1240 _346_
*1241 _347_
*1242 _348_
*1243 _349_
*1244 _350_
*1245 _351_
*1246 _352_
*1247 _353_
*1248 _354_
*1249 _355_
*1250 _356_
*1251 _357_
*1252 _358_
*1253 _359_
*1254 _360_
*1255 _361_
*1256 _362_
*1257 _363_
*1258 _364_
*1259 _365_
*1260 _366_
*1261 _367_
*1262 _368_
*1263 _369_
*1264 _370_
*1265 _371_
*1266 _372_
*1267 _373_
*1268 _374_
*1269 _375_
*1270 _376_
*1271 _377_
*1272 _378_
*1273 _379_
*1274 _380_
*1275 _381_
*1276 _382_
*1277 _383_
*1278 _384_
*1279 _385_
*1280 _386_
*1281 _387_
*1282 _388_
*1283 _389_
*1284 _390_
*1285 _391_
*1286 _392_
*1287 _393_
*1288 _394_
*1289 _395_
*1290 _396_
*1291 _397_
*1292 _398_
*1293 _399_
*1294 _400_
*1295 _401_
*1296 _402_
*1297 _403_
*1298 _404_
*1299 _405_
*1300 _406_
*1301 _407_
*1302 _408_
*1303 _409_
*1304 _410_
*1305 _411_
*1306 _412_
*1307 _413_
*1308 _414_
*1309 _415_
*1310 _416_
*1311 _417_
*1312 _418_
*1313 _419_
*1314 _420_
*1315 _421_
*1316 _422_
*1317 _423_
*1318 _424_
*1319 _425_
*1320 _426_
*1321 _427_
*1322 _428_
*1323 _429_
*1324 _430_
*1325 _431_
*1326 _432_
*1327 _433_
*1328 _434_
*1329 _435_
*1330 _436_
*1331 _437_
*1332 _438_
*1333 _439_
*1334 _440_
*1335 _441_
*1336 _442_
*1337 _443_
*1338 _444_
*1339 _445_
*1340 _446_
*1341 _447_
*1342 _448_
*1343 _449_
*1344 _450_
*1345 _451_
*1346 _452_
*1347 _453_
*1348 _454_
*1349 _455_
*1350 _456_
*1351 _457_
*1352 _458_
*1353 _459_
*1354 _460_
*1355 _461_
*1356 _462_
*1357 _463_
*1358 _464_
*1359 _465_
*1360 _466_
*1361 _467_
*1362 _468_
*1363 _469_
*1364 _470_
*1365 _471_
*1366 _472_
*1367 _473_
*1368 _474_
*1369 _475_
*1370 _476_
*1371 _477_
*1372 _478_
*1373 _479_
*1374 _480_
*1375 _481_
*1376 _482_
*1377 _483_
*1378 _484_
*1379 _485_
*1380 _486_
*1381 _487_
*1382 _488_
*1383 _489_
*1384 clkbuf_0_clk
*1385 clkbuf_2_0__f_clk
*1386 clkbuf_2_1__f_clk
*1387 clkbuf_2_2__f_clk
*1388 clkbuf_2_3__f_clk
*1389 clkload0
*1390 clkload1
*1391 clkload2
*1392 fanout24
*1393 fanout25
*1394 fanout26
*1395 fanout27
*1396 fanout28
*1397 fanout29
*1398 hold1
*1399 hold10
*1400 hold11
*1401 hold12
*1402 hold13
*1403 hold14
*1404 hold15
*1405 hold2
*1406 hold3
*1407 hold4
*1408 hold5
*1409 hold6
*1410 hold7
*1411 hold8
*1412 hold9
*1413 input1
*1414 input10
*1415 input11
*1416 input12
*1417 input13
*1418 input14
*1419 input15
*1420 input2
*1421 input3
*1422 input4
*1423 input5
*1424 input6
*1425 input7
*1426 input8
*1427 input9
*1428 output16
*1429 output17
*1430 output18
*1431 output19
*1432 output20
*1433 output21
*1434 output22
*1435 output23

*PORTS
clk I
clock_glitch I
cold_reset_req I
debug_enable O
file_denied I
fsm_error O
fw_fail I
fw_ok I
global_pin_ok I
group_autolock I
group_error O
group_suspended O
group_unlocked O
hdr_parse_fail I
illegal_in I
power_glitch I
reset I
safe_led O
security_breach O
size_mismatch I
tamper_in I
unlock_enable O
unlock_req I
warm_reset_req I

*D_NET *3 0.00986129
*CONN
*P clk I
*I *1384:A I *D sky130_fd_sc_hd__clkbuf_16
*CAP
1 clk 0.00450642
2 *1384:A 0
3 *3:11 0.00450642
4 *3:11 *1266:B1 0
5 *3:11 *1275:B1 0
6 *3:11 *1311:A2 0.000122942
7 *3:11 *1365:CLK 0
8 *3:11 *1371:CLK 0
9 *3:11 *1371:D 0
10 *3:11 *1372:D 0
11 *3:11 *1394:A 0
12 *3:11 *173:14 0
13 *3:11 *211:10 0.000286594
14 *3:11 *211:16 0.00043892
15 *3:11 *247:44 0
16 *3:11 *247:55 0
*RES
1 clk *3:11 44.2508 
2 *3:11 *1384:A 9.3 
*END

*D_NET *4 0.000606605
*CONN
*P clock_glitch I
*I *1413:A I *D sky130_fd_sc_hd__clkbuf_1
*CAP
1 clock_glitch 0.000292514
2 *1413:A 0.000292514
3 *1413:A *1414:A 2.15768e-05
*RES
1 clock_glitch *1413:A 20.7838 
*END

*D_NET *5 0.000820152
*CONN
*P cold_reset_req I
*I *1420:A I *D sky130_fd_sc_hd__buf_1
*CAP
1 cold_reset_req 0.000273025
2 *1420:A 0.000273025
3 *1420:A security_breach 9.28756e-05
4 *1420:A *1318:A2 6.57026e-05
5 *1420:A *1417:A 0.000115524
6 *1420:A *1434:A 0
*RES
1 cold_reset_req *1420:A 19.6254 
*END

*D_NET *6 0.000606373
*CONN
*P debug_enable O
*I *1428:X O *D sky130_fd_sc_hd__buf_2
*CAP
1 debug_enable 0.000212149
2 *1428:X 0.000212149
3 debug_enable group_suspended 9.54485e-05
4 debug_enable unlock_enable 8.66276e-05
*RES
1 *1428:X debug_enable 19.0342 
*END

*D_NET *7 0.000852951
*CONN
*P file_denied I
*I *1421:A I *D sky130_fd_sc_hd__buf_1
*CAP
1 file_denied 0.00041202
2 *1421:A 0.00041202
3 *1421:A *1425:A 0
4 *1421:A *1432:A 2.89114e-05
*RES
1 file_denied *1421:A 21.8357 
*END

*D_NET *8 0.00123955
*CONN
*P fsm_error O
*I *1429:X O *D sky130_fd_sc_hd__buf_2
*CAP
1 fsm_error 0.000453132
2 *1429:X 0.000453132
3 fsm_error safe_led 0.000196285
4 fsm_error security_breach 0
5 fsm_error *1210:A 0
6 fsm_error *1429:A 7.71227e-05
7 fsm_error *1433:A 5.98769e-05
*RES
1 *1429:X fsm_error 23.2128 
*END

*D_NET *9 0.000987475
*CONN
*P fw_fail I
*I *1422:A I *D sky130_fd_sc_hd__clkbuf_1
*CAP
1 fw_fail 0.000330587
2 *1422:A 0.000330587
3 *1422:A *1313:B 0.000115369
4 *1422:A *1361:CLK 0.000188336
5 *1422:A *1416:A 2.25951e-05
6 *1422:A *1426:A 0
*RES
1 fw_fail *1422:A 20.8556 
*END

*D_NET *10 0.00104618
*CONN
*P fw_ok I
*I *1423:A I *D sky130_fd_sc_hd__clkbuf_1
*CAP
1 fw_ok 0.000523092
2 *1423:A 0.000523092
*RES
1 fw_ok *1423:A 23.9607 
*END

*D_NET *11 0.00103634
*CONN
*P global_pin_ok I
*I *1424:A I *D sky130_fd_sc_hd__clkbuf_1
*CAP
1 global_pin_ok 0.000410997
2 *1424:A 0.000410997
3 *1424:A group_error 0.00011176
4 *1424:A unlock_enable 0.000102589
5 *1424:A *1205:B1 0
6 *1424:A *250:35 0
*RES
1 global_pin_ok *1424:A 21.2153 
*END

*D_NET *12 0.000862125
*CONN
*P group_autolock I
*I *1425:A I *D sky130_fd_sc_hd__buf_1
*CAP
1 group_autolock 0.000416607
2 *1425:A 0.000416607
3 *1425:A group_unlocked 0
4 *1425:A *1432:A 2.89114e-05
5 *1421:A *1425:A 0
*RES
1 group_autolock *1425:A 21.8357 
*END

*D_NET *13 0.000667811
*CONN
*P group_error O
*I *1430:X O *D sky130_fd_sc_hd__buf_2
*CAP
1 group_error 0.000215823
2 *1430:X 0.000215823
3 group_error *1205:B1 0
4 group_error *1419:A 9.28756e-05
5 group_error *1430:A 3.15282e-05
6 *1424:A group_error 0.00011176
*RES
1 *1430:X group_error 18.9462 
*END

*D_NET *14 0.000613175
*CONN
*P group_suspended O
*I *1431:X O *D sky130_fd_sc_hd__buf_2
*CAP
1 group_suspended 0.000195492
2 *1431:X 0.000195492
3 group_suspended unlock_enable 0
4 group_suspended *1418:A 9.28756e-05
5 group_suspended *1431:A 3.38674e-05
6 debug_enable group_suspended 9.54485e-05
*RES
1 *1431:X group_suspended 18.8741 
*END

*D_NET *15 0.000880645
*CONN
*P group_unlocked O
*I *1432:X O *D sky130_fd_sc_hd__buf_2
*CAP
1 group_unlocked 0.000440323
2 *1432:X 0.000440323
3 *1425:A group_unlocked 0
*RES
1 *1432:X group_unlocked 21.6393 
*END

*D_NET *16 0.000844346
*CONN
*P hdr_parse_fail I
*I *1426:A I *D sky130_fd_sc_hd__clkbuf_1
*CAP
1 hdr_parse_fail 0.000390234
2 *1426:A 0.000390234
3 *1426:A *1313:D 0
4 *1426:A *1414:A 3.19385e-05
5 *1426:A *1416:A 3.19385e-05
6 *1426:A *268:83 0
7 *1422:A *1426:A 0
*RES
1 hdr_parse_fail *1426:A 19.0903 
*END

*D_NET *17 0.000530746
*CONN
*P illegal_in I
*I *1427:A I *D sky130_fd_sc_hd__clkbuf_1
*CAP
1 illegal_in 0.000162472
2 *1427:A 0.000162472
3 *1427:A *1318:A2 2.62984e-05
4 *1427:A *1417:A 9.28756e-05
5 *1427:A *1419:A 8.66276e-05
*RES
1 illegal_in *1427:A 18.4985 
*END

*D_NET *18 0.000664168
*CONN
*P power_glitch I
*I *1414:A I *D sky130_fd_sc_hd__clkbuf_1
*CAP
1 power_glitch 0.000305326
2 *1414:A 0.000305326
3 *1414:A *1313:D 0
4 *1414:A *1416:A 0
5 *1413:A *1414:A 2.15768e-05
6 *1426:A *1414:A 3.19385e-05
*RES
1 power_glitch *1414:A 21.391 
*END

*D_NET *19 0.000676901
*CONN
*P reset I
*I *1415:A I *D sky130_fd_sc_hd__clkbuf_2
*CAP
1 reset 0.000338451
2 *1415:A 0.000338451
3 *1415:A *1418:A 0
4 *1415:A *269:12 0
*RES
1 reset *1415:A 19.1777 
*END

*D_NET *20 0.00139191
*CONN
*P safe_led O
*I *1433:X O *D sky130_fd_sc_hd__buf_2
*CAP
1 safe_led 0.000377556
2 *1433:X 0.000377556
3 safe_led security_breach 7.91946e-05
4 safe_led *1429:A 0.000211059
5 safe_led *1433:A 0
6 safe_led *256:10 0.000150257
7 fsm_error safe_led 0.000196285
*RES
1 *1433:X safe_led 23.3193 
*END

*D_NET *21 0.000766593
*CONN
*P security_breach O
*I *1434:X O *D sky130_fd_sc_hd__buf_2
*CAP
1 security_breach 0.000295195
2 *1434:X 0.000295195
3 security_breach *1316:A2 0
4 security_breach *1433:A 4.1331e-06
5 fsm_error security_breach 0
6 safe_led security_breach 7.91946e-05
7 *1420:A security_breach 9.28756e-05
*RES
1 *1434:X security_breach 20.2485 
*END

*D_NET *22 0.000728562
*CONN
*P size_mismatch I
*I *1416:A I *D sky130_fd_sc_hd__clkbuf_1
*CAP
1 size_mismatch 0.000337014
2 *1416:A 0.000337014
3 *1416:A *1313:D 0
4 *1414:A *1416:A 0
5 *1422:A *1416:A 2.25951e-05
6 *1426:A *1416:A 3.19385e-05
*RES
1 size_mismatch *1416:A 21.9981 
*END

*D_NET *23 0.00102937
*CONN
*P tamper_in I
*I *1417:A I *D sky130_fd_sc_hd__clkbuf_1
*CAP
1 tamper_in 0.000331899
2 *1417:A 0.000331899
3 *1417:A *1318:A2 0.000157176
4 *1420:A *1417:A 0.000115524
5 *1427:A *1417:A 9.28756e-05
*RES
1 tamper_in *1417:A 22.4449 
*END

*D_NET *24 0.000563578
*CONN
*P unlock_enable O
*I *1435:X O *D sky130_fd_sc_hd__buf_2
*CAP
1 unlock_enable 0.000187181
2 *1435:X 0.000187181
3 unlock_enable *1428:A 0
4 debug_enable unlock_enable 8.66276e-05
5 group_suspended unlock_enable 0
6 *1424:A unlock_enable 0.000102589
*RES
1 *1435:X unlock_enable 18.5706 
*END

*D_NET *25 0.000728334
*CONN
*P unlock_req I
*I *1418:A I *D sky130_fd_sc_hd__buf_1
*CAP
1 unlock_req 0.000312634
2 *1418:A 0.000312634
3 *1418:A *253:14 1.01912e-05
4 group_suspended *1418:A 9.28756e-05
5 *1415:A *1418:A 0
*RES
1 unlock_req *1418:A 20.3199 
*END

*D_NET *26 0.000555613
*CONN
*P warm_reset_req I
*I *1419:A I *D sky130_fd_sc_hd__buf_1
*CAP
1 warm_reset_req 0.000188055
2 *1419:A 0.000188055
3 group_error *1419:A 9.28756e-05
4 *1427:A *1419:A 8.66276e-05
*RES
1 warm_reset_req *1419:A 18.8021 
*END

*D_NET *27 0.00040241
*CONN
*I *1330:D I *D sky130_fd_sc_hd__dfxtp_1
*I *1160:X O *D sky130_fd_sc_hd__and2b_1
*CAP
1 *1330:D 0.000201205
2 *1160:X 0.000201205
3 *1330:D *1163:A 0
4 *1330:D *244:61 0
*RES
1 *1160:X *1330:D 30.9438 
*END

*D_NET *28 0.000255172
*CONN
*I *1331:D I *D sky130_fd_sc_hd__dfxtp_1
*I *1163:X O *D sky130_fd_sc_hd__and3_1
*CAP
1 *1331:D 0.000127586
2 *1163:X 0.000127586
*RES
1 *1163:X *1331:D 29.5152 
*END

*D_NET *29 0.00024849
*CONN
*I *1332:D I *D sky130_fd_sc_hd__dfxtp_1
*I *1166:X O *D sky130_fd_sc_hd__and3_1
*CAP
1 *1332:D 0.000106387
2 *1166:X 0.000106387
3 *1332:D *244:12 3.57163e-05
*RES
1 *1166:X *1332:D 29.5152 
*END

*D_NET *30 0.0011914
*CONN
*I *1333:D I *D sky130_fd_sc_hd__dfxtp_1
*I *1169:X O *D sky130_fd_sc_hd__and3b_1
*CAP
1 *1333:D 0.000229051
2 *1169:X 0.000229051
3 *1333:D *1168:A1 9.41642e-05
4 *1333:D *1169:A_N 3.18676e-05
5 *1333:D *1169:C 0.000128161
6 *1333:D *1333:CLK 0.000142856
7 *1333:D *129:21 7.99439e-05
8 *1333:D *312:45 5.52238e-05
9 *1333:D *319:12 6.97972e-05
10 *1333:D *321:10 0.000131281
*RES
1 *1169:X *1333:D 34.35 
*END

*D_NET *31 0.00112641
*CONN
*I *1334:D I *D sky130_fd_sc_hd__dfxtp_1
*I *1172:X O *D sky130_fd_sc_hd__and3_1
*CAP
1 *1334:D 0.000204802
2 *1172:X 0.000204802
3 *1334:D *1172:B 0.000148903
4 *1334:D *1172:C 7.38652e-05
5 *1334:D *1334:CLK 0.000268396
6 *1334:D *1385:A 0.000179061
7 *1334:D *244:163 3.34366e-05
8 *1334:D *322:48 1.3142e-05
*RES
1 *1172:X *1334:D 33.5821 
*END

*D_NET *32 0.0003585
*CONN
*I *1335:D I *D sky130_fd_sc_hd__dfxtp_1
*I *1175:X O *D sky130_fd_sc_hd__and3b_1
*CAP
1 *1335:D 0.000143834
2 *1175:X 0.000143834
3 *1335:D *1175:B 5.35423e-05
4 *1335:D *106:10 1.72894e-05
5 *1335:D *264:86 0
*RES
1 *1175:X *1335:D 30.2473 
*END

*D_NET *33 0.000989074
*CONN
*I *1336:D I *D sky130_fd_sc_hd__dfxtp_1
*I *1178:X O *D sky130_fd_sc_hd__and3_1
*CAP
1 *1336:D 0.000344048
2 *1178:X 0.000344048
3 *1336:D *1178:A 0.000101545
4 *1336:D *1178:B 5.71472e-05
5 *1336:D *1178:C 3.41124e-05
6 *1336:D *265:10 0.000108172
*RES
1 *1178:X *1336:D 34.658 
*END

*D_NET *34 0.000453684
*CONN
*I *1337:D I *D sky130_fd_sc_hd__dfxtp_1
*I *1180:X O *D sky130_fd_sc_hd__and2_1
*CAP
1 *1337:D 0.000174237
2 *1180:X 0.000174237
3 *1337:D *1180:B 3.69047e-06
4 *1337:D *1393:A 8.39e-05
5 *1337:D *325:8 1.76204e-05
*RES
1 *1180:X *1337:D 30.658 
*END

*D_NET *35 0.000367812
*CONN
*I *1338:D I *D sky130_fd_sc_hd__dfxtp_1
*I *1183:X O *D sky130_fd_sc_hd__and3_1
*CAP
1 *1338:D 0.000101116
2 *1183:X 0.000101116
3 *1338:D *1338:CLK 5.71472e-05
4 *1338:D *265:20 0.000108432
*RES
1 *1183:X *1338:D 21.2607 
*END

*D_NET *36 0.000272251
*CONN
*I *1339:D I *D sky130_fd_sc_hd__dfxtp_1
*I *1186:X O *D sky130_fd_sc_hd__and3_1
*CAP
1 *1339:D 0.000136125
2 *1186:X 0.000136125
*RES
1 *1186:X *1339:D 20.658 
*END

*D_NET *37 0.000695769
*CONN
*I *1340:D I *D sky130_fd_sc_hd__dfxtp_1
*I *1189:X O *D sky130_fd_sc_hd__and3b_1
*CAP
1 *1340:D 0.000158793
2 *1189:X 0.000158793
3 *1340:D *265:33 0.000275638
4 *1340:D *289:8 0
5 *1340:D *313:19 0.000102545
*RES
1 *1189:X *1340:D 31.5688 
*END

*D_NET *38 0.000738348
*CONN
*I *1341:D I *D sky130_fd_sc_hd__dfxtp_1
*I *1192:X O *D sky130_fd_sc_hd__o211a_1
*CAP
1 *1341:D 0.000342475
2 *1192:X 0.000342475
3 *1341:D *1188:C 5.33978e-05
*RES
1 *1192:X *1341:D 33.2116 
*END

*D_NET *39 0.000950297
*CONN
*I *1342:D I *D sky130_fd_sc_hd__dfxtp_1
*I *1195:X O *D sky130_fd_sc_hd__and3_1
*CAP
1 *1342:D 0.000436108
2 *1195:X 0.000436108
3 *1342:D *1195:A 5.52302e-05
4 *1342:D *315:8 2.28499e-05
*RES
1 *1195:X *1342:D 25.0688 
*END

*D_NET *40 0.000380346
*CONN
*I *1343:D I *D sky130_fd_sc_hd__dfxtp_1
*I *1198:X O *D sky130_fd_sc_hd__and3b_1
*CAP
1 *1343:D 0.000111818
2 *1198:X 0.000111818
3 *1343:D *1198:B 5.33882e-05
4 *1343:D *244:30 0.000103323
*RES
1 *1198:X *1343:D 29.9259 
*END

*D_NET *41 0.000588178
*CONN
*I *1344:D I *D sky130_fd_sc_hd__dfxtp_1
*I *1201:X O *D sky130_fd_sc_hd__and3b_1
*CAP
1 *1344:D 0.000252139
2 *1201:X 0.000252139
3 *1344:D *1201:B 8.39e-05
*RES
1 *1201:X *1344:D 32.1759 
*END

*D_NET *42 0.000321702
*CONN
*I *1345:D I *D sky130_fd_sc_hd__dfxtp_1
*I *1204:X O *D sky130_fd_sc_hd__and3_1
*CAP
1 *1345:D 7.82709e-05
2 *1204:X 7.82709e-05
3 *1345:D *1202:A 5.95099e-05
4 *1345:D *1204:B 9.87856e-05
5 *1345:D *1204:C 6.8646e-06
6 *1345:D *244:115 0
*RES
1 *1204:X *1345:D 29.5152 
*END

*D_NET *43 0.000408377
*CONN
*I *1346:D I *D sky130_fd_sc_hd__dfxtp_1
*I *1205:X O *D sky130_fd_sc_hd__o21a_1
*CAP
1 *1346:D 9.47652e-05
2 *1205:X 9.47652e-05
3 *1346:D *1205:A2 1.40415e-05
4 *1346:D *1205:B1 0.000101545
5 *1346:D *250:35 0.00010326
*RES
1 *1205:X *1346:D 29.6402 
*END

*D_NET *44 0.00133601
*CONN
*I *1347:D I *D sky130_fd_sc_hd__dfxtp_1
*I *1206:X O *D sky130_fd_sc_hd__or2_1
*CAP
1 *1347:D 0.000245235
2 *1206:X 0.000245235
3 *1347:D *1207:B 0.000488715
4 *1347:D *1347:CLK 0.00013001
5 *1347:D *247:151 0
6 *1347:D *250:50 0.000212831
7 *1347:D *332:10 1.39841e-05
*RES
1 *1206:X *1347:D 35.4259 
*END

*D_NET *45 0.000398049
*CONN
*I *1348:D I *D sky130_fd_sc_hd__dfxtp_1
*I *1207:Y O *D sky130_fd_sc_hd__nor2_1
*CAP
1 *1348:D 0.000199025
2 *1207:Y 0.000199025
3 *1348:D *1348:CLK 0
4 *1348:D *333:10 0
*RES
1 *1207:Y *1348:D 30.8366 
*END

*D_NET *46 0.00115372
*CONN
*I *1349:D I *D sky130_fd_sc_hd__dfxtp_1
*I *1208:Y O *D sky130_fd_sc_hd__nor2_1
*CAP
1 *1349:D 0.000232694
2 *1208:Y 0.000232694
3 *1349:D *1208:A 3.18676e-05
4 *1349:D *1350:CLK 0.000543375
5 *1349:D *165:18 1.21289e-05
6 *1349:D *334:10 0.00010096
*RES
1 *1208:Y *1349:D 24.5152 
*END

*D_NET *47 0.000481604
*CONN
*I *1350:D I *D sky130_fd_sc_hd__dfxtp_1
*I *1209:Y O *D sky130_fd_sc_hd__nor2_1
*CAP
1 *1350:D 0.000210283
2 *1209:Y 0.000210283
3 *1350:D *1219:B2 5.80706e-06
4 *1350:D *1350:CLK 5.52302e-05
*RES
1 *1209:Y *1350:D 31.225 
*END

*D_NET *48 0.000328159
*CONN
*I *1351:D I *D sky130_fd_sc_hd__dfxtp_1
*I *1210:X O *D sky130_fd_sc_hd__and2_1
*CAP
1 *1351:D 0.000116532
2 *1210:X 0.000116532
3 *1351:D *1118:A 5.71472e-05
4 *1351:D *247:138 3.79467e-05
*RES
1 *1210:X *1351:D 29.6402 
*END

*D_NET *49 0.000495832
*CONN
*I *1352:D I *D sky130_fd_sc_hd__dfxtp_1
*I *1217:X O *D sky130_fd_sc_hd__o211a_1
*CAP
1 *1352:D 0.000179165
2 *1217:X 0.000179165
3 *1352:D *1215:A2 0
4 *1352:D *1352:CLK 8.95186e-05
5 *1352:D *245:106 0
6 *1352:D *260:38 0
7 *1352:D *330:31 4.79842e-05
*RES
1 *1217:X *1352:D 30.9393 
*END

*D_NET *50 0.000873748
*CONN
*I *1353:D I *D sky130_fd_sc_hd__dfxtp_1
*I *1218:X O *D sky130_fd_sc_hd__o221a_1
*CAP
1 *1353:D 0.000422418
2 *1218:X 0.000422418
3 *1353:D *331:8 2.89114e-05
*RES
1 *1218:X *1353:D 25.7473 
*END

*D_NET *51 0.000402429
*CONN
*I *1354:D I *D sky130_fd_sc_hd__dfxtp_1
*I *1236:Y O *D sky130_fd_sc_hd__a21oi_1
*CAP
1 *1354:D 0.000201214
2 *1236:Y 0.000201214
3 *1354:D *1354:CLK 0
4 *1354:D *292:8 0
*RES
1 *1236:Y *1354:D 30.9438 
*END

*D_NET *52 0.000648299
*CONN
*I *1355:D I *D sky130_fd_sc_hd__dfxtp_1
*I *1238:Y O *D sky130_fd_sc_hd__a21oi_1
*CAP
1 *1355:D 0.000324149
2 *1238:Y 0.000324149
3 *1355:D *299:8 0
*RES
1 *1238:Y *1355:D 32.9973 
*END

*D_NET *53 0.000622116
*CONN
*I *1356:D I *D sky130_fd_sc_hd__dfxtp_1
*I *1241:Y O *D sky130_fd_sc_hd__nor2_1
*CAP
1 *1356:D 0.000195805
2 *1241:Y 0.000195805
3 *1356:D *1240:A2 0
4 *1356:D *246:57 0.000148913
5 *1356:D *267:51 8.15939e-05
*RES
1 *1241:Y *1356:D 32.1759 
*END

*D_NET *54 0.000257698
*CONN
*I *1357:D I *D sky130_fd_sc_hd__dfxtp_1
*I *1245:Y O *D sky130_fd_sc_hd__a21oi_1
*CAP
1 *1357:D 0.000128849
2 *1245:Y 0.000128849
*RES
1 *1245:Y *1357:D 29.7116 
*END

*D_NET *55 0.000908917
*CONN
*I *1358:D I *D sky130_fd_sc_hd__dfxtp_1
*I *1247:Y O *D sky130_fd_sc_hd__a21oi_1
*CAP
1 *1358:D 0.000236871
2 *1247:Y 0.000236871
3 *1358:D *1247:A2 0
4 *1358:D *1358:CLK 0.000435174
*RES
1 *1247:Y *1358:D 32.3723 
*END

*D_NET *56 0.000667435
*CONN
*I *1359:D I *D sky130_fd_sc_hd__dfxtp_1
*I *1250:Y O *D sky130_fd_sc_hd__a21oi_1
*CAP
1 *1359:D 0.000217553
2 *1250:Y 0.000217553
3 *1359:D *1250:B1 1.33343e-05
4 *1359:D *1359:CLK 0.000122792
5 *1359:D *169:12 7.47367e-05
6 *1359:D *268:44 2.14658e-05
*RES
1 *1250:Y *1359:D 23.3143 
*END

*D_NET *57 0.000318902
*CONN
*I *1360:D I *D sky130_fd_sc_hd__dfxtp_1
*I *1252:Y O *D sky130_fd_sc_hd__a21oi_1
*CAP
1 *1360:D 9.00905e-05
2 *1252:Y 9.00905e-05
3 *1360:D *1251:B 5.54856e-05
4 *1360:D *1252:A2 8.32354e-05
5 *1360:D *304:27 0
6 *1360:D *304:29 0
*RES
1 *1252:Y *1360:D 29.7116 
*END

*D_NET *58 0.000349239
*CONN
*I *1361:D I *D sky130_fd_sc_hd__dfxtp_1
*I *1256:Y O *D sky130_fd_sc_hd__a21oi_1
*CAP
1 *1361:D 0.000153824
2 *1256:Y 0.000153824
3 *1361:D *1240:B1 0
4 *1361:D *1313:A 0
5 *1361:D *236:18 4.15914e-05
*RES
1 *1256:Y *1361:D 30.4036 
*END

*D_NET *59 0.000855641
*CONN
*I *1362:D I *D sky130_fd_sc_hd__dfxtp_1
*I *1258:Y O *D sky130_fd_sc_hd__a21oi_1
*CAP
1 *1362:D 0.000361548
2 *1258:Y 0.000361548
3 *1362:D *1256:B1 7.83659e-05
4 *1362:D *1363:CLK 0
5 *1362:D *1363:D 0
6 *1362:D *244:67 0
7 *1362:D *306:29 5.41794e-05
*RES
1 *1258:Y *1362:D 34.0464 
*END

*D_NET *60 9.75581e-05
*CONN
*I *1410:A I *D sky130_fd_sc_hd__dlygate4sd3_1
*I *1261:X O *D sky130_fd_sc_hd__o21a_1
*CAP
1 *1410:A 2.03429e-05
2 *1261:X 2.03429e-05
3 *1410:A *1357:CLK 5.68722e-05
*RES
1 *1261:X *1410:A 19.1357 
*END

*D_NET *61 0.000860935
*CONN
*I *1364:D I *D sky130_fd_sc_hd__dfxtp_1
*I *1264:Y O *D sky130_fd_sc_hd__a21oi_1
*CAP
1 *1364:D 0.000338303
2 *1264:Y 0.000338303
3 *1364:D *1252:A1 7.53109e-06
4 *1364:D *1264:B1 3.69047e-06
5 *1364:D *1286:A 0
6 *1364:D *1286:B 1.76204e-05
7 *1364:D *209:10 0.000150611
8 *1364:D *293:10 4.87669e-06
*RES
1 *1264:Y *1364:D 32.3009 
*END

*D_NET *62 0.000529391
*CONN
*I *1365:D I *D sky130_fd_sc_hd__dfxtp_1
*I *1266:Y O *D sky130_fd_sc_hd__a21oi_1
*CAP
1 *1365:D 0.000177075
2 *1266:Y 0.000177075
3 *1365:D *1231:C 2.37575e-05
4 *1365:D *1266:B1 0.000109556
5 *1365:D *294:6 4.19279e-05
*RES
1 *1266:Y *1365:D 22.3366 
*END

*D_NET *63 0.000397912
*CONN
*I *1366:D I *D sky130_fd_sc_hd__dfxtp_1
*I *1269:Y O *D sky130_fd_sc_hd__nor2_1
*CAP
1 *1366:D 0.000145132
2 *1269:Y 0.000145132
3 *1366:D *1269:A 2.71803e-05
4 *1366:D *1269:B 4.85049e-06
5 *1366:D *1272:B1 3.91783e-05
6 *1366:D *266:24 2.50499e-05
7 *1366:D *267:27 1.13883e-05
*RES
1 *1269:Y *1366:D 30.2473 
*END

*D_NET *64 0.000347206
*CONN
*I *1367:D I *D sky130_fd_sc_hd__dfxtp_1
*I *1272:Y O *D sky130_fd_sc_hd__a21oi_1
*CAP
1 *1367:D 0.000170397
2 *1272:Y 0.000170397
3 *1367:D *1367:CLK 6.41284e-06
*RES
1 *1272:Y *1367:D 30.908 
*END

*D_NET *65 0.000471662
*CONN
*I *1368:D I *D sky130_fd_sc_hd__dfxtp_1
*I *1274:X O *D sky130_fd_sc_hd__o21ba_1
*CAP
1 *1368:D 0.000191072
2 *1274:X 0.000191072
3 *1368:D *1274:A2 0
4 *1368:D *1369:CLK 8.95186e-05
*RES
1 *1274:X *1368:D 30.6357 
*END

*D_NET *66 0.000243438
*CONN
*I *1369:D I *D sky130_fd_sc_hd__dfxtp_1
*I *1276:Y O *D sky130_fd_sc_hd__nor2_1
*CAP
1 *1369:D 6.74201e-05
2 *1276:Y 6.74201e-05
3 *1369:D *1276:A 0
4 *1369:D *1276:B 0.000103267
5 *1369:D *165:18 5.33091e-06
*RES
1 *1276:Y *1369:D 29.1045 
*END

*D_NET *67 0.00116142
*CONN
*I *1370:D I *D sky130_fd_sc_hd__dfxtp_1
*I *1303:X O *D sky130_fd_sc_hd__o21a_1
*CAP
1 *1370:D 0.000420444
2 *1303:X 0.000420444
3 *1370:D *1306:A_N 0
4 *1370:D *1306:B 3.5707e-05
5 *1370:D *1372:D 0
6 *1370:D *1391:A 7.49332e-05
7 *1370:D *243:36 0
8 *1370:D *247:27 0.000209893
*RES
1 *1303:X *1370:D 37.033 
*END

*D_NET *68 0.000264712
*CONN
*I *1371:D I *D sky130_fd_sc_hd__dfxtp_1
*I *1306:X O *D sky130_fd_sc_hd__and2b_1
*CAP
1 *1371:D 7.25088e-05
2 *1306:X 7.25088e-05
3 *1371:D *1372:D 0.00010326
4 *1371:D *1387:A 1.64343e-05
5 *3:11 *1371:D 0
*RES
1 *1306:X *1371:D 29.1045 
*END

*D_NET *69 0.00181414
*CONN
*I *1372:D I *D sky130_fd_sc_hd__dfxtp_1
*I *1315:X O *D sky130_fd_sc_hd__and3_1
*CAP
1 *1372:D 0.000736627
2 *1315:X 0.000736627
3 *1372:D *1306:A_N 0
4 *1372:D *1371:CLK 0.00014759
5 *1372:D *211:10 0
6 *1372:D *247:44 7.58664e-05
7 *1372:D *247:55 1.41706e-05
8 *1370:D *1372:D 0
9 *1371:D *1372:D 0.00010326
10 *3:11 *1372:D 0
*RES
1 *1315:X *1372:D 42.3902 
*END

*D_NET *70 0.000323319
*CONN
*I *1406:A I *D sky130_fd_sc_hd__dlygate4sd3_1
*I *1316:X O *D sky130_fd_sc_hd__o31a_1
*CAP
1 *1406:A 8.79548e-05
2 *1316:X 8.79548e-05
3 *1406:A *1316:A1 3.18676e-05
4 *1406:A *1382:A 4.57445e-05
5 *1406:A *247:88 6.97972e-05
*RES
1 *1316:X *1406:A 29.7786 
*END

*D_NET *71 0.00141261
*CONN
*I *1374:D I *D sky130_fd_sc_hd__dfxtp_1
*I *1317:X O *D sky130_fd_sc_hd__o21a_1
*CAP
1 *1374:D 0.000184792
2 *1317:X 0.000184792
3 *1374:D *1402:A 2.14658e-05
4 *1374:D *87:64 0.000237035
5 *1374:D *247:96 0.000581295
6 *1374:D *250:35 0.000150618
7 *1374:D *328:10 5.26091e-05
*RES
1 *1317:X *1374:D 35.4616 
*END

*D_NET *72 0.000761367
*CONN
*I *1375:D I *D sky130_fd_sc_hd__dfxtp_1
*I *1318:X O *D sky130_fd_sc_hd__o21a_1
*CAP
1 *1375:D 0.000309928
2 *1318:X 0.000309928
3 *1375:D *1317:A1 7.83587e-05
4 *1375:D *1317:A2 1.17968e-05
5 *1375:D *1318:A1 0
6 *1375:D *87:31 0
7 *1375:D *329:8 5.13563e-05
*RES
1 *1318:X *1375:D 33.1759 
*END

*D_NET *73 0.000342132
*CONN
*I *1376:D I *D sky130_fd_sc_hd__dfxtp_1
*I *1319:X O *D sky130_fd_sc_hd__a31o_1
*CAP
1 *1376:D 0.000143175
2 *1319:X 0.000143175
3 *1376:D *255:32 0
4 *1376:D *269:57 5.5782e-05
*RES
1 *1319:X *1376:D 30.4036 
*END

*D_NET *74 0.000474551
*CONN
*I *1377:D I *D sky130_fd_sc_hd__dfxtp_1
*I *1320:Y O *D sky130_fd_sc_hd__nor2_1
*CAP
1 *1377:D 3.17605e-05
2 *1320:Y 3.17605e-05
3 *1377:D *1158:B 0.000171906
4 *1377:D *1320:A 9.80173e-05
5 *1377:D *1377:CLK 2.44318e-05
6 *1377:D *269:25 0.000116676
*RES
1 *1320:Y *1377:D 20.6402 
*END

*D_NET *75 0.000556304
*CONN
*I *1378:D I *D sky130_fd_sc_hd__dfxtp_1
*I *1322:Y O *D sky130_fd_sc_hd__nor3_1
*CAP
1 *1378:D 8.67124e-05
2 *1322:Y 8.67124e-05
3 *1378:D *1322:B 0.000142128
4 *1378:D *1322:C 9.90367e-05
5 *1378:D *1346:CLK 0.000108432
6 *1378:D *1378:CLK 1.04232e-05
7 *1378:D *245:127 2.28598e-05
*RES
1 *1322:Y *1378:D 22.0821 
*END

*D_NET *76 0.000396352
*CONN
*I *1379:D I *D sky130_fd_sc_hd__dfxtp_1
*I *1323:Y O *D sky130_fd_sc_hd__nor2_1
*CAP
1 *1379:D 9.41278e-05
2 *1323:Y 9.41278e-05
3 *1379:D *1323:B 9.11365e-06
4 *1379:D *1393:A 3.69697e-05
5 *1379:D *250:14 0.000101545
6 *1379:D *269:25 5.71472e-05
7 *1379:D *311:10 3.32132e-06
*RES
1 *1323:Y *1379:D 29.6402 
*END

*D_NET *77 0.00041437
*CONN
*I *1380:D I *D sky130_fd_sc_hd__dfxtp_2
*I *1328:X O *D sky130_fd_sc_hd__a21o_1
*CAP
1 *1380:D 0.000103894
2 *1328:X 0.000103894
3 *1380:D *1328:A2 0
4 *1380:D *254:12 0.000103323
5 *1380:D *269:94 0.00010326
*RES
1 *1328:X *1380:D 29.9259 
*END

*D_NET *78 0.000296933
*CONN
*I *1381:D I *D sky130_fd_sc_hd__dfxtp_1
*I *1329:X O *D sky130_fd_sc_hd__o21a_1
*CAP
1 *1381:D 9.08642e-05
2 *1329:X 9.08642e-05
3 *1381:D *1381:CLK 5.95099e-05
4 *1381:D *247:123 0
5 *1381:D *250:50 5.56943e-05
6 *1381:D *341:12 0
*RES
1 *1329:X *1381:D 29.5152 
*END

*D_NET *79 0.00186812
*CONN
*I *1222:A1 I *D sky130_fd_sc_hd__o22ai_1
*I *1223:A1 I *D sky130_fd_sc_hd__a2111o_1
*I *1277:B I *D sky130_fd_sc_hd__or3_1
*I *1110:Y O *D sky130_fd_sc_hd__inv_2
*CAP
1 *1222:A1 0.000115099
2 *1223:A1 9.61081e-05
3 *1277:B 0.000149741
4 *1110:Y 0
5 *79:21 0.000561673
6 *79:6 0.000500207
7 *1222:A1 *1207:A 9.57857e-05
8 *1222:A1 *82:40 1.92905e-05
9 *1223:A1 *1222:B1 0.00010096
10 *1223:A1 *82:40 1.39726e-05
11 *1277:B *1110:A 7.6644e-05
12 *1277:B *1207:B 0
13 *1277:B *154:10 0.000127802
14 *1277:B *341:37 1.08359e-05
15 *79:21 *1207:B 0
16 *79:21 *1223:B1 0
17 *79:21 *250:66 0
*RES
1 *1110:Y *79:6 13.8 
2 *79:6 *1277:B 16.3893 
3 *79:6 *79:21 10.3929 
4 *79:21 *1223:A1 10.6571 
5 *79:21 *1222:A1 11.8357 
*END

*D_NET *80 0.0077278
*CONN
*I *1219:B2 I *D sky130_fd_sc_hd__a22o_1
*I *1209:A I *D sky130_fd_sc_hd__nor2_1
*I *1280:A1 I *D sky130_fd_sc_hd__a21oi_1
*I *1127:A I *D sky130_fd_sc_hd__or3_1
*I *1300:C I *D sky130_fd_sc_hd__and3b_1
*I *1111:Y O *D sky130_fd_sc_hd__inv_2
*CAP
1 *1219:B2 0.000751794
2 *1209:A 0
3 *1280:A1 0.000239544
4 *1127:A 0.000293699
5 *1300:C 0.000131523
6 *1111:Y 9.31148e-05
7 *80:55 0.000940851
8 *80:18 0.000763083
9 *80:14 0.00104766
10 *80:8 0.000752429
11 *1127:A *1308:A 0.000357048
12 *1127:A *231:10 5.52238e-05
13 *1127:A *247:84 0.000111501
14 *1219:B2 *1208:A 7.32955e-05
15 *1219:B2 *1220:A2 0
16 *1219:B2 *1221:A2 5.80706e-06
17 *1219:B2 *1224:B1 5.62995e-05
18 *1219:B2 *1224:C1 0.000235898
19 *1219:B2 *1350:CLK 0
20 *1219:B2 *165:18 0.000405733
21 *1219:B2 *335:12 3.92757e-05
22 *1280:A1 *1122:B 9.46929e-05
23 *1280:A1 *1280:B1 1.97695e-05
24 *1280:A1 *90:10 3.14048e-05
25 *1280:A1 *338:8 0.000122873
26 *1300:C *1300:A_N 0.000101545
27 *1300:C *339:23 0.00014183
28 *1300:C *340:22 0.00010326
29 *80:14 *1221:A1 7.29667e-05
30 *80:14 *338:8 7.15846e-05
31 *80:14 *340:14 0.00020112
32 *80:14 *340:69 0.000118903
33 *80:18 *1300:A_N 7.83659e-05
34 *80:18 *81:49 0
35 *80:18 *338:16 2.97756e-05
36 *80:18 *340:14 0
37 *80:18 *340:22 2.31791e-05
38 *80:55 *1220:A2 0
39 *80:55 *1221:A1 7.83659e-05
40 *80:55 *250:66 7.85792e-05
41 *1350:D *1219:B2 5.80706e-06
*RES
1 *1111:Y *80:8 14.7464 
2 *80:8 *80:14 12.8929 
3 *80:14 *80:18 10.6964 
4 *80:18 *1300:C 16.4964 
5 *80:18 *1127:A 19.6929 
6 *80:14 *1280:A1 14.4071 
7 *80:8 *80:55 4.07143 
8 *80:55 *1209:A 13.8 
9 *80:55 *1219:B2 34.0321 
*END

*D_NET *81 0.00899155
*CONN
*I *1208:A I *D sky130_fd_sc_hd__nor2_1
*I *1224:A1 I *D sky130_fd_sc_hd__a211o_1
*I *1220:A1 I *D sky130_fd_sc_hd__o22ai_1
*I *1280:A2 I *D sky130_fd_sc_hd__a21oi_1
*I *1123:B I *D sky130_fd_sc_hd__or3_2
*I *1300:B I *D sky130_fd_sc_hd__and3b_1
*I *1305:A1 I *D sky130_fd_sc_hd__o32a_1
*I *1112:Y O *D sky130_fd_sc_hd__inv_2
*CAP
1 *1208:A 0.000165619
2 *1224:A1 0
3 *1220:A1 0.00016774
4 *1280:A2 0
5 *1123:B 0
6 *1300:B 0
7 *1305:A1 0.000571793
8 *1112:Y 0
9 *81:81 0.000249321
10 *81:62 0.000633978
11 *81:49 0.000740113
12 *81:38 0.000626472
13 *81:31 0.000401969
14 *81:4 0.000704866
15 *1208:A *1208:B 5.71472e-05
16 *1208:A *1224:A2 9.90431e-05
17 *1208:A *1224:B1 1.97695e-05
18 *1208:A *165:18 0.000623771
19 *1208:A *250:66 0.000118651
20 *1208:A *334:10 0.000252898
21 *1220:A1 *1220:B2 2.16045e-05
22 *1220:A1 *1221:A1 1.68773e-05
23 *1220:A1 *1221:B2 0
24 *1220:A1 *1221:C1 2.60252e-05
25 *1305:A1 *1298:B 4.46186e-06
26 *1305:A1 *1303:A1 0.000335117
27 *1305:A1 *1303:A2 0.000340073
28 *1305:A1 *1305:A2 2.49101e-05
29 *1305:A1 *1305:A3 5.71472e-05
30 *1305:A1 *1312:B1 2.59093e-05
31 *1305:A1 *1327:C1 7.6644e-05
32 *1305:A1 *155:16 0
33 *1305:A1 *223:10 0.000152333
34 *1305:A1 *223:23 0.000162825
35 *1305:A1 *225:10 0
36 *1305:A1 *243:10 1.64329e-05
37 *1305:A1 *243:36 5.0725e-05
38 *1305:A1 *339:23 1.32552e-05
39 *81:31 *339:23 9.24825e-05
40 *81:38 *339:23 2.24763e-05
41 *81:38 *340:22 0.000173921
42 *81:49 *1122:A 4.1331e-06
43 *81:49 *1300:A_N 0
44 *81:49 *1301:B2 0.000241205
45 *81:49 *231:10 0.000196276
46 *81:49 *287:10 0.000378167
47 *81:49 *340:22 2.89016e-05
48 *81:49 *340:33 1.98839e-05
49 *81:62 *1122:A 6.53874e-05
50 *81:62 *1220:A2 0
51 *81:62 *1220:B1 9.85236e-06
52 *81:62 *1221:B2 1.98302e-05
53 *81:62 *1221:C1 4.88637e-05
54 *81:62 *287:10 0.000649125
55 *81:62 *341:56 0.000134889
56 *81:81 *1220:A2 4.35048e-05
57 *81:81 *287:10 0
58 *1219:B2 *1208:A 7.32955e-05
59 *1349:D *1208:A 3.18676e-05
60 *80:18 *81:49 0
*RES
1 *1112:Y *81:4 9.3 
2 *81:4 *1305:A1 33.05 
3 *81:4 *81:31 3.03571 
4 *81:31 *1300:B 9.3 
5 *81:31 *81:38 3.82143 
6 *81:38 *1123:B 9.3 
7 *81:38 *81:49 13.4643 
8 *81:49 *1280:A2 13.8 
9 *81:49 *81:62 14.5893 
10 *81:62 *1220:A1 12.05 
11 *81:62 *81:81 10.6429 
12 *81:81 *1224:A1 9.3 
13 *81:81 *1208:A 17.2643 
*END

*D_NET *82 0.00643536
*CONN
*I *1129:B I *D sky130_fd_sc_hd__nand2_1
*I *1207:A I *D sky130_fd_sc_hd__nor2_1
*I *1222:B2 I *D sky130_fd_sc_hd__o22ai_1
*I *1219:A1 I *D sky130_fd_sc_hd__a22o_1
*I *1290:A I *D sky130_fd_sc_hd__nor2_1
*I *1113:Y O *D sky130_fd_sc_hd__inv_2
*CAP
1 *1129:B 0.00023318
2 *1207:A 4.72106e-05
3 *1222:B2 0
4 *1219:A1 0
5 *1290:A 0.000435308
6 *1113:Y 0
7 *82:40 0.000272438
8 *82:31 0.000821586
9 *82:19 0.00084866
10 *82:4 0.000454429
11 *1129:B *1281:C1 7.77652e-05
12 *1129:B *337:77 0.000127051
13 *1207:A *1223:A2 5.71472e-05
14 *1207:A *332:10 8.73231e-05
15 *1290:A *1281:A1 0
16 *1290:A *1281:A2 0
17 *1290:A *1281:C1 0.000122467
18 *1290:A *90:10 0
19 *1290:A *93:10 0.00045554
20 *1290:A *208:6 0.000273269
21 *1290:A *259:25 0.000271339
22 *1290:A *337:34 0
23 *82:31 *1113:A 0.000175059
24 *82:31 *1221:A2 0
25 *82:31 *1280:B1 3.37841e-05
26 *82:31 *1281:C1 1.21289e-05
27 *82:31 *90:10 1.24368e-05
28 *82:31 *287:10 0.000390792
29 *82:40 *1116:A 0.000116468
30 *82:40 *1219:A2 0.000272307
31 *82:40 *1222:B1 7.77751e-05
32 *82:40 *1223:A2 0.000142856
33 *82:40 *1223:D1 0.000116039
34 *82:40 *1224:C1 0.000371955
35 *1222:A1 *1207:A 9.57857e-05
36 *1222:A1 *82:40 1.92905e-05
37 *1223:A1 *82:40 1.39726e-05
*RES
1 *1113:Y *82:4 9.3 
2 *82:4 *1290:A 30.1214 
3 *82:4 *82:19 0.428571 
4 *82:19 *82:31 21.2679 
5 *82:31 *1219:A1 9.3 
6 *82:31 *82:40 8.66071 
7 *82:40 *1222:B2 9.3 
8 *82:40 *1207:A 11.5411 
9 *82:19 *1129:B 14.3714 
*END

*D_NET *83 0.000717823
*CONN
*I *1273:A1 I *D sky130_fd_sc_hd__a41o_1
*I *1114:Y O *D sky130_fd_sc_hd__inv_2
*CAP
1 *1273:A1 0.000178582
2 *1114:Y 0.000178582
3 *1273:A1 *1271:A 2.28499e-05
4 *1273:A1 *172:12 2.14658e-05
5 *1273:A1 *172:38 6.05161e-06
6 *1273:A1 *267:14 0.000310292
*RES
1 *1114:Y *1273:A1 22.4214 
*END

*D_NET *84 0.000258385
*CONN
*I *1292:A1 I *D sky130_fd_sc_hd__a21oi_1
*I *1115:Y O *D sky130_fd_sc_hd__inv_2
*CAP
1 *1292:A1 7.60413e-05
2 *1115:Y 7.60413e-05
3 *1292:A1 *1213:A2 8.06427e-05
4 *1292:A1 *1293:A2 2.56601e-05
5 *1292:A1 *222:10 0
*RES
1 *1115:Y *1292:A1 29.5464 
*END

*D_NET *85 0.000676151
*CONN
*I *1221:A2 I *D sky130_fd_sc_hd__a221o_1
*I *1116:Y O *D sky130_fd_sc_hd__inv_2
*CAP
1 *1221:A2 0.000231109
2 *1116:Y 0.000231109
3 *1221:A2 *1223:C1 0
4 *1221:A2 *86:12 0.000208126
5 *1221:A2 *287:10 0
6 *1219:B2 *1221:A2 5.80706e-06
7 *82:31 *1221:A2 0
*RES
1 *1116:Y *1221:A2 31.8232 
*END

*D_NET *86 0.0040008
*CONN
*I *1221:B1 I *D sky130_fd_sc_hd__a221o_1
*I *1220:B1 I *D sky130_fd_sc_hd__o22ai_1
*I *1117:Y O *D sky130_fd_sc_hd__inv_2
*CAP
1 *1221:B1 0
2 *1220:B1 9.06276e-05
3 *1117:Y 0.00103999
4 *86:12 0.00113062
5 *1220:B1 *1220:B2 5.52238e-05
6 *1220:B1 *1221:A1 0.000285633
7 *1220:B1 *1221:B2 0.000106641
8 *86:12 *1117:A 0
9 *86:12 *1221:A1 1.15281e-05
10 *86:12 *1223:C1 0.00044852
11 *86:12 *247:151 0
12 *86:12 *250:50 0.000614039
13 *1221:A2 *86:12 0.000208126
14 *81:62 *1220:B1 9.85236e-06
*RES
1 *1117:Y *86:12 39.0679 
2 *86:12 *1220:B1 12.5143 
3 *86:12 *1221:B1 9.3 
*END

*D_NET *87 0.0153858
*CONN
*I *1210:B I *D sky130_fd_sc_hd__and2_1
*I *1316:B1 I *D sky130_fd_sc_hd__o31a_1
*I *1296:A1 I *D sky130_fd_sc_hd__a21oi_1
*I *1287:A1 I *D sky130_fd_sc_hd__a41o_1
*I *1312:C1 I *D sky130_fd_sc_hd__o311a_1
*I *1318:B1 I *D sky130_fd_sc_hd__o21a_1
*I *1317:B1 I *D sky130_fd_sc_hd__o21a_1
*I *1205:B1 I *D sky130_fd_sc_hd__o21a_1
*I *1329:B1 I *D sky130_fd_sc_hd__o21a_1
*I *1118:Y O *D sky130_fd_sc_hd__inv_2
*CAP
1 *1210:B 3.62566e-05
2 *1316:B1 0
3 *1296:A1 0.000135872
4 *1287:A1 0.000152398
5 *1312:C1 0.000707682
6 *1318:B1 9.90548e-05
7 *1317:B1 0
8 *1205:B1 0.000322705
9 *1329:B1 0.00019029
10 *1118:Y 0.000202976
11 *87:83 0.000464387
12 *87:64 0.00291466
13 *87:48 9.90548e-05
14 *87:33 0.000377108
15 *87:31 0.00250072
16 *87:25 0.00074411
17 *87:12 0.000709482
18 *87:8 0.000429779
19 *1205:B1 *250:35 0.000260697
20 *1210:B *1210:A 5.83304e-05
21 *1210:B *247:138 0
22 *1287:A1 *1287:A2 5.33433e-05
23 *1287:A1 *1287:A3 0
24 *1287:A1 *214:10 0
25 *1287:A1 *221:12 1.97381e-05
26 *1287:A1 *243:14 7.36267e-05
27 *1296:A1 *1295:B1_N 4.72818e-05
28 *1296:A1 *1296:B1 5.33005e-05
29 *1296:A1 *214:19 0.000300804
30 *1296:A1 *221:12 0.000119125
31 *1312:C1 *1287:A3 0
32 *1312:C1 *1306:A_N 0
33 *1312:C1 *1312:A3 0
34 *1312:C1 *211:16 0
35 *1318:B1 *254:12 0.000273269
36 *1329:B1 *341:22 0.00014285
37 *87:8 *1118:A 4.80241e-05
38 *87:8 *1210:A 2.89114e-05
39 *87:12 *1210:A 0.00020112
40 *87:12 *1433:A 0
41 *87:12 *247:123 0
42 *87:12 *247:138 0
43 *87:25 *1316:A2 0.000163774
44 *87:25 *1382:A 0.00023995
45 *87:25 *1433:A 0
46 *87:25 *1434:A 0.000227021
47 *87:25 *247:88 0
48 *87:25 *247:123 0
49 *87:31 *1317:A2 1.76135e-05
50 *87:31 *1318:A1 0
51 *87:31 *1318:A2 0
52 *87:31 *1382:A 0.000174797
53 *87:31 *1434:A 0.000127439
54 *87:31 *250:35 0.000314799
55 *87:33 *1317:A1 2.00751e-05
56 *87:33 *1317:A2 3.92757e-05
57 *87:33 *250:35 0.00014279
58 *87:64 *1326:B1 9.61455e-05
59 *87:64 *1326:C1 4.88546e-05
60 *87:64 *1380:CLK 2.44318e-05
61 *87:64 *1402:A 1.79511e-05
62 *87:64 *155:16 0.00138103
63 *87:64 *247:96 3.44348e-05
64 *87:83 *221:12 0.000105114
65 *87:83 *243:14 7.7309e-05
66 *87:83 *243:36 2.74584e-05
67 group_error *1205:B1 0
68 *1346:D *1205:B1 0.000101545
69 *1374:D *87:64 0.000237035
70 *1375:D *87:31 0
71 *1424:A *1205:B1 0
*RES
1 *1118:Y *87:8 16.3893 
2 *87:8 *87:12 8.57143 
3 *87:12 *1329:B1 12.7107 
4 *87:12 *87:25 13.1607 
5 *87:25 *87:31 9.5 
6 *87:31 *87:33 1.94643 
7 *87:33 *1205:B1 21.5679 
8 *87:33 *87:48 4.5 
9 *87:48 *1317:B1 9.3 
10 *87:48 *1318:B1 11.8893 
11 *87:31 *87:64 31.7321 
12 *87:64 *1312:C1 27.05 
13 *87:64 *87:83 8.57143 
14 *87:83 *1287:A1 17.3 
15 *87:83 *1296:A1 18.0321 
16 *87:25 *1316:B1 13.8 
17 *87:8 *1210:B 14.8357 
*END

*D_NET *88 0.00696171
*CONN
*I *1134:A I *D sky130_fd_sc_hd__and4_1
*I *1145:A1 I *D sky130_fd_sc_hd__a31oi_1
*I *1120:A I *D sky130_fd_sc_hd__inv_2
*I *1218:A1 I *D sky130_fd_sc_hd__o221a_1
*I *1321:B2 I *D sky130_fd_sc_hd__o221a_1
*I *1119:X O *D sky130_fd_sc_hd__or4b_2
*CAP
1 *1134:A 0
2 *1145:A1 0
3 *1120:A 0
4 *1218:A1 0.000375579
5 *1321:B2 3.04565e-05
6 *1119:X 0.000112761
7 *88:57 0.00152495
8 *88:30 0.00136473
9 *88:18 0.000575816
10 *88:12 0.000503681
11 *1218:A1 *1217:C1 0.000175519
12 *1218:A1 *1218:B1 0
13 *1218:A1 *157:12 5.52302e-05
14 *1218:A1 *157:21 0.000170385
15 *1218:A1 *243:14 8.56716e-05
16 *1218:A1 *260:38 0.000136197
17 *1218:A1 *270:38 0.000389854
18 *1321:B2 *1321:A2 2.89114e-05
19 *1321:B2 *109:8 5.33433e-05
20 *88:12 *1125:A 0.000102545
21 *88:12 *1125:C 3.92854e-05
22 *88:12 *96:14 2.09697e-05
23 *88:12 *309:30 2.81086e-05
24 *88:12 *311:23 5.7836e-06
25 *88:18 *110:10 0.000212608
26 *88:18 *309:19 0
27 *88:18 *309:30 0
28 *88:18 *311:23 5.03894e-05
29 *88:30 *1145:A3 0.000155722
30 *88:30 *1321:A2 2.01281e-05
31 *88:30 *1321:B1 8.14744e-06
32 *88:30 *109:8 2.22022e-05
33 *88:57 *1150:B 8.22793e-06
34 *88:57 *1156:D1 2.06178e-05
35 *88:57 *104:14 0.000619132
36 *88:57 *245:25 0
37 *88:57 *253:14 6.47594e-05
*RES
1 *1119:X *88:12 16.7107 
2 *88:12 *88:18 12.3214 
3 *88:18 *88:30 4.53571 
4 *88:30 *1321:B2 10.2464 
5 *88:30 *88:57 25.0768 
6 *88:57 *1218:A1 28.7286 
7 *88:57 *1120:A 9.3 
8 *88:18 *1145:A1 9.3 
9 *88:12 *1134:A 13.8 
*END

*D_NET *89 0.000645348
*CONN
*I *1280:B1 I *D sky130_fd_sc_hd__a21oi_1
*I *1121:Y O *D sky130_fd_sc_hd__nor3_1
*CAP
1 *1280:B1 0.000117014
2 *1121:Y 0.000117014
3 *1280:B1 *1113:A 0.000178525
4 *1280:B1 *1121:B 2.56694e-05
5 *1280:B1 *1281:C1 0.000137983
6 *1280:B1 *90:10 1.55885e-05
7 *1280:A1 *1280:B1 1.97695e-05
8 *82:31 *1280:B1 3.37841e-05
*RES
1 *1121:Y *1280:B1 31.0286 
*END

*D_NET *90 0.00175361
*CONN
*I *1127:C I *D sky130_fd_sc_hd__or3_1
*I *1123:C I *D sky130_fd_sc_hd__or3_2
*I *1122:X O *D sky130_fd_sc_hd__or3_1
*CAP
1 *1127:C 0
2 *1123:C 0.000138285
3 *1122:X 0.000373094
4 *90:10 0.00051138
5 *1123:C *1301:B2 5.53592e-05
6 *1123:C *1308:D 1.02504e-05
7 *1123:C *93:10 5.94923e-05
8 *1123:C *339:23 0.000181796
9 *1123:C *340:33 0.00018372
10 *90:10 *1122:B 8.0786e-06
11 *90:10 *1308:D 4.56437e-05
12 *90:10 *93:10 2.56601e-05
13 *90:10 *287:10 0.000101422
14 *1280:A1 *90:10 3.14048e-05
15 *1280:B1 *90:10 1.55885e-05
16 *1290:A *90:10 0
17 *82:31 *90:10 1.24368e-05
*RES
1 *1122:X *90:10 20.3536 
2 *90:10 *1123:C 17.8179 
3 *90:10 *1127:C 13.8 
*END

*D_NET *91 0.00376873
*CONN
*I *1307:A I *D sky130_fd_sc_hd__or3b_1
*I *1324:B I *D sky130_fd_sc_hd__or4_1
*I *1124:A I *D sky130_fd_sc_hd__inv_2
*I *1213:A1 I *D sky130_fd_sc_hd__a21oi_1
*I *1123:X O *D sky130_fd_sc_hd__or3_2
*CAP
1 *1307:A 0
2 *1324:B 0.000184684
3 *1124:A 6.10955e-05
4 *1213:A1 0
5 *1123:X 0.000651156
6 *91:16 0.000220271
7 *91:12 0.000356163
8 *91:10 0.000663461
9 *1124:A *1213:B1 0.000144773
10 *1124:A *156:10 5.33433e-05
11 *1124:A *255:10 4.88637e-05
12 *1324:B *1324:C 2.89114e-05
13 *91:10 *1291:A 0.000191163
14 *91:10 *1300:A_N 0
15 *91:10 *1301:A1_N 0
16 *91:10 *1302:A1 4.5539e-05
17 *91:10 *1304:B 7.73662e-05
18 *91:10 *1304:D 0.000148903
19 *91:10 *1309:A3 0
20 *91:10 *1309:B1 0.000122025
21 *91:10 *1327:A1 0
22 *91:10 *215:10 0.000123288
23 *91:10 *225:10 0
24 *91:10 *231:10 0.000212371
25 *91:10 *254:27 0.00038013
26 *91:10 *259:31 0
27 *91:10 *330:73 0
28 *91:10 *339:23 5.52238e-05
29 *91:10 *340:22 0
30 *91:12 *330:73 0
31 *91:16 *330:73 0
*RES
1 *1123:X *91:10 29.9429 
2 *91:10 *91:12 0.276786 
3 *91:12 *91:16 6.90179 
4 *91:16 *1213:A1 9.3 
5 *91:16 *1124:A 11.4786 
6 *91:12 *1324:B 16.2732 
7 *91:10 *1307:A 13.8 
*END

*D_NET *92 0.00123115
*CONN
*I *1126:A I *D sky130_fd_sc_hd__inv_2
*I *1134:B I *D sky130_fd_sc_hd__and4_1
*I *1125:X O *D sky130_fd_sc_hd__or4b_1
*CAP
1 *1126:A 0.000178648
2 *1134:B 8.19063e-05
3 *1125:X 0
4 *92:4 0.000260554
5 *1126:A *1125:A 1.02821e-05
6 *1126:A *1125:B 9.60875e-05
7 *1126:A *1125:D_N 0.000306485
8 *1134:B *1125:A 0.000103783
9 *1134:B *1125:B 1.21289e-05
10 *1134:B *1125:C 4.43256e-05
11 *1134:B *1125:D_N 0
12 *1134:B *1134:C 0
13 *1134:B *96:14 0.000136951
*RES
1 *1125:X *92:4 9.3 
2 *92:4 *1134:B 11.8 
3 *92:4 *1126:A 13.4429 
*END

*D_NET *93 0.0077743
*CONN
*I *1130:B1 I *D sky130_fd_sc_hd__o21ai_1
*I *1301:A1_N I *D sky130_fd_sc_hd__a2bb2o_1
*I *1309:A3 I *D sky130_fd_sc_hd__o311a_1
*I *1325:B1 I *D sky130_fd_sc_hd__a2bb2o_1
*I *1127:X O *D sky130_fd_sc_hd__or3_1
*CAP
1 *1130:B1 0.000966635
2 *1301:A1_N 0.000116139
3 *1309:A3 8.41998e-05
4 *1325:B1 0.000287808
5 *1127:X 0
6 *93:27 0.000696392
7 *93:10 0.00123817
8 *93:4 0.00142095
9 *1130:B1 *1329:A2 9.64602e-05
10 *1130:B1 *202:25 0.000256992
11 *1130:B1 *206:12 0.00103087
12 *1130:B1 *247:84 8.41815e-05
13 *1130:B1 *247:123 1.08359e-05
14 *1130:B1 *261:6 6.05161e-06
15 *1301:A1_N *1292:A2 2.9946e-05
16 *1301:A1_N *1301:B1 9.60939e-05
17 *1301:A1_N *1302:A1 2.35042e-06
18 *1301:A1_N *216:8 2.59355e-05
19 *1309:A3 *1292:A2 8.16036e-05
20 *1309:A3 *1309:B1 1.02504e-05
21 *1325:B1 *1325:B2 0.00021081
22 *1325:B1 *1327:A1 0.00010096
23 *1325:B1 *1327:A2 0.000188586
24 *1325:B1 *231:10 0
25 *1325:B1 *337:34 0
26 *93:10 *1301:B2 0
27 *93:10 *202:25 5.33005e-05
28 *93:10 *231:10 0
29 *93:10 *337:34 0
30 *93:27 *1301:B1 9.90431e-05
31 *93:27 *1301:B2 1.57983e-05
32 *93:27 *216:8 2.32517e-05
33 *1123:C *93:10 5.94923e-05
34 *1290:A *93:10 0.00045554
35 *90:10 *93:10 2.56601e-05
36 *91:10 *1301:A1_N 0
37 *91:10 *1309:A3 0
*RES
1 *1127:X *93:4 9.3 
2 *93:4 *93:10 13.9643 
3 *93:10 *1325:B1 20.4964 
4 *93:10 *93:27 14.875 
5 *93:27 *1309:A3 15.7464 
6 *93:27 *1301:A1_N 16.1393 
7 *93:4 *1130:B1 33.925 
*END

*D_NET *94 0.00110504
*CONN
*I *1130:A1 I *D sky130_fd_sc_hd__o21ai_1
*I *1212:A I *D sky130_fd_sc_hd__or2_1
*I *1128:X O *D sky130_fd_sc_hd__or3_1
*CAP
1 *1130:A1 0.00025994
2 *1212:A 0
3 *1128:X 0.000106248
4 *94:8 0.000366188
5 *1130:A1 *1130:A2 2.95726e-05
6 *1130:A1 *1212:B 8.66063e-05
7 *1130:A1 *1401:A 0.000166485
8 *94:8 *1128:A 1.24368e-05
9 *94:8 *1212:B 5.33005e-05
10 *94:8 *1401:A 2.42662e-05
*RES
1 *1128:X *94:8 11.0857 
2 *94:8 *1212:A 9.3 
3 *94:8 *1130:A1 14.3714 
*END

*D_NET *95 0.00241575
*CONN
*I *1279:A1 I *D sky130_fd_sc_hd__a31o_1
*I *1130:A2 I *D sky130_fd_sc_hd__o21ai_1
*I *1129:Y O *D sky130_fd_sc_hd__nand2_1
*CAP
1 *1279:A1 0
2 *1130:A2 0.000377434
3 *1129:Y 0.00019333
4 *95:10 0.000570765
5 *1130:A2 *1206:A 4.48206e-05
6 *1130:A2 *1212:B 0.000173097
7 *1130:A2 *1401:A 0.00040279
8 *1130:A2 *154:10 1.02504e-05
9 *1130:A2 *155:16 1.76135e-05
10 *1130:A2 *250:50 0
11 *1130:A2 *269:94 0
12 *95:10 *1129:A 4.87854e-05
13 *95:10 *1206:A 6.44449e-05
14 *95:10 *154:10 0.000329801
15 *95:10 *341:22 0.00015304
16 *1130:A1 *1130:A2 2.95726e-05
*RES
1 *1129:Y *95:10 19.1214 
2 *95:10 *1130:A2 21.7107 
3 *95:10 *1279:A1 13.8 
*END

*D_NET *96 0.00516037
*CONN
*I *1134:C I *D sky130_fd_sc_hd__and4_1
*I *1145:A2 I *D sky130_fd_sc_hd__a31oi_1
*I *1150:A I *D sky130_fd_sc_hd__or3_1
*I *1132:A I *D sky130_fd_sc_hd__inv_2
*I *1149:A I *D sky130_fd_sc_hd__nor2_1
*I *1131:X O *D sky130_fd_sc_hd__or4b_2
*CAP
1 *1134:C 2.30826e-05
2 *1145:A2 0
3 *1150:A 0
4 *1132:A 0
5 *1149:A 0.000312319
6 *1131:X 0.000305766
7 *96:32 0.000402181
8 *96:26 0.000358326
9 *96:20 0.00067234
10 *96:14 0.000732725
11 *1149:A *1144:A 0.000145411
12 *1149:A *1148:C 0
13 *1149:A *1149:B 8.08049e-05
14 *1149:A *1150:C 2.41481e-05
15 *1149:A *1156:A2 0
16 *1149:A *1157:B1 9.90431e-05
17 *1149:A *1321:B1 7.34457e-05
18 *1149:A *98:10 0.00019117
19 *1149:A *122:12 4.88637e-05
20 *1149:A *245:25 0
21 *1149:A *255:32 0
22 *96:14 *1125:A 0.000100831
23 *96:14 *1125:B 9.31893e-05
24 *96:14 *1125:C 1.74352e-05
25 *96:14 *1131:C 0.000268403
26 *96:14 *311:23 3.47641e-06
27 *96:14 *311:36 6.43284e-05
28 *96:20 *1125:B 2.89114e-05
29 *96:20 *1125:C 5.30637e-06
30 *96:20 *1134:D 1.92789e-05
31 *96:20 *1150:B 0
32 *96:20 *1157:B1 4.1331e-06
33 *96:20 *1322:C 5.95089e-05
34 *96:20 *101:16 6.37855e-05
35 *96:26 *1150:B 4.8843e-05
36 *96:26 *1157:B1 0.000543019
37 *96:32 *1150:B 7.43578e-06
38 *96:32 *1150:C 5.71472e-05
39 *96:32 *1157:B1 4.87538e-05
40 *96:32 *122:12 9.90367e-05
41 *1134:B *1134:C 0
42 *1134:B *96:14 0.000136951
43 *88:12 *96:14 2.09697e-05
*RES
1 *1131:X *96:14 24.6036 
2 *96:14 *96:20 12.1071 
3 *96:20 *96:26 11.3929 
4 *96:26 *96:32 2.625 
5 *96:32 *1149:A 26.3536 
6 *96:32 *1132:A 9.3 
7 *96:26 *1150:A 9.3 
8 *96:20 *1145:A2 13.8 
9 *96:14 *1134:C 9.72857 
*END

*D_NET *97 0.00138567
*CONN
*I *1155:B1 I *D sky130_fd_sc_hd__o31ai_1
*I *1132:Y O *D sky130_fd_sc_hd__inv_2
*CAP
1 *1155:B1 0.000275227
2 *1132:Y 0.000275227
3 *1155:B1 *1148:A 0
4 *1155:B1 *1148:C 1.69961e-05
5 *1155:B1 *1155:A1 0.000274288
6 *1155:B1 *108:25 0.000188586
7 *1155:B1 *122:12 5.52302e-05
8 *1155:B1 *245:25 0.000268396
9 *1155:B1 *245:31 3.17148e-05
*RES
1 *1132:Y *1155:B1 34.725 
*END

*D_NET *98 0.00441333
*CONN
*I *1134:D I *D sky130_fd_sc_hd__and4_1
*I *1156:B1 I *D sky130_fd_sc_hd__a2111o_1
*I *1144:A I *D sky130_fd_sc_hd__or3_1
*I *1133:X O *D sky130_fd_sc_hd__or4b_1
*CAP
1 *1134:D 0.000259628
2 *1156:B1 0.000365466
3 *1144:A 0.000102259
4 *1133:X 0
5 *98:10 0.00120692
6 *98:4 0.000998823
7 *1134:D *1133:C 4.87854e-05
8 *1134:D *1136:C 7.83587e-05
9 *1134:D *1159:B_N 1.02504e-05
10 *1134:D *308:12 5.62995e-05
11 *1134:D *308:21 2.95641e-05
12 *1134:D *309:30 7.6644e-05
13 *1144:A *1149:B 0.000145411
14 *1144:A *1321:B1 9.60875e-05
15 *1144:A *109:8 7.43578e-06
16 *1156:B1 *1146:B 8.02593e-05
17 *1156:B1 *1389:A 1.58163e-05
18 *1156:B1 *245:25 0.000100823
19 *98:10 *1149:B 0.000198698
20 *98:10 *1319:A3 0.000113295
21 *98:10 *1319:B1 2.47833e-05
22 *98:10 *269:53 9.99644e-06
23 *98:10 *308:12 3.18676e-05
24 *1149:A *1144:A 0.000145411
25 *1149:A *98:10 0.00019117
26 *96:20 *1134:D 1.92789e-05
*RES
1 *1133:X *98:4 9.3 
2 *98:4 *98:10 15.3929 
3 *98:10 *1144:A 16.6929 
4 *98:10 *1156:B1 27.55 
5 *98:4 *1134:D 22.4607 
*END

*D_NET *99 0.00318384
*CONN
*I *1136:C I *D sky130_fd_sc_hd__or3_2
*I *1159:B_N I *D sky130_fd_sc_hd__and4bb_1
*I *1134:X O *D sky130_fd_sc_hd__and4_1
*CAP
1 *1136:C 0.000723869
2 *1159:B_N 0.000432427
3 *1134:X 0
4 *99:6 0.0011563
5 *1136:C *1133:B 8.00806e-05
6 *1136:C *1346:CLK 0
7 *1136:C *101:10 9.90431e-05
8 *1136:C *101:16 0
9 *1136:C *250:35 0
10 *1136:C *308:12 0
11 *1136:C *309:30 1.31516e-05
12 *1136:C *309:43 4.40802e-05
13 *1136:C *310:10 0.000141591
14 *1159:B_N *1157:B1 0
15 *1159:B_N *101:16 0
16 *1159:B_N *245:71 5.33334e-05
17 *1159:B_N *309:19 0.000295255
18 *1159:B_N *309:30 5.61055e-05
19 *1134:D *1136:C 7.83587e-05
20 *1134:D *1159:B_N 1.02504e-05
*RES
1 *1134:X *99:6 13.8 
2 *99:6 *1159:B_N 23.3714 
3 *99:6 *1136:C 27.8714 
*END

*D_NET *100 0.00316537
*CONN
*I *1319:A1 I *D sky130_fd_sc_hd__a31o_1
*I *1328:A1 I *D sky130_fd_sc_hd__a21o_1
*I *1135:Y O *D sky130_fd_sc_hd__nor2_1
*CAP
1 *1319:A1 0.000500829
2 *1328:A1 0.000104564
3 *1135:Y 0.000416017
4 *100:6 0.00102141
5 *1319:A1 *1322:C 0
6 *1319:A1 *101:10 0
7 *1319:A1 *269:57 0.000561696
8 *1319:A1 *269:66 0.000150625
9 *1319:A1 *269:79 0.000226021
10 *1328:A1 *269:94 5.33005e-05
11 *100:6 *1135:B 3.18676e-05
12 *100:6 *269:94 9.90431e-05
*RES
1 *1135:Y *100:6 16.8179 
2 *100:6 *1328:A1 11.0857 
3 *100:6 *1319:A1 30.2643 
*END

*D_NET *101 0.00812022
*CONN
*I *1205:A2 I *D sky130_fd_sc_hd__o21a_1
*I *1322:B I *D sky130_fd_sc_hd__nor3_1
*I *1145:B1 I *D sky130_fd_sc_hd__a31oi_1
*I *1157:B1 I *D sky130_fd_sc_hd__a31o_1
*I *1136:X O *D sky130_fd_sc_hd__or3_2
*CAP
1 *1205:A2 0.000522036
2 *1322:B 0.000269715
3 *1145:B1 0
4 *1157:B1 0.000565462
5 *1136:X 0.000470911
6 *101:48 0.000791751
7 *101:16 0.00122384
8 *101:10 0.00112929
9 *1157:B1 *1148:B 8.25843e-06
10 *1157:B1 *1150:C 3.52966e-05
11 *1157:B1 *1151:B1 0.000517945
12 *1157:B1 *1157:A1 0.000104956
13 *1157:B1 *1157:A3 0.000243816
14 *1157:B1 *1321:B1 0.000483498
15 *1157:B1 *1321:C1 5.71472e-05
16 *1157:B1 *113:8 0.000139907
17 *1157:B1 *122:12 9.05414e-05
18 *1205:A2 *1346:CLK 0.000215774
19 *1205:A2 *310:10 5.52302e-05
20 *1322:B *1346:CLK 1.2878e-05
21 *1322:B *245:127 1.32552e-05
22 *101:10 *1322:C 0
23 *101:16 *1322:C 0
24 *101:16 *308:12 0.000154762
25 *1136:C *101:10 9.90431e-05
26 *1136:C *101:16 0
27 *1149:A *1157:B1 9.90431e-05
28 *1159:B_N *1157:B1 0
29 *1159:B_N *101:16 0
30 *1319:A1 *101:10 0
31 *1346:D *1205:A2 1.40415e-05
32 *1378:D *1322:B 0.000142128
33 *96:20 *1157:B1 4.1331e-06
34 *96:20 *101:16 6.37855e-05
35 *96:26 *1157:B1 0.000543019
36 *96:32 *1157:B1 4.87538e-05
*RES
1 *1136:X *101:10 20.175 
2 *101:10 *101:16 12.3214 
3 *101:16 *1157:B1 32.2107 
4 *101:16 *1145:B1 13.8 
5 *101:10 *101:48 4.5 
6 *101:48 *1322:B 13.1393 
7 *101:48 *1205:A2 18.1929 
*END

*D_NET *102 0.00570814
*CONN
*I *1147:D1 I *D sky130_fd_sc_hd__o2111a_1
*I *1184:A1 I *D sky130_fd_sc_hd__a21o_1
*I *1181:A I *D sky130_fd_sc_hd__nand2_1
*I *1137:X O *D sky130_fd_sc_hd__and3_1
*CAP
1 *1147:D1 0.00119567
2 *1184:A1 0
3 *1181:A 5.89075e-05
4 *1137:X 0.000217871
5 *102:23 0.00136271
6 *102:10 0.000443823
7 *1147:D1 *1152:A1 0.000354911
8 *1147:D1 *1155:A1 1.24368e-05
9 *1147:D1 *108:14 0.000134184
10 *1147:D1 *112:6 0.000111811
11 *1147:D1 *245:37 0
12 *1147:D1 *245:41 0
13 *1181:A *103:6 9.92409e-05
14 *1181:A *133:41 5.16736e-05
15 *1181:A *133:48 0.00010096
16 *102:10 *1182:A1 0.000401764
17 *102:10 *1182:A2 1.74352e-05
18 *102:10 *103:6 0.000509169
19 *102:10 *133:48 0.000260322
20 *102:10 *324:36 0.000230482
21 *102:10 *325:19 0.000144773
22 *102:23 *245:41 0
*RES
1 *1137:X *102:10 19.0143 
2 *102:10 *1181:A 11.4964 
3 *102:10 *102:23 7.05357 
4 *102:23 *1184:A1 13.8 
5 *102:23 *1147:D1 31.1304 
*END

*D_NET *103 0.00851998
*CONN
*I *1185:A I *D sky130_fd_sc_hd__nand2_1
*I *1139:B1 I *D sky130_fd_sc_hd__o211a_1
*I *1152:C1 I *D sky130_fd_sc_hd__o211a_1
*I *1188:B I *D sky130_fd_sc_hd__and3_1
*I *1190:C I *D sky130_fd_sc_hd__and4_1
*I *1187:A1 I *D sky130_fd_sc_hd__a21o_1
*I *1138:X O *D sky130_fd_sc_hd__and4_1
*CAP
1 *1185:A 9.01254e-05
2 *1139:B1 7.60573e-05
3 *1152:C1 2.65875e-05
4 *1188:B 0.00048978
5 *1190:C 0.000262689
6 *1187:A1 7.03768e-05
7 *1138:X 0.000613959
8 *103:51 0.000383689
9 *103:34 0.000770825
10 *103:25 0.000728523
11 *103:10 0.000764662
12 *103:6 0.000932536
13 *1139:B1 *1139:C1 7.7674e-05
14 *1139:B1 *265:57 6.8646e-06
15 *1139:B1 *322:14 0.000202842
16 *1152:C1 *1152:A1 0.000140933
17 *1152:C1 *1152:A2 8.57023e-05
18 *1152:C1 *322:20 5.52302e-05
19 *1185:A *245:41 0
20 *1185:A *270:8 0.000150625
21 *1187:A1 *1432:A 0
22 *1187:A1 *289:8 8.25098e-05
23 *1188:B *1188:A 9.99644e-06
24 *1188:B *105:10 4.02462e-05
25 *1188:B *143:12 0.000125731
26 *1188:B *265:33 7.49332e-05
27 *1188:B *265:42 3.87848e-05
28 *1188:B *313:19 0
29 *1188:B *314:10 0.000246505
30 *1188:B *314:23 7.63851e-05
31 *1190:C *1140:A 0.000144773
32 *1190:C *1190:B 6.87574e-05
33 *1190:C *314:23 0.00014285
34 *103:6 *133:41 4.72487e-05
35 *103:10 *133:33 5.52302e-05
36 *103:10 *133:41 2.15245e-05
37 *103:10 *133:92 0.000183713
38 *103:25 *1190:B 8.40933e-05
39 *103:25 *1432:A 0
40 *103:25 *289:8 0.000192585
41 *103:51 *1139:C1 2.8266e-06
42 *103:51 *1142:B 0.000229443
43 *103:51 *1147:C1 0
44 *103:51 *105:10 5.84267e-05
45 *103:51 *265:57 5.53312e-05
46 *1181:A *103:6 9.92409e-05
47 *102:10 *103:6 0.000509169
*RES
1 *1138:X *103:6 18.05 
2 *103:6 *103:10 7.5 
3 *103:10 *1187:A1 14.8357 
4 *103:10 *103:25 11.2857 
5 *103:25 *1190:C 13.1214 
6 *103:25 *103:34 4.5 
7 *103:34 *1188:B 23.55 
8 *103:34 *103:51 6.5 
9 *103:51 *1152:C1 15.1571 
10 *103:51 *1139:B1 16.6571 
11 *103:6 *1185:A 20.2464 
*END

*D_NET *104 0.00290467
*CONN
*I *1144:B I *D sky130_fd_sc_hd__or3_1
*I *1156:C1 I *D sky130_fd_sc_hd__a2111o_1
*I *1139:X O *D sky130_fd_sc_hd__o211a_1
*CAP
1 *1144:B 0.00016767
2 *1156:C1 0
3 *1139:X 0.000711821
4 *104:14 0.000879492
5 *1144:B *1144:C 8.07397e-06
6 *1144:B *1156:A1 0.000139913
7 *104:14 *1144:C 5.52302e-05
8 *104:14 *1156:A1 3.25477e-05
9 *104:14 *1287:B1 0
10 *104:14 *260:10 5.33005e-05
11 *104:14 *260:38 0.000181796
12 *104:14 *265:57 5.56943e-05
13 *88:57 *104:14 0.000619132
*RES
1 *1139:X *104:14 32.6036 
2 *104:14 *1156:C1 9.3 
3 *104:14 *1144:B 11.4786 
*END

*D_NET *105 0.00224008
*CONN
*I *1142:A I *D sky130_fd_sc_hd__or2_1
*I *1143:B I *D sky130_fd_sc_hd__or3_1
*I *1140:X O *D sky130_fd_sc_hd__or2_1
*CAP
1 *1142:A 7.97191e-05
2 *1143:B 0
3 *1140:X 0.000370112
4 *105:10 0.000449831
5 *1142:A *1142:B 0.000144512
6 *1142:A *265:57 0.000153047
7 *105:10 *1140:A 0.000117621
8 *105:10 *1142:B 8.32242e-05
9 *105:10 *1190:B 0.000443654
10 *105:10 *144:8 3.18676e-05
11 *105:10 *265:42 0.000171375
12 *105:10 *265:57 9.64387e-05
13 *1188:B *105:10 4.02462e-05
14 *103:51 *105:10 5.84267e-05
*RES
1 *1140:X *105:10 23.55 
2 *105:10 *1143:B 13.8 
3 *105:10 *1142:A 16.2821 
*END

*D_NET *106 0.00410726
*CONN
*I *1143:C I *D sky130_fd_sc_hd__or3_1
*I *1142:B I *D sky130_fd_sc_hd__or2_1
*I *1141:X O *D sky130_fd_sc_hd__or3_1
*CAP
1 *1143:C 0
2 *1142:B 7.15844e-05
3 *1141:X 0.0014985
4 *106:10 0.00157009
5 *106:10 *1141:A 9.87617e-05
6 *106:10 *1175:A_N 8.90199e-05
7 *106:10 *1175:B 3.05446e-05
8 *106:10 *1175:C 0.000274294
9 *1142:A *1142:B 0.000144512
10 *1335:D *106:10 1.72894e-05
11 *103:51 *1142:B 0.000229443
12 *105:10 *1142:B 8.32242e-05
*RES
1 *1141:X *106:10 34.5143 
2 *106:10 *1142:B 21.6929 
3 *106:10 *1143:C 9.3 
*END

*D_NET *107 0.00190456
*CONN
*I *1153:C I *D sky130_fd_sc_hd__or4_1
*I *1154:A3 I *D sky130_fd_sc_hd__o41ai_1
*I *1142:X O *D sky130_fd_sc_hd__or2_1
*CAP
1 *1153:C 9.66693e-05
2 *1154:A3 0
3 *1142:X 0.000288074
4 *107:12 0.000384744
5 *1153:C *1153:A 0.000186669
6 *1153:C *1153:B 3.53079e-05
7 *1153:C *1153:D 8.41815e-05
8 *1153:C *1154:A1 1.21258e-05
9 *1153:C *1154:B1 9.90367e-05
10 *1153:C *1157:A1 0.000401764
11 *107:12 *1152:B1 0.000123288
12 *107:12 *1153:B 6.05161e-06
13 *107:12 *1154:A1 5.41494e-05
14 *107:12 *1154:A2 3.36817e-05
15 *107:12 *1287:B1 0
16 *107:12 *265:57 9.88136e-05
17 *107:12 *289:8 0
*RES
1 *1142:X *107:12 24.1393 
2 *107:12 *1154:A3 9.3 
3 *107:12 *1153:C 13.9429 
*END

*D_NET *108 0.00476965
*CONN
*I *1156:D1 I *D sky130_fd_sc_hd__a2111o_1
*I *1144:C I *D sky130_fd_sc_hd__or3_1
*I *1148:B I *D sky130_fd_sc_hd__or3_1
*I *1155:A2 I *D sky130_fd_sc_hd__o31ai_1
*I *1143:X O *D sky130_fd_sc_hd__or3_1
*CAP
1 *1156:D1 4.47066e-05
2 *1144:C 0.000231173
3 *1148:B 8.23217e-05
4 *1155:A2 0
5 *1143:X 0.000610012
6 *108:40 0.000459634
7 *108:25 0.000372216
8 *108:14 0.000716151
9 *1144:C *1156:A1 4.9088e-05
10 *1148:B *122:12 5.33005e-05
11 *1156:D1 *245:25 1.43e-05
12 *108:14 *1155:A1 4.40835e-05
13 *108:14 *1186:A 0.000123356
14 *108:14 *1186:B 9.25014e-06
15 *108:14 *1186:C 9.33978e-07
16 *108:14 *112:6 0.000427639
17 *108:14 *245:37 0
18 *108:14 *270:8 0.000344917
19 *108:25 *1148:C 0.000260954
20 *108:25 *1155:A1 7.80757e-05
21 *108:25 *1157:A2 3.92854e-05
22 *108:25 *112:6 7.90536e-05
23 *108:25 *245:25 0.00012401
24 *108:40 *1157:A2 2.82057e-05
25 *108:40 *1157:A3 3.59663e-05
26 *108:40 *245:25 0.000126062
27 *1144:B *1144:C 8.07397e-06
28 *1147:D1 *108:14 0.000134184
29 *1155:B1 *108:25 0.000188586
30 *1157:B1 *1148:B 8.25843e-06
31 *88:57 *1156:D1 2.06178e-05
32 *104:14 *1144:C 5.52302e-05
*RES
1 *1143:X *108:14 31.3446 
2 *108:14 *1155:A2 9.3 
3 *108:14 *108:25 9.34821 
4 *108:25 *1148:B 14.7464 
5 *108:25 *108:40 3.625 
6 *108:40 *1144:C 17.3714 
7 *108:40 *1156:D1 14.5321 
*END

*D_NET *109 0.00129487
*CONN
*I *1145:A3 I *D sky130_fd_sc_hd__a31oi_1
*I *1321:A1 I *D sky130_fd_sc_hd__o221a_1
*I *1144:X O *D sky130_fd_sc_hd__or3_1
*CAP
1 *1145:A3 6.39557e-05
2 *1321:A1 0
3 *1144:X 0.000393078
4 *109:8 0.000457034
5 *109:8 *1321:B1 8.6874e-05
6 *109:8 *1321:C1 5.52238e-05
7 *1144:A *109:8 7.43578e-06
8 *1321:B2 *109:8 5.33433e-05
9 *88:30 *1145:A3 0.000155722
10 *88:30 *109:8 2.22022e-05
*RES
1 *1144:X *109:8 14.675 
2 *109:8 *1321:A1 9.3 
3 *109:8 *1145:A3 11.0679 
*END

*D_NET *110 0.00247924
*CONN
*I *1151:A2 I *D sky130_fd_sc_hd__o21a_1
*I *1323:B I *D sky130_fd_sc_hd__nor2_1
*I *1145:Y O *D sky130_fd_sc_hd__a31oi_1
*CAP
1 *1151:A2 7.00239e-05
2 *1323:B 0.000181426
3 *1145:Y 0.000505507
4 *110:10 0.000756957
5 *1323:B *1159:C 0
6 *1323:B *1393:A 0.00012401
7 *1323:B *245:75 0.000197977
8 *1323:B *250:14 6.70215e-05
9 *1323:B *269:25 3.23206e-05
10 *1323:B *311:10 0.000128154
11 *1323:B *311:23 3.34295e-05
12 *110:10 *250:14 2.8266e-06
13 *110:10 *250:35 4.06782e-05
14 *110:10 *311:23 0.000117189
15 *1379:D *1323:B 9.11365e-06
16 *88:18 *110:10 0.000212608
*RES
1 *1145:Y *110:10 21.3179 
2 *110:10 *1323:B 19.3179 
3 *110:10 *1151:A2 14.7464 
*END

*D_NET *111 0.00185593
*CONN
*I *1319:A2 I *D sky130_fd_sc_hd__a31o_1
*I *1321:A2 I *D sky130_fd_sc_hd__o221a_1
*I *1150:B I *D sky130_fd_sc_hd__or3_1
*I *1146:Y O *D sky130_fd_sc_hd__nand2_1
*CAP
1 *1319:A2 9.98607e-05
2 *1321:A2 4.4556e-05
3 *1150:B 0.000353967
4 *1146:Y 0.000157092
5 *111:10 0.000545266
6 *111:8 0.000403695
7 *1150:B *1156:A1 2.8266e-06
8 *1150:B *1321:C1 4.61259e-05
9 *1150:B *1322:C 0
10 *1150:B *269:53 0
11 *1319:A2 *1322:C 0
12 *1319:A2 *269:53 0
13 *1321:A2 *1321:B1 5.7661e-06
14 *111:8 *1146:A 2.59355e-05
15 *111:10 *1146:A 1.31511e-05
16 *111:10 *1156:A1 4.41381e-05
17 *111:10 *1322:C 0
18 *111:10 *269:53 0
19 *1321:B2 *1321:A2 2.89114e-05
20 *88:30 *1321:A2 2.01281e-05
21 *88:57 *1150:B 8.22793e-06
22 *96:20 *1150:B 0
23 *96:26 *1150:B 4.8843e-05
24 *96:32 *1150:B 7.43578e-06
*RES
1 *1146:Y *111:8 15.5679 
2 *111:8 *111:10 2.85714 
3 *111:10 *1150:B 18.925 
4 *111:10 *1321:A2 14.7643 
5 *111:8 *1319:A2 15.4429 
*END

*D_NET *112 0.0030893
*CONN
*I *1148:C I *D sky130_fd_sc_hd__or3_1
*I *1155:A3 I *D sky130_fd_sc_hd__o31ai_1
*I *1147:X O *D sky130_fd_sc_hd__o2111a_1
*CAP
1 *1148:C 0.000182263
2 *1155:A3 0
3 *1147:X 0.000553447
4 *112:6 0.00073571
5 *1148:C *1148:A 0.000148196
6 *1148:C *1157:A2 0.000144773
7 *1148:C *245:25 0.00022832
8 *1148:C *269:53 0
9 *112:6 *1152:A1 1.74352e-05
10 *112:6 *1152:A2 0.0001827
11 *1147:D1 *112:6 0.000111811
12 *1149:A *1148:C 0
13 *1155:B1 *1148:C 1.69961e-05
14 *108:14 *112:6 0.000427639
15 *108:25 *1148:C 0.000260954
16 *108:25 *112:6 7.90536e-05
*RES
1 *1147:X *112:6 20.1036 
2 *112:6 *1155:A3 9.3 
3 *112:6 *1148:C 23.9607 
*END

*D_NET *113 0.00172155
*CONN
*I *1149:B I *D sky130_fd_sc_hd__nor2_1
*I *1150:C I *D sky130_fd_sc_hd__or3_1
*I *1148:X O *D sky130_fd_sc_hd__or3_1
*CAP
1 *1149:B 0.000212438
2 *1150:C 0.000112399
3 *1148:X 9.9383e-05
4 *113:8 0.00042422
5 *1149:B *269:53 0.00017152
6 *1150:C *269:53 2.01767e-05
7 *1144:A *1149:B 0.000145411
8 *1149:A *1149:B 8.08049e-05
9 *1149:A *1150:C 2.41481e-05
10 *1157:B1 *1150:C 3.52966e-05
11 *1157:B1 *113:8 0.000139907
12 *96:32 *1150:C 5.71472e-05
13 *98:10 *1149:B 0.000198698
*RES
1 *1148:X *113:8 15.1571 
2 *113:8 *1150:C 15.7286 
3 *113:8 *1149:B 20.3 
*END

*D_NET *114 0.00047999
*CONN
*I *1319:A3 I *D sky130_fd_sc_hd__a31o_1
*I *1149:Y O *D sky130_fd_sc_hd__nor2_1
*CAP
1 *1319:A3 0.00011192
2 *1149:Y 0.00011192
3 *1319:A3 *269:53 0.000142856
4 *98:10 *1319:A3 0.000113295
*RES
1 *1149:Y *1319:A3 21.6 
*END

*D_NET *115 0.00246345
*CONN
*I *1151:B1 I *D sky130_fd_sc_hd__o21a_1
*I *1321:C1 I *D sky130_fd_sc_hd__o221a_1
*I *1150:X O *D sky130_fd_sc_hd__or3_1
*CAP
1 *1151:B1 0.000714636
2 *1321:C1 0.000133636
3 *1150:X 0
4 *115:4 0.000848272
5 *1151:B1 *1159:C 8.46044e-06
6 *1321:C1 *1321:B1 3.395e-05
7 *1321:C1 *269:53 4.80563e-05
8 *1150:B *1321:C1 4.61259e-05
9 *1157:B1 *1151:B1 0.000517945
10 *1157:B1 *1321:C1 5.71472e-05
11 *109:8 *1321:C1 5.52238e-05
*RES
1 *1150:X *115:4 9.3 
2 *115:4 *1321:C1 21.1393 
3 *115:4 *1151:B1 18.7821 
*END

*D_NET *116 0.000506113
*CONN
*I *1159:C I *D sky130_fd_sc_hd__and4bb_1
*I *1151:X O *D sky130_fd_sc_hd__o21a_1
*CAP
1 *1159:C 0.000154722
2 *1151:X 0.000154722
3 *1159:C *245:75 1.19309e-05
4 *1159:C *309:19 0.000150618
5 *1159:C *311:10 2.56601e-05
6 *1151:B1 *1159:C 8.46044e-06
7 *1323:B *1159:C 0
*RES
1 *1151:X *1159:C 30.4929 
*END

*D_NET *117 0.00119867
*CONN
*I *1153:D I *D sky130_fd_sc_hd__or4_1
*I *1154:A4 I *D sky130_fd_sc_hd__o41ai_1
*I *1152:X O *D sky130_fd_sc_hd__o211a_1
*CAP
1 *1153:D 0.000131914
2 *1154:A4 0
3 *1152:X 8.91317e-05
4 *117:10 0.000221046
5 *1153:D *1153:A 0.000142856
6 *1153:D *1154:A1 0.000271345
7 *1153:D *1154:B1 9.90367e-05
8 *117:10 *1287:B1 8.08022e-05
9 *117:10 *1432:A 0
10 *117:10 *289:8 7.83587e-05
11 *1153:C *1153:D 8.41815e-05
*RES
1 *1152:X *117:10 20.2464 
2 *117:10 *1154:A4 9.3 
3 *117:10 *1153:D 13.55 
*END

*D_NET *118 0.00262756
*CONN
*I *1321:B1 I *D sky130_fd_sc_hd__o221a_1
*I *1153:X O *D sky130_fd_sc_hd__or4_1
*CAP
1 *1321:B1 0.00070939
2 *1153:X 0.00070939
3 *1321:B1 *1156:A1 0.000350136
4 *1321:B1 *1156:A2 1.78536e-05
5 *1321:B1 *1157:A1 5.30209e-05
6 *1321:B1 *245:25 0
7 *1144:A *1321:B1 9.60875e-05
8 *1149:A *1321:B1 7.34457e-05
9 *1157:B1 *1321:B1 0.000483498
10 *1321:A2 *1321:B1 5.7661e-06
11 *1321:C1 *1321:B1 3.395e-05
12 *88:30 *1321:B1 8.14744e-06
13 *109:8 *1321:B1 8.6874e-05
*RES
1 *1153:X *1321:B1 40.4929 
*END

*D_NET *119 0.00163415
*CONN
*I *1157:A1 I *D sky130_fd_sc_hd__a31o_1
*I *1154:Y O *D sky130_fd_sc_hd__o41ai_1
*CAP
1 *1157:A1 0.000321581
2 *1154:Y 0.000321581
3 *1157:A1 *1153:A 4.88637e-05
4 *1157:A1 *1153:B 0.000357952
5 *1157:A1 *1157:A3 2.44318e-05
6 *1153:C *1157:A1 0.000401764
7 *1157:B1 *1157:A1 0.000104956
8 *1321:B1 *1157:A1 5.30209e-05
*RES
1 *1154:Y *1157:A1 27.3679 
*END

*D_NET *120 0.00056493
*CONN
*I *1157:A2 I *D sky130_fd_sc_hd__a31o_1
*I *1155:Y O *D sky130_fd_sc_hd__o31ai_1
*CAP
1 *1157:A2 0.000176333
2 *1155:Y 0.000176333
3 *1148:C *1157:A2 0.000144773
4 *108:25 *1157:A2 3.92854e-05
5 *108:40 *1157:A2 2.82057e-05
*RES
1 *1155:Y *1157:A2 30.6 
*END

*D_NET *121 0.000619856
*CONN
*I *1157:A3 I *D sky130_fd_sc_hd__a31o_1
*I *1156:X O *D sky130_fd_sc_hd__a2111o_1
*CAP
1 *1157:A3 0.000157821
2 *1156:X 0.000157821
3 *1157:A1 *1157:A3 2.44318e-05
4 *1157:B1 *1157:A3 0.000243816
5 *108:40 *1157:A3 3.59663e-05
*RES
1 *1156:X *1157:A3 31.0107 
*END

*D_NET *122 0.002742
*CONN
*I *1158:B I *D sky130_fd_sc_hd__xor2_1
*I *1320:B I *D sky130_fd_sc_hd__nor2_1
*I *1157:X O *D sky130_fd_sc_hd__a31o_1
*CAP
1 *1158:B 0.000270048
2 *1320:B 0
3 *1157:X 0.000358281
4 *122:12 0.000628329
5 *1158:B *1377:CLK 5.71472e-05
6 *1158:B *269:25 0.000399142
7 *1158:B *309:8 0.0001409
8 *122:12 *1148:A 0
9 *122:12 *245:31 7.58571e-05
10 *122:12 *269:38 0.000175519
11 *122:12 *269:53 0.000117903
12 *1148:B *122:12 5.33005e-05
13 *1149:A *122:12 4.88637e-05
14 *1155:B1 *122:12 5.52302e-05
15 *1157:B1 *122:12 9.05414e-05
16 *1377:D *1158:B 0.000171906
17 *96:32 *122:12 9.90367e-05
*RES
1 *1157:X *122:12 26.9071 
2 *122:12 *1320:B 9.3 
3 *122:12 *1158:B 18.0679 
*END

*D_NET *123 0.000353561
*CONN
*I *1159:D I *D sky130_fd_sc_hd__and4bb_1
*I *1158:X O *D sky130_fd_sc_hd__xor2_1
*CAP
1 *1159:D 9.58556e-05
2 *1158:X 9.58556e-05
3 *1159:D *245:75 7.83366e-05
4 *1159:D *269:25 1.92789e-05
5 *1159:D *309:19 6.42338e-05
*RES
1 *1158:X *1159:D 30.0821 
*END

*D_NET *124 0.00178647
*CONN
*I *1393:A I *D sky130_fd_sc_hd__dlymetal6s2s_1
*I *1159:X O *D sky130_fd_sc_hd__and4bb_1
*CAP
1 *1393:A 0.000550759
2 *1159:X 0.000550759
3 *1393:A *1336:CLK 0.000104246
4 *1393:A *1379:CLK 1.21258e-05
5 *1393:A *245:71 3.69047e-06
6 *1393:A *245:75 0.000310075
7 *1393:A *250:14 6.8646e-06
8 *1393:A *311:10 3.06878e-06
9 *1323:B *1393:A 0.00012401
10 *1337:D *1393:A 8.39e-05
11 *1379:D *1393:A 3.69697e-05
*RES
1 *1159:X *1393:A 39.9036 
*END

*D_NET *125 0.000699283
*CONN
*I *1163:B I *D sky130_fd_sc_hd__and3_1
*I *1161:Y O *D sky130_fd_sc_hd__nand2_1
*CAP
1 *1163:B 0.000278499
2 *1161:Y 0.000278499
3 *1163:B *1161:A 5.08111e-05
4 *1163:B *1162:B 1.13883e-05
5 *1163:B *312:71 8.00847e-05
*RES
1 *1161:Y *1163:B 22.4214 
*END

*D_NET *126 0.000239168
*CONN
*I *1163:C I *D sky130_fd_sc_hd__and3_1
*I *1162:X O *D sky130_fd_sc_hd__or2_1
*CAP
1 *1163:C 5.54424e-05
2 *1162:X 5.54424e-05
3 *1163:C *312:71 0.000128283
*RES
1 *1162:X *1163:C 19.8143 
*END

*D_NET *127 0.000861632
*CONN
*I *1166:B I *D sky130_fd_sc_hd__and3_1
*I *1164:Y O *D sky130_fd_sc_hd__nand3_1
*CAP
1 *1166:B 0.000307292
2 *1164:Y 0.000307292
3 *1166:B *264:10 5.62995e-05
4 *1166:B *264:14 0.000190749
*RES
1 *1164:Y *1166:B 22.8321 
*END

*D_NET *128 0.000259231
*CONN
*I *1166:C I *D sky130_fd_sc_hd__and3_1
*I *1165:X O *D sky130_fd_sc_hd__a21o_1
*CAP
1 *1166:C 9.92935e-05
2 *1165:X 9.92935e-05
3 *1166:C *264:10 3.79027e-05
4 *1166:C *264:14 2.27416e-05
*RES
1 *1165:X *1166:C 20.0286 
*END

*D_NET *129 0.00385074
*CONN
*I *1170:B I *D sky130_fd_sc_hd__nand2_1
*I *1171:B I *D sky130_fd_sc_hd__or2_1
*I *1173:C I *D sky130_fd_sc_hd__and3_2
*I *1174:A2 I *D sky130_fd_sc_hd__a21o_1
*I *1169:A_N I *D sky130_fd_sc_hd__and3b_1
*I *1167:X O *D sky130_fd_sc_hd__and4_1
*CAP
1 *1170:B 7.91599e-05
2 *1171:B 3.72884e-05
3 *1173:C 3.74706e-05
4 *1174:A2 0
5 *1169:A_N 9.35741e-05
6 *1167:X 0
7 *129:43 0.000297449
8 *129:25 0.000408
9 *129:21 0.00109221
10 *129:4 0.00063425
11 *1169:A_N *244:10 0.000104974
12 *1170:B *1171:A 0.00014183
13 *1173:C *1174:A1 0.000186669
14 *1173:C *1174:B1 0.000185394
15 *1173:C *323:36 1.40034e-05
16 *129:21 *1392:A 0.000103004
17 *129:21 *265:57 3.69047e-06
18 *129:21 *321:10 0.000103151
19 *129:25 *1172:C 5.66551e-05
20 *129:25 *1392:A 0
21 *129:25 *322:48 0
22 *129:43 *1172:C 0.000142327
23 *129:43 *244:163 1.78353e-05
24 *1333:D *1169:A_N 3.18676e-05
25 *1333:D *129:21 7.99439e-05
*RES
1 *1167:X *129:4 9.3 
2 *129:4 *1169:A_N 20.175 
3 *129:4 *129:21 12.0179 
4 *129:21 *129:25 10.3929 
5 *129:25 *1174:A2 9.3 
6 *129:25 *1173:C 11.4964 
7 *129:21 *129:43 8.57143 
8 *129:43 *1171:B 9.83571 
9 *129:43 *1170:B 11.0679 
*END

*D_NET *130 0.00084008
*CONN
*I *1169:B I *D sky130_fd_sc_hd__and3b_1
*I *1168:X O *D sky130_fd_sc_hd__a31o_1
*CAP
1 *1169:B 0.000174566
2 *1168:X 0.000174566
3 *1169:B *1168:A1 0.00012401
4 *1169:B *1168:A2 5.17614e-05
5 *1169:B *1169:C 0.000265385
6 *1169:B *244:10 4.97918e-05
*RES
1 *1168:X *1169:B 32.0107 
*END

*D_NET *131 0.000921619
*CONN
*I *1172:B I *D sky130_fd_sc_hd__and3_1
*I *1170:Y O *D sky130_fd_sc_hd__nand2_1
*CAP
1 *1172:B 0.000194533
2 *1170:Y 0.000194533
3 *1172:B *244:163 6.16744e-05
4 *1172:B *265:57 5.41609e-05
5 *1172:B *322:48 0.000267814
6 *1334:D *1172:B 0.000148903
*RES
1 *1170:Y *1172:B 32.4214 
*END

*D_NET *132 0.000909156
*CONN
*I *1172:C I *D sky130_fd_sc_hd__and3_1
*I *1171:X O *D sky130_fd_sc_hd__or2_1
*CAP
1 *1172:C 0.000195589
2 *1171:X 0.000195589
3 *1172:C *1171:A 5.33005e-05
4 *1172:C *244:163 0.000151333
5 *1172:C *265:57 1.95435e-05
6 *1172:C *321:36 2.0954e-05
7 *1172:C *322:48 0
8 *1334:D *1172:C 7.38652e-05
9 *129:25 *1172:C 5.66551e-05
10 *129:43 *1172:C 0.000142327
*RES
1 *1171:X *1172:C 33.0107 
*END

*D_NET *133 0.0093855
*CONN
*I *1175:A_N I *D sky130_fd_sc_hd__and3b_1
*I *1190:D I *D sky130_fd_sc_hd__and4_1
*I *1185:B I *D sky130_fd_sc_hd__nand2_1
*I *1184:A2 I *D sky130_fd_sc_hd__a21o_1
*I *1187:A2 I *D sky130_fd_sc_hd__a21o_1
*I *1182:A3 I *D sky130_fd_sc_hd__a31o_1
*I *1176:B I *D sky130_fd_sc_hd__nand2_1
*I *1177:B I *D sky130_fd_sc_hd__or2_1
*I *1181:B I *D sky130_fd_sc_hd__nand2_1
*I *1188:C I *D sky130_fd_sc_hd__and3_1
*I *1173:X O *D sky130_fd_sc_hd__and3_2
*CAP
1 *1175:A_N 0.000112113
2 *1190:D 0
3 *1185:B 0
4 *1184:A2 0.000329217
5 *1187:A2 0
6 *1182:A3 0
7 *1176:B 0.000212545
8 *1177:B 0
9 *1181:B 0
10 *1188:C 0.000175387
11 *1173:X 0.000219107
12 *133:92 0.000423085
13 *133:56 0.000632281
14 *133:48 0.000588911
15 *133:41 0.00048635
16 *133:35 0.000355417
17 *133:33 0.000636988
18 *133:18 0.000852688
19 *133:14 0.000549169
20 *133:8 0.000707967
21 *1176:B *1178:B 0.000150632
22 *1176:B *265:20 1.32552e-05
23 *1176:B *324:8 4.70078e-05
24 *1176:B *324:14 8.76257e-05
25 *1184:A2 *1184:B1 9.06125e-05
26 *1184:A2 *1186:B 7.77652e-05
27 *1188:C *143:12 8.57208e-05
28 *1188:C *314:10 5.15476e-05
29 *1188:C *314:23 0
30 *133:8 *1175:B 0
31 *133:8 *323:12 0
32 *133:14 *1140:A 0.000230475
33 *133:14 *1140:B 2.27416e-05
34 *133:14 *144:8 8.81471e-06
35 *133:18 *314:23 0
36 *133:33 *1187:B1 0.000102207
37 *133:33 *1189:C 1.21258e-05
38 *133:33 *1192:A1 2.89114e-05
39 *133:33 *1192:A2 0.000130721
40 *133:56 *1138:D 2.19684e-05
41 *133:56 *1183:C 3.92854e-05
42 *133:56 *265:20 0.000373058
43 *133:56 *324:14 0.000318107
44 *133:56 *326:10 0
45 *133:92 *1432:A 0.000175512
46 *133:92 *270:8 0.00017309
47 *1181:A *133:41 5.16736e-05
48 *1181:A *133:48 0.00010096
49 *1341:D *1188:C 5.33978e-05
50 *102:10 *133:48 0.000260322
51 *103:6 *133:41 4.72487e-05
52 *103:10 *133:33 5.52302e-05
53 *103:10 *133:41 2.15245e-05
54 *103:10 *133:92 0.000183713
55 *106:10 *1175:A_N 8.90199e-05
*RES
1 *1173:X *133:8 17.5679 
2 *133:8 *133:14 10.1607 
3 *133:14 *133:18 7.35714 
4 *133:18 *1188:C 17.5679 
5 *133:18 *133:33 13.25 
6 *133:33 *133:35 0.732143 
7 *133:35 *133:41 5.91071 
8 *133:41 *1181:B 9.3 
9 *133:41 *133:48 4.23214 
10 *133:48 *133:56 17.6429 
11 *133:56 *1177:B 9.3 
12 *133:56 *1176:B 22.8357 
13 *133:48 *1182:A3 9.3 
14 *133:35 *1187:A2 9.3 
15 *133:33 *133:92 13.0179 
16 *133:92 *1184:A2 15.9071 
17 *133:92 *1185:B 9.3 
18 *133:14 *1190:D 9.3 
19 *133:8 *1175:A_N 15.9786 
*END

*D_NET *134 0.000579947
*CONN
*I *1175:B I *D sky130_fd_sc_hd__and3b_1
*I *1174:X O *D sky130_fd_sc_hd__a21o_1
*CAP
1 *1175:B 0.00024793
2 *1174:X 0.00024793
3 *1175:B *264:86 0
4 *1335:D *1175:B 5.35423e-05
5 *106:10 *1175:B 3.05446e-05
6 *133:8 *1175:B 0
*RES
1 *1174:X *1175:B 32.0107 
*END

*D_NET *135 0.0018506
*CONN
*I *1179:B I *D sky130_fd_sc_hd__xnor2_1
*I *1178:B I *D sky130_fd_sc_hd__and3_1
*I *1176:Y O *D sky130_fd_sc_hd__nand2_1
*CAP
1 *1179:B 0.000398519
2 *1178:B 0.000289842
3 *1176:Y 0
4 *135:4 0.000688361
5 *1178:B *1178:A 2.34204e-05
6 *1178:B *1178:C 4.16383e-05
7 *1179:B *1176:A 5.52302e-05
8 *1179:B *325:10 0.000145807
9 *1176:B *1178:B 0.000150632
10 *1336:D *1178:B 5.71472e-05
*RES
1 *1176:Y *135:4 9.3 
2 *135:4 *1178:B 23.8179 
3 *135:4 *1179:B 15.0857 
*END

*D_NET *136 0.000590572
*CONN
*I *1178:C I *D sky130_fd_sc_hd__and3_1
*I *1177:X O *D sky130_fd_sc_hd__or2_1
*CAP
1 *1178:C 0.000257411
2 *1177:X 0.000257411
3 *1178:C *1178:A 0
4 *1178:B *1178:C 4.16383e-05
5 *1336:D *1178:C 3.41124e-05
*RES
1 *1177:X *1178:C 32.0821 
*END

*D_NET *137 0.000768347
*CONN
*I *1180:B I *D sky130_fd_sc_hd__and2_1
*I *1179:Y O *D sky130_fd_sc_hd__xnor2_1
*CAP
1 *1180:B 0.000173951
2 *1179:Y 0.000173951
3 *1180:B *1180:A 0.000266137
4 *1180:B *245:75 0.000150618
5 *1337:D *1180:B 3.69047e-06
*RES
1 *1179:Y *1180:B 31.725 
*END

*D_NET *138 0.000387106
*CONN
*I *1183:B I *D sky130_fd_sc_hd__and3_1
*I *1181:Y O *D sky130_fd_sc_hd__nand2_1
*CAP
1 *1183:B 0.000130687
2 *1181:Y 0.000130687
3 *1183:B *1183:C 0
4 *1183:B *245:41 0.000125731
5 *1183:B *270:8 0
*RES
1 *1181:Y *1183:B 30.1536 
*END

*D_NET *139 0.00102663
*CONN
*I *1183:C I *D sky130_fd_sc_hd__and3_1
*I *1182:X O *D sky130_fd_sc_hd__a31o_1
*CAP
1 *1183:C 0.000296578
2 *1182:X 0.000296578
3 *1183:C *265:20 0.000394185
4 *1183:B *1183:C 0
5 *133:56 *1183:C 3.92854e-05
*RES
1 *1182:X *1183:C 32.3411 
*END

*D_NET *140 0.000646649
*CONN
*I *1186:B I *D sky130_fd_sc_hd__and3_1
*I *1184:X O *D sky130_fd_sc_hd__a21o_1
*CAP
1 *1186:B 0.000174051
2 *1184:X 0.000174051
3 *1186:B *1186:C 7.83587e-05
4 *1186:B *245:37 2.00751e-05
5 *1186:B *245:41 5.26091e-05
6 *1186:B *270:8 6.04891e-05
7 *1184:A2 *1186:B 7.77652e-05
8 *108:14 *1186:B 9.25014e-06
*RES
1 *1184:X *1186:B 31.5107 
*END

*D_NET *141 0.000337917
*CONN
*I *1186:C I *D sky130_fd_sc_hd__and3_1
*I *1185:Y O *D sky130_fd_sc_hd__nand2_1
*CAP
1 *1186:C 8.92718e-05
2 *1185:Y 8.92718e-05
3 *1186:C *270:8 8.00806e-05
4 *1186:B *1186:C 7.83587e-05
5 *108:14 *1186:C 9.33978e-07
*RES
1 *1185:Y *1186:C 29.2429 
*END

*D_NET *142 0.000270952
*CONN
*I *1189:C I *D sky130_fd_sc_hd__and3b_1
*I *1187:X O *D sky130_fd_sc_hd__a21o_1
*CAP
1 *1189:C 7.98914e-05
2 *1187:X 7.98914e-05
3 *1189:C *1187:B1 9.90431e-05
4 *133:33 *1189:C 1.21258e-05
*RES
1 *1187:X *1189:C 19.9571 
*END

*D_NET *143 0.00225077
*CONN
*I *1189:A_N I *D sky130_fd_sc_hd__and3b_1
*I *1192:A2 I *D sky130_fd_sc_hd__o211a_1
*I *1188:X O *D sky130_fd_sc_hd__and3_1
*CAP
1 *1189:A_N 0
2 *1192:A2 0.000365415
3 *1188:X 0.000303706
4 *143:12 0.00066912
5 *1192:A2 *1192:A1 0.000273269
6 *1192:A2 *1192:B1 1.04232e-05
7 *1192:A2 *1192:C1 9.7049e-06
8 *143:12 *1188:A 0.000185643
9 *143:12 *314:10 9.13205e-05
10 *1188:B *143:12 0.000125731
11 *1188:C *143:12 8.57208e-05
12 *133:33 *1192:A2 0.000130721
*RES
1 *1188:X *143:12 23.3536 
2 *143:12 *1192:A2 16.4429 
3 *143:12 *1189:A_N 9.3 
*END

*D_NET *144 0.00600117
*CONN
*I *1196:C I *D sky130_fd_sc_hd__and3_1
*I *1193:B I *D sky130_fd_sc_hd__nand2_1
*I *1194:B I *D sky130_fd_sc_hd__or2_1
*I *1197:A2 I *D sky130_fd_sc_hd__a21o_1
*I *1191:A I *D sky130_fd_sc_hd__inv_2
*I *1190:X O *D sky130_fd_sc_hd__and4_1
*CAP
1 *1196:C 0
2 *1193:B 2.07841e-05
3 *1194:B 0
4 *1197:A2 0
5 *1191:A 9.54501e-05
6 *1190:X 0.000302778
7 *144:44 0.000188553
8 *144:29 0.000365705
9 *144:23 0.00174761
10 *144:8 0.0019479
11 *1191:A *318:23 5.33978e-05
12 *1193:B *1195:B 2.39313e-05
13 *144:8 *1140:A 2.65105e-05
14 *144:8 *1140:B 0.000126639
15 *144:23 *1140:B 3.32631e-05
16 *144:23 *1203:A 0.000125057
17 *144:23 *1203:B 0.00024426
18 *144:23 *1204:C 5.19842e-06
19 *144:23 *318:23 2.58997e-05
20 *144:29 *1196:B 4.25809e-05
21 *144:29 *1198:C 0
22 *144:29 *315:14 1.02504e-05
23 *144:44 *1141:B 0
24 *144:44 *1195:B 0.000230482
25 *144:44 *1196:B 1.19309e-05
26 *144:44 *315:14 0.000189455
27 *144:44 *315:45 0.000142856
28 *105:10 *144:8 3.18676e-05
29 *133:14 *144:8 8.81471e-06
*RES
1 *1190:X *144:8 18.0321 
2 *144:8 *1191:A 15.7464 
3 *144:8 *144:23 24 
4 *144:23 *144:29 7.42857 
5 *144:29 *1197:A2 13.8 
6 *144:29 *144:44 9.66071 
7 *144:44 *1194:B 9.3 
8 *144:44 *1193:B 9.83571 
9 *144:23 *1196:C 9.3 
*END

*D_NET *145 0.000281781
*CONN
*I *1192:B1 I *D sky130_fd_sc_hd__o211a_1
*I *1191:Y O *D sky130_fd_sc_hd__inv_2
*CAP
1 *1192:B1 0.000104646
2 *1191:Y 0.000104646
3 *1192:B1 *1192:C1 6.20656e-05
4 *1192:A2 *1192:B1 1.04232e-05
*RES
1 *1191:Y *1192:B1 20.7964 
*END

*D_NET *146 0.00074204
*CONN
*I *1195:B I *D sky130_fd_sc_hd__and3_1
*I *1193:Y O *D sky130_fd_sc_hd__nand2_1
*CAP
1 *1195:B 0.000222447
2 *1193:Y 0.000222447
3 *1195:B *315:8 2.89016e-05
4 *1195:B *315:45 1.38323e-05
5 *1193:B *1195:B 2.39313e-05
6 *144:44 *1195:B 0.000230482
*RES
1 *1193:Y *1195:B 22.85 
*END

*D_NET *147 0.000321087
*CONN
*I *1195:C I *D sky130_fd_sc_hd__and3_1
*I *1194:X O *D sky130_fd_sc_hd__or2_1
*CAP
1 *1195:C 9.40377e-05
2 *1194:X 9.40377e-05
3 *1195:C *1195:A 0.00010858
4 *1195:C *315:45 2.44318e-05
*RES
1 *1194:X *1195:C 20.0286 
*END

*D_NET *148 0.00212922
*CONN
*I *1200:B I *D sky130_fd_sc_hd__or2_1
*I *1199:B I *D sky130_fd_sc_hd__and2_1
*I *1198:A_N I *D sky130_fd_sc_hd__and3b_1
*I *1196:X O *D sky130_fd_sc_hd__and3_1
*CAP
1 *1200:B 0
2 *1199:B 0.00025027
3 *1198:A_N 0.000248032
4 *1196:X 0.000129794
5 *148:23 0.000384671
6 *148:8 0.000512229
7 *1198:A_N *1198:B 0
8 *1198:A_N *1198:C 0
9 *1199:B *1200:A 0.000174939
10 *1199:B *244:30 0.000106494
11 *148:8 *1196:B 5.80706e-06
12 *148:8 *1198:C 0
13 *148:8 *316:10 0
14 *148:23 *244:30 0.000316985
*RES
1 *1196:X *148:8 16.05 
2 *148:8 *1198:A_N 17.925 
3 *148:8 *148:23 7.5 
4 *148:23 *1199:B 13.5857 
5 *148:23 *1200:B 9.3 
*END

*D_NET *149 0.00112057
*CONN
*I *1198:B I *D sky130_fd_sc_hd__and3b_1
*I *1197:X O *D sky130_fd_sc_hd__a21o_1
*CAP
1 *1198:B 0.000449498
2 *1197:X 0.000449498
3 *1198:B *1198:C 0.000168184
4 *1198:A_N *1198:B 0
5 *1343:D *1198:B 5.33882e-05
*RES
1 *1197:X *1198:B 36.3679 
*END

*D_NET *150 0.00253424
*CONN
*I *1202:B I *D sky130_fd_sc_hd__or2_1
*I *1203:B I *D sky130_fd_sc_hd__nand2_1
*I *1201:A_N I *D sky130_fd_sc_hd__and3b_1
*I *1199:X O *D sky130_fd_sc_hd__and2_1
*CAP
1 *1202:B 1.87481e-05
2 *1203:B 0.000327148
3 *1201:A_N 0.000526635
4 *1199:X 4.19107e-05
5 *150:21 0.000384006
6 *150:6 0.000606656
7 *1201:A_N *1141:A 0
8 *1201:A_N *1201:B 0
9 *1201:A_N *1201:C 0.000118887
10 *1201:A_N *317:10 0
11 *1202:B *244:30 5.52302e-05
12 *1203:B *1141:A 0
13 *1203:B *244:20 0
14 *1203:B *244:115 1.52978e-05
15 *150:6 *244:30 9.83388e-05
16 *150:21 *244:30 9.71197e-05
17 *144:23 *1203:B 0.00024426
*RES
1 *1199:X *150:6 10.2464 
2 *150:6 *1201:A_N 27.3179 
3 *150:6 *150:21 0.946429 
4 *150:21 *1203:B 25.3893 
5 *150:21 *1202:B 9.83571 
*END

*D_NET *151 0.000718004
*CONN
*I *1201:B I *D sky130_fd_sc_hd__and3b_1
*I *1200:X O *D sky130_fd_sc_hd__or2_1
*CAP
1 *1201:B 0.00023294
2 *1200:X 0.00023294
3 *1201:B *1141:A 4.66511e-05
4 *1201:B *317:10 0.000121573
5 *1201:A_N *1201:B 0
6 *1344:D *1201:B 8.39e-05
*RES
1 *1200:X *1201:B 32.2786 
*END

*D_NET *152 0.000998139
*CONN
*I *1204:B I *D sky130_fd_sc_hd__and3_1
*I *1202:X O *D sky130_fd_sc_hd__or2_1
*CAP
1 *1204:B 0.000308375
2 *1202:X 0.000308375
3 *1204:B *1201:C 5.89612e-05
4 *1204:B *1202:A 0.000139663
5 *1204:B *1204:C 7.6644e-05
6 *1204:B *244:115 0
7 *1204:B *264:90 7.33494e-06
8 *1345:D *1204:B 9.87856e-05
*RES
1 *1202:X *1204:B 33.1536 
*END

*D_NET *153 0.000916796
*CONN
*I *1204:C I *D sky130_fd_sc_hd__and3_1
*I *1203:Y O *D sky130_fd_sc_hd__nand2_1
*CAP
1 *1204:C 0.00025396
2 *1203:Y 0.00025396
3 *1204:C *1203:A 1.92789e-05
4 *1204:C *1341:CLK 3.23695e-05
5 *1204:C *244:20 0
6 *1204:C *264:88 0.000165262
7 *1204:C *264:90 0.00010326
8 *1204:B *1204:C 7.6644e-05
9 *1345:D *1204:C 6.8646e-06
10 *144:23 *1204:C 5.19842e-06
*RES
1 *1203:Y *1204:C 32.6179 
*END

*D_NET *154 0.00271204
*CONN
*I *1279:A2 I *D sky130_fd_sc_hd__a31o_1
*I *1212:B I *D sky130_fd_sc_hd__or2_1
*I *1211:Y O *D sky130_fd_sc_hd__nand2b_1
*CAP
1 *1279:A2 0
2 *1212:B 9.77623e-05
3 *1211:Y 0.000336359
4 *154:10 0.000434121
5 *1212:B *1401:A 0.00014183
6 *1212:B *337:60 7.60306e-05
7 *1212:B *337:73 1.52978e-05
8 *154:10 *1110:A 3.25078e-05
9 *154:10 *337:73 0.000241838
10 *154:10 *341:22 3.53786e-05
11 *154:10 *341:37 0.000334413
12 *154:10 *341:39 0.000185643
13 *1130:A1 *1212:B 8.66063e-05
14 *1130:A2 *1212:B 0.000173097
15 *1130:A2 *154:10 1.02504e-05
16 *1277:B *154:10 0.000127802
17 *94:8 *1212:B 5.33005e-05
18 *95:10 *154:10 0.000329801
*RES
1 *1211:Y *154:10 24.3179 
2 *154:10 *1212:B 17.4071 
3 *154:10 *1279:A2 13.8 
*END

*D_NET *155 0.00877979
*CONN
*I *1298:A_N I *D sky130_fd_sc_hd__and2b_1
*I *1305:B2 I *D sky130_fd_sc_hd__o32a_1
*I *1295:B1_N I *D sky130_fd_sc_hd__o21ba_1
*I *1213:A2 I *D sky130_fd_sc_hd__a21oi_1
*I *1212:X O *D sky130_fd_sc_hd__or2_1
*CAP
1 *1298:A_N 0
2 *1305:B2 0
3 *1295:B1_N 0.000705317
4 *1213:A2 0.000290889
5 *1212:X 0.00103572
6 *155:35 0.000900767
7 *155:31 0.000195449
8 *155:16 0.0013266
9 *1213:A2 *1115:A 0.000183713
10 *1213:A2 *1292:A2 7.60306e-05
11 *1213:A2 *156:10 0.000315165
12 *1213:A2 *222:10 0
13 *1213:A2 *255:10 5.23057e-05
14 *1213:A2 *330:73 0
15 *1295:B1_N *1296:A2 3.18676e-05
16 *1295:B1_N *1296:B1 5.33005e-05
17 *1295:B1_N *1303:A1 1.31516e-05
18 *1295:B1_N *1305:A2 0.000101545
19 *1295:B1_N *213:31 2.65105e-05
20 *1295:B1_N *214:19 0.000566258
21 *1295:B1_N *222:10 6.42338e-05
22 *155:16 *1292:A2 0.000100969
23 *155:16 *1298:B 0
24 *155:16 *1326:A1 0.000342176
25 *155:16 *1326:B1 0.000183726
26 *155:16 *1327:B1 7.49387e-06
27 *155:16 *1380:CLK 0.000441737
28 *155:16 *222:10 0
29 *155:16 *223:10 0
30 *155:16 *250:35 0
31 *155:16 *250:50 0
32 *155:16 *259:39 2.60984e-05
33 *155:16 *269:94 0
34 *155:35 *1305:A2 1.97695e-05
35 *155:35 *1305:A3 0.00019243
36 *1130:A2 *155:16 1.76135e-05
37 *1292:A1 *1213:A2 8.06427e-05
38 *1296:A1 *1295:B1_N 4.72818e-05
39 *1305:A1 *155:16 0
40 *87:64 *155:16 0.00138103
*RES
1 *1212:X *155:16 48.7643 
2 *155:16 *1213:A2 21.6036 
3 *155:16 *155:31 4.5 
4 *155:31 *155:35 3.83929 
5 *155:35 *1295:B1_N 29.0143 
6 *155:35 *1305:B2 9.3 
7 *155:31 *1298:A_N 9.3 
*END

*D_NET *156 0.00338932
*CONN
*I *1217:B1 I *D sky130_fd_sc_hd__o211a_1
*I *1218:C1 I *D sky130_fd_sc_hd__o221a_1
*I *1213:Y O *D sky130_fd_sc_hd__a21oi_1
*CAP
1 *1217:B1 0.000121147
2 *1218:C1 2.51137e-05
3 *1213:Y 0.000619873
4 *156:10 0.000766134
5 *1217:B1 *1214:A2 5.33005e-05
6 *1217:B1 *1217:A2 5.52238e-05
7 *1217:B1 *1217:C1 0.000175519
8 *1217:B1 *243:14 0
9 *1217:B1 *260:38 0.000220455
10 *1217:B1 *260:47 1.24469e-05
11 *1218:C1 *1218:B1 1.33343e-05
12 *1218:C1 *157:21 5.71472e-05
13 *1218:C1 *243:14 8.49861e-06
14 *156:10 *1115:A 2.44318e-05
15 *156:10 *1215:B1 0.000129868
16 *156:10 *1218:B1 8.00806e-05
17 *156:10 *1293:A1 0.000183726
18 *156:10 *1297:B 8.66228e-05
19 *156:10 *212:10 3.34366e-05
20 *156:10 *222:10 0.000100979
21 *156:10 *243:14 0.000167799
22 *156:10 *255:10 5.62203e-05
23 *156:10 *260:47 2.94501e-05
24 *1124:A *156:10 5.33433e-05
25 *1213:A2 *156:10 0.000315165
*RES
1 *1213:Y *156:10 28.8804 
2 *156:10 *1218:C1 14.6125 
3 *156:10 *1217:B1 17.8804 
*END

*D_NET *157 0.00145436
*CONN
*I *1216:A2 I *D sky130_fd_sc_hd__o21ai_1
*I *1215:A2 I *D sky130_fd_sc_hd__o21a_1
*I *1218:A2 I *D sky130_fd_sc_hd__o221a_1
*I *1214:Y O *D sky130_fd_sc_hd__a21boi_1
*CAP
1 *1216:A2 0
2 *1215:A2 0.000102463
3 *1218:A2 0
4 *1214:Y 8.5737e-05
5 *157:21 0.000233111
6 *157:12 0.000216385
7 *1215:A2 *260:38 1.02504e-05
8 *1215:A2 *260:47 0.000177227
9 *1215:A2 *330:58 0
10 *157:12 *1287:B1 6.97972e-05
11 *157:12 *243:14 4.25716e-05
12 *157:21 *1215:B1 3.14163e-05
13 *157:21 *1217:C1 0.000136958
14 *157:21 *1218:B1 4.59075e-05
15 *157:21 *330:23 1.97695e-05
16 *1218:A1 *157:12 5.52302e-05
17 *1218:A1 *157:21 0.000170385
18 *1218:C1 *157:21 5.71472e-05
19 *1352:D *1215:A2 0
*RES
1 *1214:Y *157:12 20.4786 
2 *157:12 *1218:A2 9.3 
3 *157:12 *157:21 3.83929 
4 *157:21 *1215:A2 20.55 
5 *157:21 *1216:A2 9.3 
*END

*D_NET *158 0.000431517
*CONN
*I *1218:B1 I *D sky130_fd_sc_hd__o221a_1
*I *1215:X O *D sky130_fd_sc_hd__o21a_1
*CAP
1 *1218:B1 0.00012646
2 *1215:X 0.00012646
3 *1218:B1 *243:14 3.92757e-05
4 *1218:B1 *330:23 0
5 *1218:A1 *1218:B1 0
6 *1218:C1 *1218:B1 1.33343e-05
7 *156:10 *1218:B1 8.00806e-05
8 *157:21 *1218:B1 4.59075e-05
*RES
1 *1215:X *1218:B1 30.4393 
*END

*D_NET *159 0.000801162
*CONN
*I *1217:C1 I *D sky130_fd_sc_hd__o211a_1
*I *1216:Y O *D sky130_fd_sc_hd__o21ai_1
*CAP
1 *1217:C1 0.000149956
2 *1216:Y 0.000149956
3 *1217:C1 *1215:B1 1.32552e-05
4 *1217:B1 *1217:C1 0.000175519
5 *1218:A1 *1217:C1 0.000175519
6 *157:21 *1217:C1 0.000136958
*RES
1 *1216:Y *1217:C1 31.6179 
*END

*D_NET *160 0.000263785
*CONN
*I *1224:B1 I *D sky130_fd_sc_hd__a211o_1
*I *1219:X O *D sky130_fd_sc_hd__a22o_1
*CAP
1 *1224:B1 4.25639e-05
2 *1219:X 4.25639e-05
3 *1224:B1 *1224:C1 0.000102589
4 *1208:A *1224:B1 1.97695e-05
5 *1219:B2 *1224:B1 5.62995e-05
*RES
1 *1219:X *1224:B1 20.4036 
*END

*D_NET *161 0.000266842
*CONN
*I *1221:C1 I *D sky130_fd_sc_hd__a221o_1
*I *1220:Y O *D sky130_fd_sc_hd__o22ai_1
*CAP
1 *1221:C1 2.40816e-05
2 *1220:Y 2.40816e-05
3 *1221:C1 *1220:B2 8.85597e-05
4 *1221:C1 *1221:B2 5.52302e-05
5 *1220:A1 *1221:C1 2.60252e-05
6 *81:62 *1221:C1 4.88637e-05
*RES
1 *1220:Y *1221:C1 19.8589 
*END

*D_NET *162 0.00129502
*CONN
*I *1223:C1 I *D sky130_fd_sc_hd__a2111o_1
*I *1221:X O *D sky130_fd_sc_hd__a221o_1
*CAP
1 *1223:C1 0.000360386
2 *1221:X 0.000360386
3 *1223:C1 *1223:B1 0.000116481
4 *1223:C1 *250:66 9.25014e-06
5 *1221:A2 *1223:C1 0
6 *86:12 *1223:C1 0.00044852
*RES
1 *1221:X *1223:C1 33.475 
*END

*D_NET *163 0.000739316
*CONN
*I *1223:D1 I *D sky130_fd_sc_hd__a2111o_1
*I *1222:Y O *D sky130_fd_sc_hd__o22ai_1
*CAP
1 *1223:D1 0.00024021
2 *1222:Y 0.00024021
3 *1223:D1 *1223:A2 0.000142856
4 *82:40 *1223:D1 0.000116039
*RES
1 *1222:Y *1223:D1 22.0107 
*END

*D_NET *164 0.00114912
*CONN
*I *1224:C1 I *D sky130_fd_sc_hd__a211o_1
*I *1223:X O *D sky130_fd_sc_hd__a2111o_1
*CAP
1 *1224:C1 0.000208367
2 *1223:X 0.000208367
3 *1224:C1 *1219:A2 2.19404e-05
4 *1219:B2 *1224:C1 0.000235898
5 *1224:B1 *1224:C1 0.000102589
6 *82:40 *1224:C1 0.000371955
*RES
1 *1223:X *1224:C1 24.5107 
*END

*D_NET *165 0.00528276
*CONN
*I *1394:A I *D sky130_fd_sc_hd__buf_2
*I *1395:A I *D sky130_fd_sc_hd__clkbuf_2
*I *1224:X O *D sky130_fd_sc_hd__a211o_1
*CAP
1 *1394:A 0.000371084
2 *1395:A 0.00012553
3 *1224:X 0.00117883
4 *165:18 0.00167545
5 *1394:A *1276:B 0
6 *1394:A *173:14 0.000417363
7 *1394:A *266:6 7.43578e-06
8 *1394:A *297:14 0
9 *1395:A *1369:CLK 3.3052e-05
10 *165:18 *1350:CLK 0.00028853
11 *165:18 *1369:CLK 2.51343e-06
12 *165:18 *298:12 0.000136006
13 *1208:A *165:18 0.000623771
14 *1219:B2 *165:18 0.000405733
15 *1349:D *165:18 1.21289e-05
16 *1369:D *165:18 5.33091e-06
17 *3:11 *1394:A 0
*RES
1 *1224:X *165:18 38.6214 
2 *165:18 *1395:A 11.2821 
3 *165:18 *1394:A 26.05 
*END

*D_NET *166 0.0080501
*CONN
*I *1240:A1 I *D sky130_fd_sc_hd__o21a_1
*I *1230:B I *D sky130_fd_sc_hd__and4_1
*I *1233:B I *D sky130_fd_sc_hd__and4_1
*I *1248:A3 I *D sky130_fd_sc_hd__a31o_1
*I *1243:B I *D sky130_fd_sc_hd__or2_1
*I *1242:B I *D sky130_fd_sc_hd__nand2_1
*I *1227:A I *D sky130_fd_sc_hd__nand2_1
*I *1253:C I *D sky130_fd_sc_hd__and4_1
*I *1254:A2 I *D sky130_fd_sc_hd__a31o_1
*I *1225:X O *D sky130_fd_sc_hd__and3_2
*CAP
1 *1240:A1 6.37425e-05
2 *1230:B 0.000267503
3 *1233:B 7.69713e-05
4 *1248:A3 0
5 *1243:B 0
6 *1242:B 7.51706e-05
7 *1227:A 0
8 *1253:C 0
9 *1254:A2 0.0001003
10 *1225:X 9.67357e-05
11 *166:61 0.000326142
12 *166:57 0.000803999
13 *166:51 0.000629998
14 *166:49 0.000501587
15 *166:42 0.000422985
16 *166:18 0.000191493
17 *166:14 0.000629436
18 *166:8 0.00050982
19 *1230:B *1233:D 6.5185e-05
20 *1230:B *167:23 5.33005e-05
21 *1230:B *167:33 5.52302e-05
22 *1230:B *293:25 0.000126439
23 *1233:B *167:33 0.000103267
24 *1233:B *268:33 0
25 *1240:A1 *1240:B1 5.52238e-05
26 *1240:A1 *1252:B1 4.43256e-05
27 *1242:B *1245:A2 0
28 *1242:B *1247:A2 0
29 *1242:B *180:10 0.000129868
30 *1242:B *301:10 5.80706e-06
31 *1242:B *301:23 8.16036e-05
32 *1242:B *301:36 5.80706e-06
33 *1254:A2 *1254:A1 0.000246655
34 *1254:A2 *1254:A3 0.000277387
35 *1254:A2 *304:31 1.02504e-05
36 *1254:A2 *306:37 1.41029e-05
37 *166:8 *1225:B 9.25014e-06
38 *166:8 *1240:A2 0
39 *166:8 *304:29 0
40 *166:14 *1240:B1 0.000106533
41 *166:14 *304:29 0
42 *166:18 *1254:A3 1.02504e-05
43 *166:18 *167:39 0.000307344
44 *166:18 *304:29 0.000248486
45 *166:18 *304:31 6.81083e-05
46 *166:42 *167:33 4.6547e-05
47 *166:42 *167:39 0.000228514
48 *166:49 *167:33 0.000660604
49 *166:57 *1233:D 0
50 *166:57 *1249:B 0
51 *166:57 *268:33 0
52 *166:57 *268:44 0.000120645
53 *166:57 *301:36 5.03772e-05
54 *166:61 *180:10 3.34295e-05
55 *166:61 *268:44 0
56 *166:61 *301:36 0.000189674
*RES
1 *1225:X *166:8 15.4429 
2 *166:8 *166:14 10.7679 
3 *166:14 *166:18 8.57143 
4 *166:18 *1254:A2 17.6214 
5 *166:18 *1253:C 13.8 
6 *166:14 *166:42 3.83929 
7 *166:42 *1227:A 9.3 
8 *166:42 *166:49 6.28571 
9 *166:49 *166:51 4.5 
10 *166:51 *166:57 14.5 
11 *166:57 *166:61 9.78571 
12 *166:61 *1242:B 16.05 
13 *166:61 *1243:B 13.8 
14 *166:57 *1248:A3 9.3 
15 *166:51 *1233:B 15.4429 
16 *166:49 *1230:B 23.4786 
17 *166:8 *1240:A1 15.1571 
*END

*D_NET *167 0.00577403
*CONN
*I *1230:C I *D sky130_fd_sc_hd__and4_1
*I *1233:C I *D sky130_fd_sc_hd__and4_1
*I *1227:B I *D sky130_fd_sc_hd__nand2_1
*I *1253:D I *D sky130_fd_sc_hd__and4_1
*I *1254:A3 I *D sky130_fd_sc_hd__a31o_1
*I *1285:A1 I *D sky130_fd_sc_hd__a2111o_1
*I *1226:X O *D sky130_fd_sc_hd__and3_1
*CAP
1 *1230:C 0
2 *1233:C 0
3 *1227:B 0
4 *1253:D 0
5 *1254:A3 0.000221002
6 *1285:A1 0
7 *1226:X 0.000197305
8 *167:39 0.000489164
9 *167:33 0.000710709
10 *167:23 0.000568849
11 *167:21 0.000400395
12 *167:8 0.000471399
13 *1254:A3 *1255:A_N 3.1367e-05
14 *1254:A3 *306:37 2.6949e-05
15 *167:8 *1249:B 0
16 *167:8 *1294:C1 0
17 *167:8 *1311:B1 0
18 *167:8 *1359:CLK 5.33978e-05
19 *167:8 *302:41 0
20 *167:8 *303:12 0
21 *167:21 *1230:D 0.000116545
22 *167:21 *1359:CLK 0.00022042
23 *167:21 *266:60 0
24 *167:21 *293:10 6.81335e-05
25 *167:23 *1230:A 3.67142e-05
26 *167:23 *1233:D 0.00014285
27 *167:23 *1252:A1 0.00019589
28 *167:23 *293:10 1.21258e-05
29 *167:33 *1233:D 0
30 *167:33 *168:8 5.52238e-05
31 *167:33 *268:33 0
32 *167:33 *293:25 0
33 *167:39 *304:29 1.31516e-05
34 *1230:B *167:23 5.33005e-05
35 *1230:B *167:33 5.52302e-05
36 *1233:B *167:33 0.000103267
37 *1254:A2 *1254:A3 0.000277387
38 *166:18 *1254:A3 1.02504e-05
39 *166:18 *167:39 0.000307344
40 *166:42 *167:33 4.6547e-05
41 *166:42 *167:39 0.000228514
42 *166:49 *167:33 0.000660604
*RES
1 *1226:X *167:8 17.2643 
2 *167:8 *1285:A1 13.8 
3 *167:8 *167:21 11.5536 
4 *167:21 *167:23 3.41071 
5 *167:23 *167:33 18.5893 
6 *167:33 *167:39 11.0536 
7 *167:39 *1254:A3 18.5321 
8 *167:39 *1253:D 13.8 
9 *167:33 *1227:B 9.3 
10 *167:23 *1233:C 9.3 
11 *167:21 *1230:C 9.3 
*END

*D_NET *168 0.00250048
*CONN
*I *1251:B I *D sky130_fd_sc_hd__xor2_1
*I *1249:A I *D sky130_fd_sc_hd__nand2_1
*I *1227:Y O *D sky130_fd_sc_hd__nand2_1
*CAP
1 *1251:B 0.000416341
2 *1249:A 0.000309964
3 *1227:Y 3.92359e-05
4 *168:8 0.000765541
5 *1249:A *1314:C 0.000315115
6 *1249:A *170:18 9.90431e-05
7 *1249:A *304:29 0
8 *1251:B *1252:A2 0.00022859
9 *1251:B *1360:CLK 3.50166e-05
10 *1251:B *246:53 0.000111349
11 *1251:B *246:57 6.95767e-05
12 *1251:B *304:27 0
13 *1251:B *304:29 0
14 *1360:D *1251:B 5.54856e-05
15 *167:33 *168:8 5.52238e-05
*RES
1 *1227:Y *168:8 14.3357 
2 *168:8 *1249:A 20.2643 
3 *168:8 *1251:B 23.1571 
*END

*D_NET *169 0.00334283
*CONN
*I *1285:A2 I *D sky130_fd_sc_hd__a2111o_1
*I *1233:D I *D sky130_fd_sc_hd__and4_1
*I *1228:X O *D sky130_fd_sc_hd__and3_1
*CAP
1 *1285:A2 3.22779e-05
2 *1233:D 0.000326606
3 *1228:X 0.000604824
4 *169:12 0.000963708
5 *1233:D *1249:B 9.25014e-06
6 *1233:D *1314:C 0.00014285
7 *1233:D *170:18 0.000140933
8 *1233:D *266:60 0
9 *1233:D *293:25 6.2993e-05
10 *1285:A2 *1314:C 0.000171283
11 *1285:A2 *170:18 9.60939e-05
12 *1285:A2 *170:31 8.76257e-05
13 *169:12 *1359:CLK 0.000229456
14 *169:12 *266:60 5.41794e-05
15 *169:12 *268:44 0.000137983
16 *1230:B *1233:D 6.5185e-05
17 *1359:D *169:12 7.47367e-05
18 *166:57 *1233:D 0
19 *167:23 *1233:D 0.00014285
20 *167:33 *1233:D 0
*RES
1 *1228:X *169:12 26.6393 
2 *169:12 *1233:D 25.3893 
3 *169:12 *1285:A2 11.0679 
*END

*D_NET *170 0.00521688
*CONN
*I *1294:B1 I *D sky130_fd_sc_hd__o211a_1
*I *1311:B1 I *D sky130_fd_sc_hd__o211a_1
*I *1285:B1 I *D sky130_fd_sc_hd__a2111o_1
*I *1230:D I *D sky130_fd_sc_hd__and4_1
*I *1229:X O *D sky130_fd_sc_hd__and4_1
*CAP
1 *1294:B1 0
2 *1311:B1 0.000194038
3 *1285:B1 0
4 *1230:D 0.000107767
5 *1229:X 0.000676738
6 *170:42 0.000398153
7 *170:31 0.000250957
8 *170:18 0.000831347
9 *1230:D *266:60 0.000320031
10 *1311:B1 *1294:C1 5.80706e-06
11 *1311:B1 *1295:A2 0.000144773
12 *1311:B1 *1311:A1 4.06366e-05
13 *1311:B1 *1311:C1 9.77274e-05
14 *1311:B1 *302:41 5.59013e-05
15 *1311:B1 *303:32 9.60939e-05
16 *170:18 *1228:C 9.83388e-05
17 *170:18 *1229:D 0
18 *170:18 *1249:B 0.000400867
19 *170:18 *1250:A2 3.3524e-05
20 *170:18 *1254:B1 0
21 *170:18 *1314:C 5.527e-05
22 *170:18 *293:25 9.60875e-05
23 *170:18 *307:29 0
24 *170:31 *1314:C 6.57914e-05
25 *170:31 *293:25 0.000225616
26 *170:42 *1294:C1 8.66228e-05
27 *170:42 *1312:A1 9.71197e-05
28 *170:42 *1314:C 8.71377e-05
29 *170:42 *293:25 9.90431e-05
30 *170:42 *293:36 0.000101
31 *170:42 *302:41 1.02504e-05
32 *1233:D *170:18 0.000140933
33 *1249:A *170:18 9.90431e-05
34 *1285:A2 *170:18 9.60939e-05
35 *1285:A2 *170:31 8.76257e-05
36 *167:8 *1311:B1 0
37 *167:21 *1230:D 0.000116545
*RES
1 *1229:X *170:18 31.4071 
2 *170:18 *1230:D 22.3714 
3 *170:18 *170:31 2.17857 
4 *170:31 *1285:B1 9.3 
5 *170:31 *170:42 9.64286 
6 *170:42 *1311:B1 18.675 
7 *170:42 *1294:B1 13.8 
*END

*D_NET *171 0.00227505
*CONN
*I *1231:D I *D sky130_fd_sc_hd__and4_1
*I *1265:B I *D sky130_fd_sc_hd__xnor2_1
*I *1263:A I *D sky130_fd_sc_hd__or2_1
*I *1230:X O *D sky130_fd_sc_hd__and4_1
*CAP
1 *1231:D 0.000210962
2 *1265:B 3.20021e-05
3 *1263:A 4.26984e-05
4 *1230:X 0.000190632
5 *171:19 0.000327557
6 *171:8 0.000317923
7 *1231:D *1231:A 9.10431e-06
8 *1231:D *1231:C 2.89114e-05
9 *1231:D *1284:D 9.25014e-06
10 *1231:D *172:10 2.8266e-06
11 *1231:D *209:10 0
12 *1231:D *266:50 3.84385e-05
13 *1231:D *267:27 0
14 *1265:B *173:18 1.92905e-05
15 *1265:B *173:20 1.58163e-05
16 *1265:B *268:10 9.90431e-05
17 *171:8 *1252:A1 0.000196269
18 *171:8 *1264:A2 2.72449e-05
19 *171:8 *173:42 0.000340781
20 *171:8 *246:12 5.07157e-05
21 *171:8 *266:50 0.000119276
22 *171:19 *173:42 0.000126439
23 *171:19 *209:10 0
24 *171:19 *266:50 6.98669e-05
*RES
1 *1230:X *171:8 20.6036 
2 *171:8 *1263:A 14.3357 
3 *171:8 *171:19 2.55357 
4 *171:19 *1265:B 14.7464 
5 *171:19 *1231:D 17.4964 
*END

*D_NET *172 0.00518337
*CONN
*I *1275:A2 I *D sky130_fd_sc_hd__a21oi_1
*I *1232:C I *D sky130_fd_sc_hd__nand3_2
*I *1274:A2 I *D sky130_fd_sc_hd__o21ba_1
*I *1271:A I *D sky130_fd_sc_hd__or2_1
*I *1231:X O *D sky130_fd_sc_hd__and4_1
*CAP
1 *1275:A2 0.000128179
2 *1232:C 1.99857e-05
3 *1274:A2 0.000226782
4 *1271:A 0.000422087
5 *1231:X 0.000259245
6 *172:38 0.000284741
7 *172:12 0.000767338
8 *172:10 0.000514291
9 *1232:C *297:14 1.04232e-05
10 *1232:C *298:16 0
11 *1271:A *1270:A 2.28385e-05
12 *1271:A *1271:B 1.85723e-05
13 *1271:A *1272:A1 2.52969e-05
14 *1271:A *1273:A2 0.00014183
15 *1271:A *267:14 5.33005e-05
16 *1271:A *296:27 0.000359997
17 *1274:A2 *1274:B1_N 0.000295137
18 *1274:A2 *267:27 3.17148e-05
19 *1274:A2 *296:27 0
20 *1274:A2 *297:42 5.53979e-05
21 *1275:A2 *1232:A 0
22 *1275:A2 *1275:A1 0.000399835
23 *1275:A2 *297:14 2.89016e-05
24 *1275:A2 *298:12 8.71761e-05
25 *1275:A2 *298:16 5.72869e-05
26 *172:10 *1231:A 0
27 *172:10 *1284:A 0.000370533
28 *172:10 *1284:B 0
29 *172:10 *1284:D 0
30 *172:10 *173:14 0
31 *172:10 *209:10 8.00806e-05
32 *172:10 *267:27 0
33 *172:12 *1273:A2 8.57023e-05
34 *172:12 *267:14 0.000271352
35 *172:38 *297:14 8.07313e-05
36 *172:38 *298:16 3.14193e-05
37 *1231:D *172:10 2.8266e-06
38 *1273:A1 *1271:A 2.28499e-05
39 *1273:A1 *172:12 2.14658e-05
40 *1273:A1 *172:38 6.05161e-06
41 *1368:D *1274:A2 0
*RES
1 *1231:X *172:10 24.4964 
2 *172:10 *172:12 3 
3 *172:12 *1271:A 18.3 
4 *172:12 *1274:A2 23.5857 
5 *172:10 *172:38 2.58929 
6 *172:38 *1232:C 9.72857 
7 *172:38 *1275:A2 13.9607 
*END

*D_NET *173 0.0121135
*CONN
*I *1396:A I *D sky130_fd_sc_hd__buf_2
*I *1264:A1 I *D sky130_fd_sc_hd__a21oi_1
*I *1252:A1 I *D sky130_fd_sc_hd__a21oi_1
*I *1236:A2 I *D sky130_fd_sc_hd__a21oi_1
*I *1238:A1 I *D sky130_fd_sc_hd__a21oi_1
*I *1232:Y O *D sky130_fd_sc_hd__nand3_2
*CAP
1 *1396:A 6.744e-05
2 *1264:A1 0
3 *1252:A1 0.00109718
4 *1236:A2 0.00026412
5 *1238:A1 0
6 *1232:Y 0.000421085
7 *173:42 0.0012484
8 *173:20 0.00150598
9 *173:18 0.00170959
10 *173:14 0.000805036
11 *1236:A2 *1236:A1 0.000144773
12 *1236:A2 *1407:A 7.77751e-05
13 *1236:A2 *267:38 0.000154225
14 *1252:A1 *1230:A 9.90367e-05
15 *1252:A1 *1233:A 5.62995e-05
16 *1252:A1 *1252:A2 2.44318e-05
17 *1252:A1 *1252:B1 0.000100262
18 *1252:A1 *1264:B1 6.05161e-06
19 *1252:A1 *266:50 3.17163e-05
20 *1252:A1 *266:60 7.92879e-05
21 *1252:A1 *293:10 0.000139907
22 *1396:A *268:6 4.88515e-05
23 *173:14 *1266:A1 3.90513e-05
24 *173:14 *1266:B1 0.000118195
25 *173:14 *1275:A1 5.59013e-05
26 *173:14 *1284:A 0
27 *173:14 *1365:CLK 0.000196269
28 *173:14 *266:16 4.06782e-05
29 *173:14 *267:14 0
30 *173:14 *294:10 0.000148903
31 *173:14 *294:12 9.25014e-06
32 *173:18 *1265:A 0.000146523
33 *173:18 *268:6 2.88018e-06
34 *173:18 *268:10 9.22103e-06
35 *173:20 *267:27 0.00153139
36 *173:20 *267:38 2.24763e-05
37 *173:20 *268:10 5.5518e-05
38 *173:42 *1264:A2 0.000267814
39 *173:42 *209:10 6.8551e-05
40 *1265:B *173:18 1.92905e-05
41 *1265:B *173:20 1.58163e-05
42 *1364:D *1252:A1 7.53109e-06
43 *1394:A *173:14 0.000417363
44 *3:11 *173:14 0
45 *167:23 *1252:A1 0.00019589
46 *171:8 *1252:A1 0.000196269
47 *171:8 *173:42 0.000340781
48 *171:19 *173:42 0.000126439
49 *172:10 *173:14 0
*RES
1 *1232:Y *173:14 29.1036 
2 *173:14 *173:18 4.55357 
3 *173:18 *173:20 17.7857 
4 *173:20 *1238:A1 9.3 
5 *173:20 *1236:A2 15.2107 
6 *173:18 *173:42 14.8929 
7 *173:42 *1252:A1 35.8536 
8 *173:42 *1264:A1 9.3 
9 *173:14 *1396:A 10.6571 
*END

*D_NET *174 0.000716309
*CONN
*I *1234:C I *D sky130_fd_sc_hd__and3_1
*I *1262:B I *D sky130_fd_sc_hd__nor2_1
*I *1233:X O *D sky130_fd_sc_hd__and4_1
*CAP
1 *1234:C 0.000146957
2 *1262:B 6.17105e-05
3 *1233:X 0.000113438
4 *174:8 0.000322105
5 *1234:C *1234:B 0
6 *1234:C *1263:B 2.56601e-05
7 *1234:C *246:47 4.64386e-05
8 *1234:C *304:27 0
9 *174:8 *1233:A 0
10 *174:8 *293:56 0
11 *174:8 *304:27 0
*RES
1 *1233:X *174:8 15.7464 
2 *174:8 *1262:B 14.7464 
3 *174:8 *1234:C 16.2732 
*END

*D_NET *175 0.00112247
*CONN
*I *1235:B I *D sky130_fd_sc_hd__and2_1
*I *1267:B I *D sky130_fd_sc_hd__nor2_1
*I *1234:X O *D sky130_fd_sc_hd__and3_1
*CAP
1 *1235:B 0.000169878
2 *1267:B 1.99379e-05
3 *1234:X 0.000209844
4 *175:8 0.000399659
5 *1235:B *1267:A 0
6 *1235:B *1268:A1 0
7 *1235:B *267:27 7.41547e-05
8 *1235:B *295:21 2.89114e-05
9 *1267:B *267:27 9.90367e-05
10 *1267:B *268:10 5.33334e-05
11 *175:8 *1263:B 5.80217e-05
12 *175:8 *1267:A 0
13 *175:8 *266:50 0
14 *175:8 *267:27 9.69119e-06
15 *175:8 *268:33 0
*RES
1 *1234:X *175:8 17.8714 
2 *175:8 *1267:B 14.7464 
3 *175:8 *1235:B 17.1929 
*END

*D_NET *176 0.00225145
*CONN
*I *1273:A4 I *D sky130_fd_sc_hd__a41o_1
*I *1270:B I *D sky130_fd_sc_hd__nor2_1
*I *1268:A1 I *D sky130_fd_sc_hd__o21a_1
*I *1235:X O *D sky130_fd_sc_hd__and2_1
*CAP
1 *1273:A4 0
2 *1270:B 0.000102013
3 *1268:A1 0.000313803
4 *1235:X 3.82857e-05
5 *176:25 0.000379789
6 *176:6 0.000629865
7 *1268:A1 *1267:A 8.82117e-05
8 *1268:A1 *1272:A1 0
9 *1268:A1 *266:24 8.27184e-06
10 *1268:A1 *267:27 0
11 *1268:A1 *268:33 4.1331e-06
12 *1268:A1 *295:21 2.72967e-05
13 *1270:B *296:27 0.000274288
14 *176:6 *295:21 1.32552e-05
15 *176:25 *1272:A1 0
16 *176:25 *267:27 0
17 *176:25 *296:27 4.80729e-05
18 *176:25 *296:33 0.000324167
19 *1235:B *1268:A1 0
*RES
1 *1235:X *176:6 9.83571 
2 *176:6 *1268:A1 23.5321 
3 *176:6 *176:25 15.5 
4 *176:25 *1270:B 11.8893 
5 *176:25 *1273:A4 9.3 
*END

*D_NET *177 0.000554
*CONN
*I *1238:A2 I *D sky130_fd_sc_hd__a21oi_1
*I *1237:Y O *D sky130_fd_sc_hd__xnor2_1
*CAP
1 *1238:A2 0.000187467
2 *1237:Y 0.000187467
3 *1238:A2 *1237:A 5.33334e-05
4 *1238:A2 *299:8 0.000125731
*RES
1 *1237:Y *1238:A2 30.6 
*END

*D_NET *178 0.000801717
*CONN
*I *1240:A2 I *D sky130_fd_sc_hd__o21a_1
*I *1239:Y O *D sky130_fd_sc_hd__a21oi_1
*CAP
1 *1240:A2 0.000240399
2 *1239:Y 0.000240399
3 *1240:A2 *1225:B 3.92169e-05
4 *1240:A2 *1225:C 0.000101656
5 *1240:A2 *1239:B1 0.000123295
6 *1240:A2 *267:51 0
7 *1240:A2 *292:18 3.98404e-05
8 *1240:A2 *299:10 1.69115e-05
9 *1356:D *1240:A2 0
10 *166:8 *1240:A2 0
*RES
1 *1239:Y *1240:A2 32.8143 
*END

*D_NET *179 0.000236687
*CONN
*I *1241:B I *D sky130_fd_sc_hd__nor2_1
*I *1240:X O *D sky130_fd_sc_hd__o21a_1
*CAP
1 *1241:B 4.59573e-05
2 *1240:X 4.59573e-05
3 *1241:B *1252:B1 0.000144773
*RES
1 *1240:X *1241:B 19.9571 
*END

*D_NET *180 0.000937943
*CONN
*I *1246:B I *D sky130_fd_sc_hd__xor2_1
*I *1244:A I *D sky130_fd_sc_hd__nand2_1
*I *1242:Y O *D sky130_fd_sc_hd__nand2_1
*CAP
1 *1246:B 3.2426e-05
2 *1244:A 0.000238355
3 *1242:Y 8.79678e-05
4 *180:10 0.000358749
5 *1244:A *1244:B 5.71472e-05
6 *180:10 *1247:A2 0
7 *1242:B *180:10 0.000129868
8 *166:61 *180:10 3.34295e-05
*RES
1 *1242:Y *180:10 20.2464 
2 *180:10 *1244:A 13.1393 
3 *180:10 *1246:B 9.83571 
*END

*D_NET *181 9.72117e-05
*CONN
*I *1244:B I *D sky130_fd_sc_hd__nand2_1
*I *1243:X O *D sky130_fd_sc_hd__or2_1
*CAP
1 *1244:B 2.00323e-05
2 *1243:X 2.00323e-05
3 *1244:A *1244:B 5.71472e-05
*RES
1 *1243:X *1244:B 19.1357 
*END

*D_NET *182 0.000255084
*CONN
*I *1245:A2 I *D sky130_fd_sc_hd__a21oi_1
*I *1244:Y O *D sky130_fd_sc_hd__nand2_1
*CAP
1 *1245:A2 6.26081e-05
2 *1244:Y 6.26081e-05
3 *1245:A2 *268:48 0.000129868
4 *1245:A2 *301:23 0
5 *1242:B *1245:A2 0
*RES
1 *1244:Y *1245:A2 29.2429 
*END

*D_NET *183 0.000766021
*CONN
*I *1247:A2 I *D sky130_fd_sc_hd__a21oi_1
*I *1246:X O *D sky130_fd_sc_hd__xor2_1
*CAP
1 *1247:A2 0.000244905
2 *1246:X 0.000244905
3 *1247:A2 *1247:A1 0.000276211
4 *1247:A2 *1358:CLK 0
5 *1247:A2 *301:10 0
6 *1242:B *1247:A2 0
7 *1358:D *1247:A2 0
8 *180:10 *1247:A2 0
*RES
1 *1246:X *1247:A2 32.7429 
*END

*D_NET *184 0.00151372
*CONN
*I *1249:B I *D sky130_fd_sc_hd__nand2_1
*I *1248:X O *D sky130_fd_sc_hd__a31o_1
*CAP
1 *1249:B 0.000351369
2 *1248:X 0.000351369
3 *1249:B *1314:C 0.000400867
4 *1233:D *1249:B 9.25014e-06
5 *166:57 *1249:B 0
6 *167:8 *1249:B 0
7 *170:18 *1249:B 0.000400867
*RES
1 *1248:X *1249:B 35.4929 
*END

*D_NET *185 0.00026202
*CONN
*I *1250:A2 I *D sky130_fd_sc_hd__a21oi_1
*I *1249:Y O *D sky130_fd_sc_hd__nand2_1
*CAP
1 *1250:A2 5.59238e-05
2 *1249:Y 5.59238e-05
3 *1250:A2 *266:60 8.2958e-06
4 *1250:A2 *266:62 5.80706e-06
5 *1250:A2 *268:33 0.000102545
6 *170:18 *1250:A2 3.3524e-05
*RES
1 *1249:Y *1250:A2 29.2429 
*END

*D_NET *186 0.00109143
*CONN
*I *1252:A2 I *D sky130_fd_sc_hd__a21oi_1
*I *1251:X O *D sky130_fd_sc_hd__xor2_1
*CAP
1 *1252:A2 0.000305759
2 *1251:X 0.000305759
3 *1252:A2 *1252:B1 0.000143652
4 *1252:A2 *304:29 0
5 *1251:B *1252:A2 0.00022859
6 *1252:A1 *1252:A2 2.44318e-05
7 *1360:D *1252:A2 8.32354e-05
*RES
1 *1251:X *1252:A2 33.4929 
*END

*D_NET *187 0.00571222
*CONN
*I *1255:A_N I *D sky130_fd_sc_hd__nand2b_1
*I *1259:C I *D sky130_fd_sc_hd__and3_1
*I *1257:B I *D sky130_fd_sc_hd__xnor2_1
*I *1253:X O *D sky130_fd_sc_hd__and4_1
*CAP
1 *1255:A_N 0.000584629
2 *1259:C 3.7289e-05
3 *1257:B 0.000209967
4 *1253:X 0.000315804
5 *187:20 0.000564417
6 *187:10 0.00121759
7 *1255:A_N *1254:A1 9.43486e-06
8 *1255:A_N *1254:B1 8.17173e-05
9 *1255:A_N *1255:B 0.000368867
10 *1255:A_N *1256:B1 9.90367e-05
11 *1257:B *1258:A2 5.71472e-05
12 *1257:B *1259:A 9.90431e-05
13 *1257:B *266:96 3.11831e-05
14 *1257:B *268:68 2.36643e-05
15 *1257:B *268:72 0.000325572
16 *1257:B *306:29 0.000713063
17 *1259:C *1259:A 1.3701e-05
18 *1259:C *266:96 4.66913e-05
19 *187:10 *1228:C 1.98839e-05
20 *187:10 *1254:B1 0.000126439
21 *187:10 *305:15 9.66697e-05
22 *187:10 *305:24 1.98839e-05
23 *187:10 *307:29 3.45894e-05
24 *187:20 *1261:A2 9.58126e-05
25 *187:20 *1261:B1 8.64598e-05
26 *187:20 *191:12 5.49544e-05
27 *187:20 *266:90 5.12608e-05
28 *187:20 *266:96 2.13805e-05
29 *187:20 *268:68 0.000131702
30 *187:20 *307:29 0.000142997
31 *1254:A3 *1255:A_N 3.1367e-05
*RES
1 *1253:X *187:10 18.9429 
2 *187:10 *187:20 12.2321 
3 *187:20 *1257:B 18.05 
4 *187:20 *1259:C 10.4741 
5 *187:10 *1255:A_N 23.4071 
*END

*D_NET *188 0.00106384
*CONN
*I *1255:B I *D sky130_fd_sc_hd__nand2b_1
*I *1254:X O *D sky130_fd_sc_hd__a31o_1
*CAP
1 *1255:B 0.000108453
2 *1254:X 0.000108453
3 *1255:B *1256:A1 0
4 *1255:B *1256:B1 2.8305e-05
5 *1255:B *236:18 0.000449762
6 *1255:A_N *1255:B 0.000368867
*RES
1 *1254:X *1255:B 23.8009 
*END

*D_NET *189 0.000126884
*CONN
*I *1256:A2 I *D sky130_fd_sc_hd__a21oi_1
*I *1255:Y O *D sky130_fd_sc_hd__nand2b_1
*CAP
1 *1256:A2 6.29488e-06
2 *1255:Y 6.29488e-06
3 *1256:A2 *1256:A1 5.71472e-05
4 *1256:A2 *1256:B1 5.71472e-05
*RES
1 *1255:Y *1256:A2 19.1357 
*END

*D_NET *190 0.000173695
*CONN
*I *1258:A2 I *D sky130_fd_sc_hd__a21oi_1
*I *1257:Y O *D sky130_fd_sc_hd__xnor2_1
*CAP
1 *1258:A2 5.8274e-05
2 *1257:Y 5.8274e-05
3 *1258:A2 *266:96 0
4 *1258:A2 *306:29 0
5 *1257:B *1258:A2 5.71472e-05
*RES
1 *1257:Y *1258:A2 19.8679 
*END

*D_NET *191 0.00140066
*CONN
*I *1261:A2 I *D sky130_fd_sc_hd__o21a_1
*I *1260:A2 I *D sky130_fd_sc_hd__a21oi_1
*I *1259:X O *D sky130_fd_sc_hd__and3_1
*CAP
1 *1261:A2 0.00032158
2 *1260:A2 0
3 *1259:X 5.72987e-05
4 *191:12 0.000378878
5 *1261:A2 *1261:B1 0.00016495
6 *1261:A2 *1357:CLK 9.93569e-05
7 *1261:A2 *1363:D 0
8 *1261:A2 *266:96 4.10843e-05
9 *1261:A2 *307:10 9.9129e-05
10 *1261:A2 *307:29 3.27461e-05
11 *191:12 *266:96 3.08664e-05
12 *191:12 *306:37 0
13 *191:12 *307:29 2.40056e-05
14 *187:20 *1261:A2 9.58126e-05
15 *187:20 *191:12 5.49544e-05
*RES
1 *1259:X *191:12 19.5679 
2 *191:12 *1260:A2 9.3 
3 *191:12 *1261:A2 25.0857 
*END

*D_NET *192 0.000963503
*CONN
*I *1261:B1 I *D sky130_fd_sc_hd__o21a_1
*I *1260:Y O *D sky130_fd_sc_hd__a21oi_1
*CAP
1 *1261:B1 0.000297429
2 *1260:Y 0.000297429
3 *1261:B1 *1261:A1 4.35092e-05
4 *1261:B1 *244:67 0
5 *1261:B1 *268:68 5.52238e-05
6 *1261:B1 *307:29 1.85027e-05
7 *1261:A2 *1261:B1 0.00016495
8 *187:20 *1261:B1 8.64598e-05
*RES
1 *1260:Y *1261:B1 33.725 
*END

*D_NET *193 0.000881976
*CONN
*I *1263:B I *D sky130_fd_sc_hd__or2_1
*I *1262:Y O *D sky130_fd_sc_hd__nor2_1
*CAP
1 *1263:B 0.000261528
2 *1262:Y 0.000261528
3 *1263:B *1234:B 0.000200413
4 *1263:B *266:50 7.4826e-05
5 *1234:C *1263:B 2.56601e-05
6 *175:8 *1263:B 5.80217e-05
*RES
1 *1262:Y *1263:B 33.7429 
*END

*D_NET *194 0.000873503
*CONN
*I *1264:A2 I *D sky130_fd_sc_hd__a21oi_1
*I *1263:X O *D sky130_fd_sc_hd__or2_1
*CAP
1 *1264:A2 0.000147745
2 *1263:X 0.000147745
3 *1264:A2 *209:10 3.34687e-05
4 *1264:A2 *246:8 7.39741e-05
5 *1264:A2 *246:10 0.000165262
6 *1264:A2 *246:12 1.02504e-05
7 *171:8 *1264:A2 2.72449e-05
8 *173:42 *1264:A2 0.000267814
*RES
1 *1263:X *1264:A2 32.2071 
*END

*D_NET *195 0.000430194
*CONN
*I *1266:A2 I *D sky130_fd_sc_hd__a21oi_1
*I *1265:Y O *D sky130_fd_sc_hd__xnor2_1
*CAP
1 *1266:A2 0.000106019
2 *1265:Y 0.000106019
3 *1266:A2 *1231:C 2.59355e-05
4 *1266:A2 *1266:A1 3.48139e-05
5 *1266:A2 *209:10 7.8327e-05
6 *1266:A2 *266:16 7.90803e-05
*RES
1 *1265:Y *1266:A2 30.0821 
*END

*D_NET *196 0.000354799
*CONN
*I *1268:A2 I *D sky130_fd_sc_hd__o21a_1
*I *1267:Y O *D sky130_fd_sc_hd__nor2_1
*CAP
1 *1268:A2 3.3468e-05
2 *1267:Y 3.3468e-05
3 *1268:A2 *267:27 0.000105163
4 *1268:A2 *268:10 0.0001827
*RES
1 *1267:Y *1268:A2 20.3679 
*END

*D_NET *197 0.000310435
*CONN
*I *1269:B I *D sky130_fd_sc_hd__nor2_1
*I *1268:X O *D sky130_fd_sc_hd__o21a_1
*CAP
1 *1269:B 5.906e-05
2 *1268:X 5.906e-05
3 *1269:B *267:27 0.000187465
4 *1366:D *1269:B 4.85049e-06
*RES
1 *1268:X *1269:B 20.3679 
*END

*D_NET *198 0.000188437
*CONN
*I *1271:B I *D sky130_fd_sc_hd__or2_1
*I *1270:Y O *D sky130_fd_sc_hd__nor2_1
*CAP
1 *1271:B 3.01754e-05
2 *1270:Y 3.01754e-05
3 *1271:B *1270:A 5.42898e-05
4 *1271:B *1272:A1 5.52238e-05
5 *1271:A *1271:B 1.85723e-05
*RES
1 *1270:Y *1271:B 19.5464 
*END

*D_NET *199 0.000495043
*CONN
*I *1272:A2 I *D sky130_fd_sc_hd__a21oi_1
*I *1271:X O *D sky130_fd_sc_hd__or2_1
*CAP
1 *1272:A2 0.000122291
2 *1271:X 0.000122291
3 *1272:A2 *1272:A1 6.7438e-05
4 *1272:A2 *1272:B1 0.000183022
*RES
1 *1271:X *1272:A2 21.6 
*END

*D_NET *200 0.00105145
*CONN
*I *1274:B1_N I *D sky130_fd_sc_hd__o21ba_1
*I *1273:X O *D sky130_fd_sc_hd__a41o_1
*CAP
1 *1274:B1_N 0.00023059
2 *1273:X 0.00023059
3 *1274:B1_N *297:42 0.000295137
4 *1274:A2 *1274:B1_N 0.000295137
*RES
1 *1273:X *1274:B1_N 33.5643 
*END

*D_NET *201 0.00115769
*CONN
*I *1276:B I *D sky130_fd_sc_hd__nor2_1
*I *1275:Y O *D sky130_fd_sc_hd__a21oi_1
*CAP
1 *1276:B 0.00039058
2 *1275:Y 0.00039058
3 *1276:B *1276:A 0
4 *1276:B *297:14 0
5 *1276:B *298:12 0.000273269
6 *1369:D *1276:B 0.000103267
7 *1394:A *1276:B 0
*RES
1 *1275:Y *1276:B 34.2607 
*END

*D_NET *202 0.00372853
*CONN
*I *1308:D I *D sky130_fd_sc_hd__or4_1
*I *1300:A_N I *D sky130_fd_sc_hd__and3b_1
*I *1281:B1 I *D sky130_fd_sc_hd__a221o_1
*I *1277:X O *D sky130_fd_sc_hd__or3_1
*CAP
1 *1308:D 2.35827e-05
2 *1300:A_N 0.000212129
3 *1281:B1 3.18116e-05
4 *1277:X 0.00030484
5 *202:25 0.0003669
6 *202:12 0.00046784
7 *1281:B1 *1281:A2 5.80706e-06
8 *1281:B1 *1281:C1 1.87955e-05
9 *1281:B1 *269:94 1.46624e-05
10 *1300:A_N *1127:B 0.000125547
11 *1300:A_N *231:10 0
12 *1300:A_N *247:8 0.000186669
13 *1300:A_N *247:84 0.000268396
14 *1300:A_N *339:56 0.000316184
15 *1300:A_N *340:22 2.39779e-05
16 *1308:D *1301:B2 5.80706e-06
17 *1308:D *287:10 2.84398e-05
18 *202:12 *1281:C1 1.02969e-05
19 *202:12 *269:94 0.000250237
20 *202:25 *1127:B 5.33005e-05
21 *202:25 *247:84 0.000467215
22 *1123:C *1308:D 1.02504e-05
23 *1130:B1 *202:25 0.000256992
24 *1300:C *1300:A_N 0.000101545
25 *80:18 *1300:A_N 7.83659e-05
26 *81:49 *1300:A_N 0
27 *90:10 *1308:D 4.56437e-05
28 *91:10 *1300:A_N 0
29 *93:10 *202:25 5.33005e-05
*RES
1 *1277:X *202:12 20.6571 
2 *202:12 *1281:B1 14.5321 
3 *202:12 *202:25 9.14286 
4 *202:25 *1300:A_N 25.3893 
5 *202:25 *1308:D 19.0321 
*END

*D_NET *203 0.000905506
*CONN
*I *1279:A3 I *D sky130_fd_sc_hd__a31o_1
*I *1278:Y O *D sky130_fd_sc_hd__xnor2_1
*CAP
1 *1279:A3 0.000204923
2 *1278:Y 0.000204923
3 *1279:A3 *1128:A 7.43578e-06
4 *1279:A3 *1279:B1 5.52302e-05
5 *1279:A3 *1281:B2 5.52302e-05
6 *1279:A3 *247:84 0.000139913
7 *1279:A3 *269:94 0.000125731
8 *1279:A3 *337:34 2.42662e-05
9 *1279:A3 *337:60 5.10822e-05
10 *1279:A3 *337:73 1.08359e-05
11 *1279:A3 *339:32 2.59355e-05
*RES
1 *1278:Y *1279:A3 31.9571 
*END

*D_NET *204 0.000655645
*CONN
*I *1281:B2 I *D sky130_fd_sc_hd__a221o_1
*I *1279:X O *D sky130_fd_sc_hd__a31o_1
*CAP
1 *1281:B2 0.0002414
2 *1279:X 0.0002414
3 *1281:B2 *1279:B1 0
4 *1281:B2 *1281:A2 1.46576e-05
5 *1281:B2 *247:84 0.000102957
6 *1279:A3 *1281:B2 5.52302e-05
*RES
1 *1279:X *1281:B2 23.1893 
*END

*D_NET *205 0.00143543
*CONN
*I *1281:C1 I *D sky130_fd_sc_hd__a221o_1
*I *1280:Y O *D sky130_fd_sc_hd__a21oi_1
*CAP
1 *1281:C1 0.000338728
2 *1280:Y 0.000338728
3 *1281:C1 *1113:A 2.44318e-05
4 *1281:C1 *1122:B 0.000268403
5 *1281:C1 *287:10 0
6 *1281:C1 *337:77 8.57023e-05
7 *1129:B *1281:C1 7.77652e-05
8 *1280:B1 *1281:C1 0.000137983
9 *1281:B1 *1281:C1 1.87955e-05
10 *1290:A *1281:C1 0.000122467
11 *82:31 *1281:C1 1.21289e-05
12 *202:12 *1281:C1 1.02969e-05
*RES
1 *1280:Y *1281:C1 36.6 
*END

*D_NET *206 0.00359895
*CONN
*I *1282:C I *D sky130_fd_sc_hd__or3_1
*I *1316:A3 I *D sky130_fd_sc_hd__o31a_1
*I *1281:X O *D sky130_fd_sc_hd__a221o_1
*CAP
1 *1282:C 0
2 *1316:A3 9.47496e-05
3 *1281:X 0.000319298
4 *206:12 0.000414048
5 *1316:A3 *1316:A1 0.000106391
6 *1316:A3 *1316:A2 1.92789e-05
7 *1316:A3 *259:8 0.000271345
8 *206:12 *1329:A2 0
9 *206:12 *247:84 0.000823243
10 *206:12 *247:88 0.000391583
11 *206:12 *247:123 4.56437e-05
12 *206:12 *328:34 8.25098e-05
13 *1130:B1 *206:12 0.00103087
*RES
1 *1281:X *206:12 31.8179 
2 *206:12 *1316:A3 12.7464 
3 *206:12 *1282:C 9.3 
*END

*D_NET *207 0.00121856
*CONN
*I *1329:A2 I *D sky130_fd_sc_hd__o21a_1
*I *1283:B I *D sky130_fd_sc_hd__nor2_1
*I *1282:X O *D sky130_fd_sc_hd__or3_1
*CAP
1 *1329:A2 0.000344908
2 *1283:B 4.68989e-05
3 *1282:X 0
4 *207:6 0.000391806
5 *1283:B *1282:A 4.46186e-06
6 *1283:B *250:35 4.1331e-06
7 *1283:B *250:50 3.42457e-05
8 *1283:B *259:8 3.18676e-05
9 *1283:B *328:34 2.91887e-05
10 *1329:A2 *250:50 0.000152685
11 *1329:A2 *328:34 4.1331e-06
12 *1329:A2 *341:22 7.77751e-05
13 *1130:B1 *1329:A2 9.64602e-05
14 *206:12 *1329:A2 0
*RES
1 *1282:X *207:6 13.8 
2 *207:6 *1283:B 15.3714 
3 *207:6 *1329:A2 21.05 
*END

*D_NET *208 0.00532703
*CONN
*I *1303:B1 I *D sky130_fd_sc_hd__o21a_1
*I *1306:B I *D sky130_fd_sc_hd__and2b_1
*I *1315:A I *D sky130_fd_sc_hd__and3_1
*I *1283:Y O *D sky130_fd_sc_hd__nor2_1
*CAP
1 *1303:B1 2.23854e-05
2 *1306:B 0.000208285
3 *1315:A 6.48825e-05
4 *1283:Y 0.00107555
5 *208:10 0.00041964
6 *208:6 0.0012444
7 *1306:B *1306:A_N 0.000192585
8 *1306:B *243:36 0
9 *1315:A *1306:A_N 0.000129868
10 *1315:A *243:36 0
11 *208:6 *1303:A2 9.0145e-05
12 *208:6 *215:10 0.000222666
13 *208:6 *259:8 0.000703595
14 *208:6 *259:25 0.000200399
15 *208:6 *259:31 0.00044366
16 *1290:A *208:6 0.000273269
17 *1370:D *1306:B 3.5707e-05
*RES
1 *1283:Y *208:6 32.0143 
2 *208:6 *208:10 6.67857 
3 *208:10 *1315:A 15.4429 
4 *208:10 *1306:B 18.1214 
5 *208:6 *1303:B1 9.72857 
*END

*D_NET *209 0.00434073
*CONN
*I *1286:B I *D sky130_fd_sc_hd__or2_1
*I *1285:C1 I *D sky130_fd_sc_hd__a2111o_1
*I *1284:X O *D sky130_fd_sc_hd__or4_1
*CAP
1 *1286:B 0.000348143
2 *1285:C1 0.000142182
3 *1284:X 0.000650915
4 *209:10 0.00114124
5 *1285:C1 *1359:CLK 0.000299274
6 *1286:B *1286:A 0.000623771
7 *1286:B *211:10 9.90431e-05
8 *1286:B *293:10 5.76973e-05
9 *209:10 *1284:A 6.05161e-06
10 *209:10 *1286:A 0
11 *209:10 *1359:CLK 2.31791e-05
12 *209:10 *246:8 8.15095e-05
13 *209:10 *246:10 0.000175512
14 *209:10 *246:12 0.000222878
15 *209:10 *266:16 4.06782e-05
16 *209:10 *294:10 0
17 *209:10 *294:12 0
18 *1231:D *209:10 0
19 *1264:A2 *209:10 3.34687e-05
20 *1266:A2 *209:10 7.8327e-05
21 *1364:D *1286:B 1.76204e-05
22 *1364:D *209:10 0.000150611
23 *171:19 *209:10 0
24 *172:10 *209:10 8.00806e-05
25 *173:42 *209:10 6.8551e-05
*RES
1 *1284:X *209:10 28.7286 
2 *209:10 *1285:C1 17.5679 
3 *209:10 *1286:B 21.7286 
*END

*D_NET *210 0.00369712
*CONN
*I *1287:A3 I *D sky130_fd_sc_hd__a41o_1
*I *1285:X O *D sky130_fd_sc_hd__a2111o_1
*CAP
1 *1287:A3 0.00115352
2 *1285:X 0.00115352
3 *1287:A3 *1287:A4 9.90431e-05
4 *1287:A3 *1295:A2 0
5 *1287:A3 *1306:A_N 9.64509e-05
6 *1287:A3 *1312:B1 2.77289e-05
7 *1287:A3 *1314:A 9.90367e-05
8 *1287:A3 *1314:C 0.000832078
9 *1287:A3 *213:31 6.26559e-05
10 *1287:A3 *214:10 0.00017309
11 *1287:A3 *221:12 0
12 *1287:A1 *1287:A3 0
13 *1312:C1 *1287:A3 0
*RES
1 *1285:X *1287:A3 47.7607 
*END

*D_NET *211 0.00358317
*CONN
*I *1312:A2 I *D sky130_fd_sc_hd__o311a_1
*I *1295:A1 I *D sky130_fd_sc_hd__o21ba_1
*I *1287:A4 I *D sky130_fd_sc_hd__a41o_1
*I *1286:X O *D sky130_fd_sc_hd__or2_1
*CAP
1 *1312:A2 1.5079e-05
2 *1295:A1 0
3 *1287:A4 0.000470561
4 *1286:X 0.000341619
5 *211:16 0.000739526
6 *211:10 0.000625663
7 *1287:A4 *1295:A2 5.80706e-06
8 *1287:A4 *213:31 0
9 *1287:A4 *302:19 0
10 *1312:A2 *1312:A1 6.05161e-06
11 *1312:A2 *1314:B 5.52302e-05
12 *1312:A2 *1314:C 1.56e-05
13 *211:10 *1286:A 4.88637e-05
14 *211:16 *1295:A2 0.000266818
15 *211:16 *1311:A2 7.80714e-06
16 *211:16 *1312:A3 6.09476e-05
17 *211:16 *302:19 0
18 *1286:B *211:10 9.90431e-05
19 *1287:A3 *1287:A4 9.90431e-05
20 *1312:C1 *211:16 0
21 *1372:D *211:10 0
22 *3:11 *211:10 0.000286594
23 *3:11 *211:16 0.00043892
*RES
1 *1286:X *211:10 20.1571 
2 *211:10 *211:16 8.375 
3 *211:16 *1287:A4 21.8179 
4 *211:16 *1295:A1 13.8 
5 *211:10 *1312:A2 14.3357 
*END

*D_NET *212 0.00331947
*CONN
*I *1293:A1 I *D sky130_fd_sc_hd__o21a_1
*I *1305:A2 I *D sky130_fd_sc_hd__o32a_1
*I *1324:C I *D sky130_fd_sc_hd__or4_1
*I *1307:B I *D sky130_fd_sc_hd__or3b_1
*I *1287:X O *D sky130_fd_sc_hd__a41o_1
*CAP
1 *1293:A1 6.13936e-05
2 *1305:A2 0.000119435
3 *1324:C 7.91442e-05
4 *1307:B 0
5 *1287:X 7.15661e-05
6 *212:18 0.000583179
7 *212:10 0.00068401
8 *212:6 0.0001935
9 *1293:A1 *1287:A2 4.43256e-05
10 *1293:A1 *1303:A1 6.05161e-06
11 *1293:A1 *255:10 7.61932e-05
12 *1305:A2 *1303:A1 0.000187726
13 *1305:A2 *1305:A3 6.05161e-06
14 *1305:A2 *222:10 3.38136e-05
15 *1324:C *1324:D 4.38128e-05
16 *1324:C *214:45 5.71472e-05
17 *212:6 *1287:A2 0.000100625
18 *212:6 *1303:A1 2.89016e-05
19 *212:10 *1303:A1 0.00010326
20 *212:10 *222:10 3.84385e-05
21 *212:10 *243:14 2.59093e-05
22 *212:18 *1292:A2 7.61932e-05
23 *212:18 *1293:A2 5.52302e-05
24 *212:18 *214:19 8.37335e-05
25 *212:18 *214:30 0.000155398
26 *212:18 *214:45 1.21289e-05
27 *1295:B1_N *1305:A2 0.000101545
28 *1305:A1 *1305:A2 2.49101e-05
29 *1324:B *1324:C 2.89114e-05
30 *155:35 *1305:A2 1.97695e-05
31 *156:10 *1293:A1 0.000183726
32 *156:10 *212:10 3.34366e-05
*RES
1 *1287:X *212:6 11.0679 
2 *212:6 *212:10 6.44643 
3 *212:10 *212:18 12.9821 
4 *212:18 *1307:B 9.3 
5 *212:18 *1324:C 11.3893 
6 *212:10 *1305:A2 17.3179 
7 *212:6 *1293:A1 11.4786 
*END

*D_NET *213 0.00619866
*CONN
*I *1289:B I *D sky130_fd_sc_hd__or2_1
*I *1313:D I *D sky130_fd_sc_hd__or4_1
*I *1288:X O *D sky130_fd_sc_hd__or2_1
*CAP
1 *1289:B 0
2 *1313:D 0.000423854
3 *1288:X 8.07555e-05
4 *213:31 0.00247031
5 *213:10 0.00297492
6 *1313:D *1313:A 1.00375e-05
7 *1313:D *1313:B 8.49318e-05
8 *1313:D *1313:C 3.57844e-05
9 *213:10 *1258:A1 0
10 *213:10 *1288:B 0
11 *213:10 *268:83 0
12 *213:31 *1296:A2 2.89016e-05
13 *1287:A3 *213:31 6.26559e-05
14 *1287:A4 *213:31 0
15 *1295:B1_N *213:31 2.65105e-05
16 *1414:A *1313:D 0
17 *1416:A *1313:D 0
18 *1426:A *1313:D 0
*RES
1 *1288:X *213:10 19.6393 
2 *213:10 *1313:D 26.0679 
3 *213:10 *213:31 46.2857 
4 *213:31 *1289:B 9.3 
*END

*D_NET *214 0.00355372
*CONN
*I *1324:D I *D sky130_fd_sc_hd__or4_1
*I *1307:C_N I *D sky130_fd_sc_hd__or3b_1
*I *1304:D I *D sky130_fd_sc_hd__or4_1
*I *1292:B1 I *D sky130_fd_sc_hd__a21oi_1
*I *1296:B1 I *D sky130_fd_sc_hd__a21oi_1
*I *1289:X O *D sky130_fd_sc_hd__or2_1
*CAP
1 *1324:D 1.92979e-05
2 *1307:C_N 0
3 *1304:D 0.000103965
4 *1292:B1 0
5 *1296:B1 1.69531e-05
6 *1289:X 9.80918e-05
7 *214:45 5.77336e-05
8 *214:30 0.000451677
9 *214:19 0.000552923
10 *214:10 0.000358692
11 *1304:D *1304:C 5.33005e-05
12 *1304:D *1324:A 5.33005e-05
13 *214:10 *221:12 0
14 *214:30 *1292:A2 0.000139907
15 *1287:A1 *214:10 0
16 *1287:A3 *214:10 0.00017309
17 *1295:B1_N *1296:B1 5.33005e-05
18 *1295:B1_N *214:19 0.000566258
19 *1296:A1 *1296:B1 5.33005e-05
20 *1296:A1 *214:19 0.000300804
21 *1324:C *1324:D 4.38128e-05
22 *1324:C *214:45 5.71472e-05
23 *91:10 *1304:D 0.000148903
24 *212:18 *214:19 8.37335e-05
25 *212:18 *214:30 0.000155398
26 *212:18 *214:45 1.21289e-05
*RES
1 *1289:X *214:10 20.55 
2 *214:10 *1296:B1 9.83571 
3 *214:10 *214:19 7.10714 
4 *214:19 *1292:B1 9.3 
5 *214:19 *214:30 6.01786 
6 *214:30 *1304:D 20.7821 
7 *214:30 *214:45 0.946429 
8 *214:45 *1307:C_N 9.3 
9 *214:45 *1324:D 9.83571 
*END

*D_NET *215 0.00217807
*CONN
*I *1291:B I *D sky130_fd_sc_hd__nor2_1
*I *1302:A1 I *D sky130_fd_sc_hd__a31o_1
*I *1290:Y O *D sky130_fd_sc_hd__nor2_1
*CAP
1 *1291:B 0
2 *1302:A1 0.000502795
3 *1290:Y 0.00022879
4 *215:10 0.000731585
5 *1302:A1 *1292:A2 0
6 *1302:A1 *1301:B2 5.80706e-06
7 *1302:A1 *1302:B1 6.97972e-05
8 *1302:A1 *1310:B1 4.30584e-06
9 *1302:A1 *1326:B1 3.51442e-05
10 *1302:A1 *221:23 0.00016428
11 *1302:A1 *225:10 1.90936e-05
12 *1302:A1 *259:31 0
13 *1302:A1 *259:39 0
14 *215:10 *1301:B2 2.26327e-05
15 *215:10 *259:31 0
16 *1301:A1_N *1302:A1 2.35042e-06
17 *91:10 *1302:A1 4.5539e-05
18 *91:10 *215:10 0.000123288
19 *208:6 *215:10 0.000222666
*RES
1 *1290:Y *215:10 17.6214 
2 *215:10 *1302:A1 24.3698 
3 *215:10 *1291:B 13.8 
*END

*D_NET *216 0.00238235
*CONN
*I *1301:A2_N I *D sky130_fd_sc_hd__a2bb2o_1
*I *1292:A2 I *D sky130_fd_sc_hd__a21oi_1
*I *1291:Y O *D sky130_fd_sc_hd__nor2_1
*CAP
1 *1301:A2_N 0
2 *1292:A2 0.000402223
3 *1291:Y 0.000133421
4 *216:8 0.000535644
5 *1292:A2 *1301:B2 4.1331e-06
6 *1292:A2 *1309:B1 0.000137553
7 *1292:A2 *1326:B1 0
8 *1292:A2 *223:10 0
9 *1292:A2 *259:31 0.000219843
10 *1292:A2 *259:39 0.000146474
11 *1292:A2 *330:73 6.42338e-05
12 *216:8 *1301:B1 4.70078e-05
13 *216:8 *1301:B2 0.000137983
14 *1213:A2 *1292:A2 7.60306e-05
15 *1301:A1_N *1292:A2 2.9946e-05
16 *1301:A1_N *216:8 2.59355e-05
17 *1302:A1 *1292:A2 0
18 *1309:A3 *1292:A2 8.16036e-05
19 *93:27 *216:8 2.32517e-05
20 *155:16 *1292:A2 0.000100969
21 *212:18 *1292:A2 7.61932e-05
22 *214:30 *1292:A2 0.000139907
*RES
1 *1291:Y *216:8 12.3179 
2 *216:8 *1292:A2 29.4964 
3 *216:8 *1301:A2_N 9.3 
*END

*D_NET *217 0.000308885
*CONN
*I *1293:A2 I *D sky130_fd_sc_hd__o21a_1
*I *1292:Y O *D sky130_fd_sc_hd__a21oi_1
*CAP
1 *1293:A2 7.3957e-05
2 *1292:Y 7.3957e-05
3 *1293:A2 *222:10 8.00806e-05
4 *1292:A1 *1293:A2 2.56601e-05
5 *212:18 *1293:A2 5.52302e-05
*RES
1 *1292:Y *1293:A2 29.1714 
*END

*D_NET *218 0.00270393
*CONN
*I *1303:A1 I *D sky130_fd_sc_hd__o21a_1
*I *1293:X O *D sky130_fd_sc_hd__o21a_1
*CAP
1 *1303:A1 0.000436154
2 *1293:X 0.000436154
3 *1303:A1 *1298:B 0
4 *1303:A1 *1327:C1 7.83587e-05
5 *1303:A1 *243:14 0.000364953
6 *1303:A1 *243:36 0.000714104
7 *1293:A1 *1303:A1 6.05161e-06
8 *1295:B1_N *1303:A1 1.31516e-05
9 *1305:A1 *1303:A1 0.000335117
10 *1305:A2 *1303:A1 0.000187726
11 *212:6 *1303:A1 2.89016e-05
12 *212:10 *1303:A1 0.00010326
*RES
1 *1293:X *1303:A1 41.9214 
*END

*D_NET *219 0.00132139
*CONN
*I *1295:A2 I *D sky130_fd_sc_hd__o21ba_1
*I *1294:X O *D sky130_fd_sc_hd__o211a_1
*CAP
1 *1295:A2 0.000440766
2 *1294:X 0.000440766
3 *1295:A2 *1311:A1 2.15245e-05
4 *1295:A2 *1312:A3 9.33978e-07
5 *1287:A3 *1295:A2 0
6 *1287:A4 *1295:A2 5.80706e-06
7 *1311:B1 *1295:A2 0.000144773
8 *211:16 *1295:A2 0.000266818
*RES
1 *1294:X *1295:A2 35.0821 
*END

*D_NET *220 8.6306e-05
*CONN
*I *1296:A2 I *D sky130_fd_sc_hd__a21oi_1
*I *1295:X O *D sky130_fd_sc_hd__o21ba_1
*CAP
1 *1296:A2 1.27684e-05
2 *1295:X 1.27684e-05
3 *1295:B1_N *1296:A2 3.18676e-05
4 *213:31 *1296:A2 2.89016e-05
*RES
1 *1295:X *1296:A2 19.1357 
*END

*D_NET *221 0.00429881
*CONN
*I *1302:A2 I *D sky130_fd_sc_hd__a31o_1
*I *1326:B1 I *D sky130_fd_sc_hd__o211ai_1
*I *1310:A1 I *D sky130_fd_sc_hd__o21ai_1
*I *1296:Y O *D sky130_fd_sc_hd__a21oi_1
*CAP
1 *1302:A2 0
2 *1326:B1 0.000204082
3 *1310:A1 0
4 *1296:Y 0.000570357
5 *221:23 0.000533394
6 *221:12 0.000899669
7 *1326:B1 *1312:B1 4.46186e-06
8 *1326:B1 *1326:C1 0.000315165
9 *1326:B1 *223:10 1.19309e-05
10 *1326:B1 *223:23 5.7234e-05
11 *1326:B1 *259:39 2.44318e-05
12 *221:12 *1306:A_N 0.000277885
13 *221:12 *1310:A2 8.00806e-05
14 *221:12 *243:36 0
15 *221:23 *1303:A2 1.46624e-05
16 *221:23 *1310:B1 0.000437756
17 *221:23 *1312:B1 7.48356e-05
18 *221:23 *1315:B 5.33433e-05
19 *221:23 *225:10 1.62539e-05
20 *1287:A1 *221:12 1.97381e-05
21 *1287:A3 *221:12 0
22 *1292:A2 *1326:B1 0
23 *1296:A1 *221:12 0.000119125
24 *1302:A1 *1326:B1 3.51442e-05
25 *1302:A1 *221:23 0.00016428
26 *87:64 *1326:B1 9.61455e-05
27 *87:83 *221:12 0.000105114
28 *155:16 *1326:B1 0.000183726
29 *214:10 *221:12 0
*RES
1 *1296:Y *221:12 30.925 
2 *221:12 *1310:A1 9.3 
3 *221:12 *221:23 12.5179 
4 *221:23 *1326:B1 20.0679 
5 *221:23 *1302:A2 13.8 
*END

*D_NET *222 0.00176021
*CONN
*I *1298:B I *D sky130_fd_sc_hd__and2b_1
*I *1305:B1 I *D sky130_fd_sc_hd__o32a_1
*I *1297:Y O *D sky130_fd_sc_hd__nor2_1
*CAP
1 *1298:B 7.17721e-05
2 *1305:B1 0
3 *1297:Y 0.000489256
4 *222:10 0.000561028
5 *1298:B *1305:A3 9.90431e-05
6 *1298:B *223:10 5.52302e-05
7 *222:10 *1297:B 0.000161868
8 *222:10 *330:58 0
9 *222:10 *330:73 0
10 *1213:A2 *222:10 0
11 *1292:A1 *222:10 0
12 *1293:A2 *222:10 8.00806e-05
13 *1295:B1_N *222:10 6.42338e-05
14 *1303:A1 *1298:B 0
15 *1305:A1 *1298:B 4.46186e-06
16 *1305:A2 *222:10 3.38136e-05
17 *155:16 *1298:B 0
18 *155:16 *222:10 0
19 *156:10 *222:10 0.000100979
20 *212:10 *222:10 3.84385e-05
*RES
1 *1297:Y *222:10 23.6036 
2 *222:10 *1305:B1 13.8 
3 *222:10 *1298:B 15.4786 
*END

*D_NET *223 0.00250816
*CONN
*I *1302:A3 I *D sky130_fd_sc_hd__a31o_1
*I *1299:A I *D sky130_fd_sc_hd__inv_2
*I *1326:C1 I *D sky130_fd_sc_hd__o211ai_1
*I *1298:X O *D sky130_fd_sc_hd__and2b_1
*CAP
1 *1302:A3 2.35365e-05
2 *1299:A 7.09787e-05
3 *1326:C1 0.000160863
4 *1298:X 0.000146335
5 *223:23 0.000168241
6 *223:10 0.000380924
7 *1299:A *1312:B1 0.000262491
8 *1299:A *1314:A 0.000134345
9 *1299:A *1327:C1 9.41642e-05
10 *1302:A3 *1312:B1 5.52302e-05
11 *1302:A3 *1327:C1 8.66063e-05
12 *1326:C1 *259:39 9.80173e-05
13 *223:10 *1305:A3 2.28499e-05
14 *1292:A2 *223:10 0
15 *1298:B *223:10 5.52302e-05
16 *1305:A1 *223:10 0.000152333
17 *1305:A1 *223:23 0.000162825
18 *1326:B1 *1326:C1 0.000315165
19 *1326:B1 *223:10 1.19309e-05
20 *1326:B1 *223:23 5.7234e-05
21 *87:64 *1326:C1 4.88546e-05
22 *155:16 *223:10 0
*RES
1 *1298:X *223:10 16.6929 
2 *223:10 *1326:C1 18.0321 
3 *223:10 *223:23 6.75 
4 *223:23 *1299:A 11.8893 
5 *223:23 *1302:A3 10.2464 
*END

*D_NET *224 0.000400401
*CONN
*I *1310:A2 I *D sky130_fd_sc_hd__o21ai_1
*I *1299:Y O *D sky130_fd_sc_hd__inv_2
*CAP
1 *1310:A2 0.00010968
2 *1299:Y 0.00010968
3 *1310:A2 *1327:C1 0.00010096
4 *1310:A2 *243:36 0
5 *221:12 *1310:A2 8.00806e-05
*RES
1 *1299:Y *1310:A2 29.5821 
*END

*D_NET *225 0.0039259
*CONN
*I *1301:B1 I *D sky130_fd_sc_hd__a2bb2o_1
*I *1312:B1 I *D sky130_fd_sc_hd__o311a_1
*I *1300:X O *D sky130_fd_sc_hd__and3b_1
*CAP
1 *1301:B1 0.000189529
2 *1312:B1 0.000444034
3 *1300:X 0.000238591
4 *225:10 0.000872154
5 *1301:B1 *1310:B1 9.71197e-05
6 *1312:B1 *1303:A2 0.000104974
7 *1312:B1 *1310:B1 0.000178847
8 *1312:B1 *1314:A 0.000259674
9 *1312:B1 *1314:B 8.07313e-05
10 *1312:B1 *1314:C 8.17614e-05
11 *1312:B1 *1327:C1 0.000468234
12 *1312:B1 *237:6 0.00010096
13 *225:10 *1303:A2 0
14 *225:10 *1310:B1 1.19191e-05
15 *225:10 *259:31 6.92175e-05
16 *1287:A3 *1312:B1 2.77289e-05
17 *1299:A *1312:B1 0.000262491
18 *1301:A1_N *1301:B1 9.60939e-05
19 *1302:A1 *225:10 1.90936e-05
20 *1302:A3 *1312:B1 5.52302e-05
21 *1305:A1 *1312:B1 2.59093e-05
22 *1305:A1 *225:10 0
23 *1326:B1 *1312:B1 4.46186e-06
24 *91:10 *225:10 0
25 *93:27 *1301:B1 9.90431e-05
26 *216:8 *1301:B1 4.70078e-05
27 *221:23 *1312:B1 7.48356e-05
28 *221:23 *225:10 1.62539e-05
*RES
1 *1300:X *225:10 22.9786 
2 *225:10 *1312:B1 32.0143 
3 *225:10 *1301:B1 13.1393 
*END

*D_NET *226 0.000339109
*CONN
*I *1302:B1 I *D sky130_fd_sc_hd__a31o_1
*I *1301:X O *D sky130_fd_sc_hd__a2bb2o_1
*CAP
1 *1302:B1 6.57272e-05
2 *1301:X 6.57272e-05
3 *1302:B1 *1310:B1 8.00806e-05
4 *1302:B1 *1327:C1 3.18676e-05
5 *1302:B1 *259:31 2.59093e-05
6 *1302:A1 *1302:B1 6.97972e-05
*RES
1 *1301:X *1302:B1 29.7786 
*END

*D_NET *227 0.00104654
*CONN
*I *1303:A2 I *D sky130_fd_sc_hd__o21a_1
*I *1302:X O *D sky130_fd_sc_hd__a31o_1
*CAP
1 *1303:A2 0.000248341
2 *1302:X 0.000248341
3 *1305:A1 *1303:A2 0.000340073
4 *1312:B1 *1303:A2 0.000104974
5 *208:6 *1303:A2 9.0145e-05
6 *221:23 *1303:A2 1.46624e-05
7 *225:10 *1303:A2 0
*RES
1 *1302:X *1303:A2 33.7429 
*END

*D_NET *228 0.000863055
*CONN
*I *1305:A3 I *D sky130_fd_sc_hd__o32a_1
*I *1304:X O *D sky130_fd_sc_hd__or4_1
*CAP
1 *1305:A3 0.000242767
2 *1304:X 0.000242767
3 *1305:A3 *254:27 0
4 *1298:B *1305:A3 9.90431e-05
5 *1305:A1 *1305:A3 5.71472e-05
6 *1305:A2 *1305:A3 6.05161e-06
7 *155:35 *1305:A3 0.00019243
8 *223:10 *1305:A3 2.28499e-05
*RES
1 *1304:X *1305:A3 24.0821 
*END

*D_NET *229 0.00219861
*CONN
*I *1306:A_N I *D sky130_fd_sc_hd__and2b_1
*I *1305:X O *D sky130_fd_sc_hd__o32a_1
*CAP
1 *1306:A_N 0.000623942
2 *1305:X 0.000623942
3 *1306:A_N *1315:C 0.000198705
4 *1306:A_N *243:10 5.52302e-05
5 *1306:A_N *243:36 0
6 *1287:A3 *1306:A_N 9.64509e-05
7 *1306:B *1306:A_N 0.000192585
8 *1312:C1 *1306:A_N 0
9 *1315:A *1306:A_N 0.000129868
10 *1370:D *1306:A_N 0
11 *1372:D *1306:A_N 0
12 *221:12 *1306:A_N 0.000277885
*RES
1 *1305:X *1306:A_N 41.5464 
*END

*D_NET *230 0.00104842
*CONN
*I *1309:B1 I *D sky130_fd_sc_hd__o311a_1
*I *1307:X O *D sky130_fd_sc_hd__or3b_1
*CAP
1 *1309:B1 0.000275166
2 *1307:X 0.000275166
3 *1309:B1 *1304:B 0.000149904
4 *1309:B1 *330:73 7.83587e-05
5 *1292:A2 *1309:B1 0.000137553
6 *1309:A3 *1309:B1 1.02504e-05
7 *91:10 *1309:B1 0.000122025
*RES
1 *1307:X *1309:B1 34.1 
*END

*D_NET *231 0.00521563
*CONN
*I *1309:C1 I *D sky130_fd_sc_hd__o311a_1
*I *1314:A I *D sky130_fd_sc_hd__or3_1
*I *1308:X O *D sky130_fd_sc_hd__or4_1
*CAP
1 *1309:C1 4.70371e-05
2 *1314:A 0.00096167
3 *1308:X 0.000382193
4 *231:10 0.0013909
5 *1309:C1 *1309:A2 9.60875e-05
6 *1309:C1 *1327:C1 0.000136951
7 *1314:A *1314:C 1.75173e-05
8 *1314:A *1327:C1 0.000820287
9 *1314:A *254:27 5.41794e-05
10 *231:10 *1291:A 0.000200413
11 *231:10 *1301:B2 0.000129006
12 *231:10 *254:27 2.24646e-05
13 *1127:A *231:10 5.52238e-05
14 *1287:A3 *1314:A 9.90367e-05
15 *1299:A *1314:A 0.000134345
16 *1300:A_N *231:10 0
17 *1312:B1 *1314:A 0.000259674
18 *1325:B1 *231:10 0
19 *81:49 *231:10 0.000196276
20 *91:10 *231:10 0.000212371
21 *93:10 *231:10 0
*RES
1 *1308:X *231:10 23.5679 
2 *231:10 *1314:A 29.6036 
3 *231:10 *1309:C1 15.1571 
*END

*D_NET *232 0.00155686
*CONN
*I *1310:B1 I *D sky130_fd_sc_hd__o21ai_1
*I *1309:X O *D sky130_fd_sc_hd__o311a_1
*CAP
1 *1310:B1 0.000311852
2 *1309:X 0.000311852
3 *1310:B1 *259:31 0.000123126
4 *1301:B1 *1310:B1 9.71197e-05
5 *1302:A1 *1310:B1 4.30584e-06
6 *1302:B1 *1310:B1 8.00806e-05
7 *1312:B1 *1310:B1 0.000178847
8 *221:23 *1310:B1 0.000437756
9 *225:10 *1310:B1 1.19191e-05
*RES
1 *1309:X *1310:B1 35.1179 
*END

*D_NET *233 0.000398172
*CONN
*I *1315:B I *D sky130_fd_sc_hd__and3_1
*I *1310:Y O *D sky130_fd_sc_hd__o21ai_1
*CAP
1 *1315:B 0.000170569
2 *1310:Y 0.000170569
3 *1315:B *1315:C 3.69047e-06
4 *221:23 *1315:B 5.33433e-05
*RES
1 *1310:Y *1315:B 21.2071 
*END

*D_NET *234 0.000338
*CONN
*I *1312:A3 I *D sky130_fd_sc_hd__o311a_1
*I *1311:X O *D sky130_fd_sc_hd__o211a_1
*CAP
1 *1312:A3 0.000138059
2 *1311:X 0.000138059
3 *1295:A2 *1312:A3 9.33978e-07
4 *1312:C1 *1312:A3 0
5 *211:16 *1312:A3 6.09476e-05
*RES
1 *1311:X *1312:A3 29.7786 
*END

*D_NET *235 0.000694864
*CONN
*I *1314:B I *D sky130_fd_sc_hd__or3_1
*I *1312:X O *D sky130_fd_sc_hd__o311a_1
*CAP
1 *1314:B 0.000256849
2 *1312:X 0.000256849
3 *1314:B *1312:A1 2.77143e-05
4 *1314:B *1314:C 1.74903e-05
5 *1312:A2 *1314:B 5.52302e-05
6 *1312:B1 *1314:B 8.07313e-05
*RES
1 *1312:X *1314:B 22.0107 
*END

*D_NET *236 0.00787959
*CONN
*I *1314:C I *D sky130_fd_sc_hd__or3_1
*I *1313:X O *D sky130_fd_sc_hd__or4_1
*CAP
1 *1314:C 0.000929095
2 *1313:X 0.000603943
3 *236:18 0.00153304
4 *1314:C *1229:D 0.000395797
5 *1314:C *1312:A1 0.000616982
6 *1314:C *266:60 0.000570226
7 *236:18 *1240:B1 0
8 *236:18 *1254:A1 2.82057e-05
9 *236:18 *1256:A1 0.000186662
10 *236:18 *1256:B1 4.50208e-05
11 *236:18 *1313:A 5.33978e-05
12 *236:18 *304:29 1.17968e-05
13 *236:18 *304:31 3.57844e-05
14 *236:18 *306:37 0.000175526
15 *1233:D *1314:C 0.00014285
16 *1249:A *1314:C 0.000315115
17 *1249:B *1314:C 0.000400867
18 *1255:B *236:18 0.000449762
19 *1285:A2 *1314:C 0.000171283
20 *1287:A3 *1314:C 0.000832078
21 *1312:A2 *1314:C 1.56e-05
22 *1312:B1 *1314:C 8.17614e-05
23 *1314:A *1314:C 1.75173e-05
24 *1314:B *1314:C 1.74903e-05
25 *1361:D *236:18 4.15914e-05
26 *170:18 *1314:C 5.527e-05
27 *170:31 *1314:C 6.57914e-05
28 *170:42 *1314:C 8.71377e-05
*RES
1 *1313:X *236:18 40.6393 
2 *236:18 *1314:C 36.55 
*END

*D_NET *237 0.0040081
*CONN
*I *1327:C1 I *D sky130_fd_sc_hd__o211ai_1
*I *1315:C I *D sky130_fd_sc_hd__and3_1
*I *1314:X O *D sky130_fd_sc_hd__or3_1
*CAP
1 *1327:C1 0.000632368
2 *1315:C 0.000139228
3 *1314:X 4.39401e-05
4 *237:6 0.000815536
5 *1327:C1 *1309:A1 5.33005e-05
6 *1327:C1 *1309:A2 9.31893e-05
7 *1327:C1 *1327:A1 1.97695e-05
8 *1327:C1 *1328:A2 1.33343e-05
9 *1299:A *1327:C1 9.41642e-05
10 *1302:A3 *1327:C1 8.66063e-05
11 *1302:B1 *1327:C1 3.18676e-05
12 *1303:A1 *1327:C1 7.83587e-05
13 *1305:A1 *1327:C1 7.6644e-05
14 *1306:A_N *1315:C 0.000198705
15 *1309:C1 *1327:C1 0.000136951
16 *1310:A2 *1327:C1 0.00010096
17 *1312:B1 *1327:C1 0.000468234
18 *1312:B1 *237:6 0.00010096
19 *1314:A *1327:C1 0.000820287
20 *1315:B *1315:C 3.69047e-06
*RES
1 *1314:X *237:6 10.2464 
2 *237:6 *1315:C 21.05 
3 *237:6 *1327:C1 34.8 
*END

*D_NET *238 0.00175685
*CONN
*I *1322:C I *D sky130_fd_sc_hd__nor3_1
*I *1321:X O *D sky130_fd_sc_hd__o221a_1
*CAP
1 *1322:C 0.000749636
2 *1321:X 0.000749636
3 *1322:C *245:127 9.90367e-05
4 *1322:C *269:53 0
5 *1150:B *1322:C 0
6 *1319:A1 *1322:C 0
7 *1319:A2 *1322:C 0
8 *1378:D *1322:C 9.90367e-05
9 *96:20 *1322:C 5.95089e-05
10 *101:10 *1322:C 0
11 *101:16 *1322:C 0
12 *111:10 *1322:C 0
*RES
1 *1321:X *1322:C 40.8143 
*END

*D_NET *239 0.00193283
*CONN
*I *1325:B2 I *D sky130_fd_sc_hd__a2bb2o_1
*I *1324:X O *D sky130_fd_sc_hd__or4_1
*CAP
1 *1325:B2 0.000485307
2 *1324:X 0.000485307
3 *1325:B2 *1324:A 0
4 *1325:B2 *1327:A1 0.000417768
5 *1325:B2 *1328:A2 0.000333638
6 *1325:B1 *1325:B2 0.00021081
*RES
1 *1324:X *1325:B2 38.975 
*END

*D_NET *240 0.000344378
*CONN
*I *1327:A2 I *D sky130_fd_sc_hd__o211ai_1
*I *1325:X O *D sky130_fd_sc_hd__a2bb2o_1
*CAP
1 *1327:A2 7.7896e-05
2 *1325:X 7.7896e-05
3 *1325:B1 *1327:A2 0.000188586
*RES
1 *1325:X *1327:A2 20.3679 
*END

*D_NET *241 0.00155618
*CONN
*I *1327:B1 I *D sky130_fd_sc_hd__o211ai_1
*I *1326:Y O *D sky130_fd_sc_hd__o211ai_1
*CAP
1 *1327:B1 0.000531678
2 *1326:Y 0.000531678
3 *1327:B1 *1326:A1 0.000242668
4 *1327:B1 *1327:A1 0.000100831
5 *1327:B1 *259:39 0.00014183
6 *1327:B1 *337:21 0
7 *155:16 *1327:B1 7.49387e-06
*RES
1 *1326:Y *1327:B1 35.1179 
*END

*D_NET *242 0.00150479
*CONN
*I *1328:A2 I *D sky130_fd_sc_hd__a21o_1
*I *1327:Y O *D sky130_fd_sc_hd__o211ai_1
*CAP
1 *1328:A2 0.000481567
2 *1327:Y 0.000481567
3 *1328:A2 *1324:A 0
4 *1328:A2 *1327:A1 1.98839e-05
5 *1328:A2 *1380:CLK 0.000174797
6 *1328:A2 *269:94 0
7 *1328:A2 *337:10 0
8 *1328:A2 *337:21 0
9 *1325:B2 *1328:A2 0.000333638
10 *1327:C1 *1328:A2 1.33343e-05
11 *1380:D *1328:A2 0
*RES
1 *1327:Y *1328:A2 36.8143 
*END

*D_NET *243 0.0085816
*CONN
*I *1387:A I *D sky130_fd_sc_hd__clkbuf_16
*I *1388:A I *D sky130_fd_sc_hd__clkbuf_16
*I *1386:A I *D sky130_fd_sc_hd__clkbuf_16
*I *1385:A I *D sky130_fd_sc_hd__clkbuf_16
*I *1384:X O *D sky130_fd_sc_hd__clkbuf_16
*CAP
1 *1387:A 0.000690774
2 *1388:A 0
3 *1386:A 9.54849e-05
4 *1385:A 0.000613418
5 *1384:X 9.95182e-05
6 *243:36 0.00129714
7 *243:14 0.0013631
8 *243:10 0.00136008
9 *1385:A *1389:A 9.90367e-05
10 *1385:A *322:10 5.38072e-05
11 *1386:A *1389:A 0.00022266
12 *1387:A *1371:CLK 5.71472e-05
13 *1387:A *247:8 5.52302e-05
14 *1387:A *339:8 2.59355e-05
15 *243:14 *1218:B2 0.000128146
16 *243:14 *1287:B1 0
17 *243:14 *270:38 0.000173804
18 *243:14 *288:12 0.000150625
19 *243:36 *1391:A 0.000150625
20 *243:36 *339:12 0
21 *243:36 *339:56 0
22 *1217:B1 *243:14 0
23 *1218:A1 *243:14 8.56716e-05
24 *1218:B1 *243:14 3.92757e-05
25 *1218:C1 *243:14 8.49861e-06
26 *1287:A1 *243:14 7.36267e-05
27 *1303:A1 *243:14 0.000364953
28 *1303:A1 *243:36 0.000714104
29 *1305:A1 *243:10 1.64329e-05
30 *1305:A1 *243:36 5.0725e-05
31 *1306:A_N *243:10 5.52302e-05
32 *1306:A_N *243:36 0
33 *1306:B *243:36 0
34 *1310:A2 *243:36 0
35 *1315:A *243:36 0
36 *1334:D *1385:A 0.000179061
37 *1370:D *243:36 0
38 *1371:D *1387:A 1.64343e-05
39 *87:83 *243:14 7.7309e-05
40 *87:83 *243:36 2.74584e-05
41 *156:10 *243:14 0.000167799
42 *157:12 *243:14 4.25716e-05
43 *212:10 *243:14 2.59093e-05
44 *221:12 *243:36 0
*RES
1 *1384:X *243:10 15.5857 
2 *243:10 *243:14 21.9286 
3 *243:14 *1385:A 20.2464 
4 *243:14 *1386:A 11.4786 
5 *243:10 *243:36 18.2857 
6 *243:36 *1388:A 9.3 
7 *243:36 *1387:A 20.675 
*END

*D_NET *244 0.0177025
*CONN
*I *1334:CLK I *D sky130_fd_sc_hd__dfxtp_1
*I *1358:CLK I *D sky130_fd_sc_hd__dfxtp_1
*I *1353:CLK I *D sky130_fd_sc_hd__dfxtp_1
*I *1333:CLK I *D sky130_fd_sc_hd__dfxtp_1
*I *1335:CLK I *D sky130_fd_sc_hd__dfxtp_1
*I *1332:CLK I *D sky130_fd_sc_hd__dfxtp_1
*I *1345:CLK I *D sky130_fd_sc_hd__dfxtp_1
*I *1341:CLK I *D sky130_fd_sc_hd__dfxtp_1
*I *1344:CLK I *D sky130_fd_sc_hd__dfxtp_1
*I *1343:CLK I *D sky130_fd_sc_hd__dfxtp_1
*I *1330:CLK I *D sky130_fd_sc_hd__dfxtp_1
*I *1331:CLK I *D sky130_fd_sc_hd__dfxtp_1
*I *1357:CLK I *D sky130_fd_sc_hd__dfxtp_1
*I *1363:CLK I *D sky130_fd_sc_hd__dfxtp_1
*I *1362:CLK I *D sky130_fd_sc_hd__dfxtp_1
*I *1342:CLK I *D sky130_fd_sc_hd__dfxtp_1
*I *1385:X O *D sky130_fd_sc_hd__clkbuf_16
*CAP
1 *1334:CLK 0.000144183
2 *1358:CLK 0.000479447
3 *1353:CLK 0.000135031
4 *1333:CLK 2.12584e-05
5 *1335:CLK 0.000207738
6 *1332:CLK 0
7 *1345:CLK 0
8 *1341:CLK 0.000498401
9 *1344:CLK 0
10 *1343:CLK 0
11 *1330:CLK 0
12 *1331:CLK 0
13 *1357:CLK 0.000401945
14 *1363:CLK 0.00010163
15 *1362:CLK 0.000132165
16 *1342:CLK 0
17 *1385:X 0
18 *244:163 0.000827072
19 *244:159 0.000697446
20 *244:136 0.000242134
21 *244:115 0.000641948
22 *244:69 0.000332256
23 *244:67 0.00077812
24 *244:61 0.000950132
25 *244:49 0.00133074
26 *244:36 0.00121715
27 *244:30 0.00135953
28 *244:22 0.0010225
29 *244:20 0.000532612
30 *244:12 0.000843349
31 *244:10 0.000736236
32 *244:4 0.000701043
33 *1333:CLK *321:10 0.000142856
34 *1357:CLK *1363:D 6.05161e-06
35 *1358:CLK *1246:A 0.000144788
36 *1358:CLK *302:6 1.39726e-05
37 *1363:CLK *1363:D 4.79842e-05
38 *244:10 *1169:C 0
39 *244:12 *1167:D 0.000173804
40 *244:12 *1168:A1 4.98968e-05
41 *244:12 *1168:B1 0.000103267
42 *244:12 *1169:C 0
43 *244:12 *264:86 0
44 *244:20 *264:86 0
45 *244:20 *264:88 0
46 *244:22 *1202:A 0.000144773
47 *244:30 *1200:A 0.000128646
48 *244:30 *316:10 8.71847e-05
49 *244:69 *1363:D 2.89016e-05
50 *244:163 *322:48 1.37292e-05
51 *1169:A_N *244:10 0.000104974
52 *1169:B *244:10 4.97918e-05
53 *1172:B *244:163 6.16744e-05
54 *1172:C *244:163 0.000151333
55 *1199:B *244:30 0.000106494
56 *1202:B *244:30 5.52302e-05
57 *1203:B *244:20 0
58 *1203:B *244:115 1.52978e-05
59 *1204:B *244:115 0
60 *1204:C *1341:CLK 3.23695e-05
61 *1204:C *244:20 0
62 *1247:A2 *1358:CLK 0
63 *1261:A2 *1357:CLK 9.93569e-05
64 *1261:B1 *244:67 0
65 *1330:D *244:61 0
66 *1332:D *244:12 3.57163e-05
67 *1333:D *1333:CLK 0.000142856
68 *1334:D *1334:CLK 0.000268396
69 *1334:D *244:163 3.34366e-05
70 *1343:D *244:30 0.000103323
71 *1345:D *244:115 0
72 *1358:D *1358:CLK 0.000435174
73 *1362:D *1363:CLK 0
74 *1362:D *244:67 0
75 *1410:A *1357:CLK 5.68722e-05
76 *129:43 *244:163 1.78353e-05
77 *148:23 *244:30 0.000316985
78 *150:6 *244:30 9.83388e-05
79 *150:21 *244:30 9.71197e-05
*RES
1 *1385:X *244:4 9.3 
2 *244:4 *244:10 11.2857 
3 *244:10 *244:12 7.10714 
4 *244:12 *244:20 12.5714 
5 *244:20 *244:22 1.76786 
6 *244:22 *244:30 16.7143 
7 *244:30 *244:36 14.5 
8 *244:36 *1342:CLK 13.8 
9 *244:36 *244:49 16.2143 
10 *244:49 *244:61 20.4464 
11 *244:61 *244:67 13.9821 
12 *244:67 *244:69 1.76786 
13 *244:69 *1362:CLK 11.4786 
14 *244:69 *1363:CLK 20.55 
15 *244:67 *1357:CLK 16.4071 
16 *244:61 *1331:CLK 9.3 
17 *244:49 *1330:CLK 9.3 
18 *244:30 *1343:CLK 9.3 
19 *244:22 *244:115 11.5536 
20 *244:115 *1344:CLK 9.3 
21 *244:115 *1341:CLK 17.6393 
22 *244:20 *1345:CLK 9.3 
23 *244:12 *244:136 5.03571 
24 *244:136 *1332:CLK 9.3 
25 *244:136 *1335:CLK 12.7107 
26 *244:10 *1333:CLK 15.1571 
27 *244:4 *244:159 5.46429 
28 *244:159 *244:163 9.48214 
29 *244:163 *1353:CLK 15.9786 
30 *244:163 *1358:CLK 25.0321 
31 *244:159 *1334:CLK 12.3 
*END

*D_NET *245 0.0170022
*CONN
*I *1376:CLK I *D sky130_fd_sc_hd__dfxtp_1
*I *1346:CLK I *D sky130_fd_sc_hd__dfxtp_1
*I *1378:CLK I *D sky130_fd_sc_hd__dfxtp_1
*I *1352:CLK I *D sky130_fd_sc_hd__dfxtp_1
*I *1379:CLK I *D sky130_fd_sc_hd__dfxtp_1
*I *1337:CLK I *D sky130_fd_sc_hd__dfxtp_1
*I *1336:CLK I *D sky130_fd_sc_hd__dfxtp_1
*I *1377:CLK I *D sky130_fd_sc_hd__dfxtp_1
*I *1339:CLK I *D sky130_fd_sc_hd__dfxtp_1
*I *1338:CLK I *D sky130_fd_sc_hd__dfxtp_1
*I *1340:CLK I *D sky130_fd_sc_hd__dfxtp_1
*I *1389:A I *D sky130_fd_sc_hd__clkinvlp_4
*I *1386:X O *D sky130_fd_sc_hd__clkbuf_16
*CAP
1 *1376:CLK 7.91466e-05
2 *1346:CLK 0.000491477
3 *1378:CLK 1.99857e-05
4 *1352:CLK 0.00015849
5 *1379:CLK 2.27214e-05
6 *1337:CLK 2.76349e-05
7 *1336:CLK 0.000164937
8 *1377:CLK 7.69925e-05
9 *1339:CLK 0
10 *1338:CLK 5.12621e-05
11 *1340:CLK 0.000127274
12 *1389:A 0.000629541
13 *1386:X 0
14 *245:127 0.0011931
15 *245:119 0.000956723
16 *245:106 0.000546135
17 *245:75 0.000516844
18 *245:71 0.000933186
19 *245:41 0.000641713
20 *245:37 0.00112297
21 *245:31 0.000892632
22 *245:25 0.00124711
23 *245:19 0.000696773
24 *245:4 0.000629541
25 *1336:CLK *1180:A 0.000106552
26 *1336:CLK *265:8 3.67257e-05
27 *1336:CLK *265:10 3.67142e-05
28 *1337:CLK *325:8 2.89114e-05
29 *1338:CLK *265:20 0.00018372
30 *1340:CLK *265:20 5.52238e-05
31 *1340:CLK *265:33 0.000139097
32 *1346:CLK *1136:A 4.1331e-06
33 *1346:CLK *250:35 8.16036e-05
34 *1352:CLK *330:6 0.000304767
35 *1352:CLK *330:8 0.000188586
36 *1352:CLK *330:23 1.97695e-05
37 *1377:CLK *1320:A 1.74352e-05
38 *1379:CLK *311:10 2.59355e-05
39 *245:25 *1148:A 1.08359e-05
40 *245:25 *1156:A2 0.000112045
41 *245:25 *255:32 2.72545e-05
42 *245:31 *1148:A 0
43 *245:31 *327:32 0
44 *245:41 *270:8 0
45 *245:71 *1159:A_N 0.000843861
46 *245:71 *311:10 6.05161e-06
47 *245:75 *1180:A 2.23987e-05
48 *245:75 *309:19 0
49 *245:106 *255:32 0.000201995
50 *245:119 *330:6 0.000183726
51 *245:127 *255:30 0
52 *245:127 *255:32 0
53 *245:127 *269:57 0
54 *245:127 *269:66 0
55 *1136:C *1346:CLK 0
56 *1147:D1 *245:37 0
57 *1147:D1 *245:41 0
58 *1148:C *245:25 0.00022832
59 *1149:A *245:25 0
60 *1155:B1 *245:25 0.000268396
61 *1155:B1 *245:31 3.17148e-05
62 *1156:B1 *1389:A 1.58163e-05
63 *1156:B1 *245:25 0.000100823
64 *1156:D1 *245:25 1.43e-05
65 *1158:B *1377:CLK 5.71472e-05
66 *1159:B_N *245:71 5.33334e-05
67 *1159:C *245:75 1.19309e-05
68 *1159:D *245:75 7.83366e-05
69 *1180:B *245:75 0.000150618
70 *1183:B *245:41 0.000125731
71 *1185:A *245:41 0
72 *1186:B *245:37 2.00751e-05
73 *1186:B *245:41 5.26091e-05
74 *1205:A2 *1346:CLK 0.000215774
75 *1321:B1 *245:25 0
76 *1322:B *1346:CLK 1.2878e-05
77 *1322:B *245:127 1.32552e-05
78 *1322:C *245:127 9.90367e-05
79 *1323:B *245:75 0.000197977
80 *1338:D *1338:CLK 5.71472e-05
81 *1352:D *1352:CLK 8.95186e-05
82 *1352:D *245:106 0
83 *1377:D *1377:CLK 2.44318e-05
84 *1378:D *1346:CLK 0.000108432
85 *1378:D *1378:CLK 1.04232e-05
86 *1378:D *245:127 2.28598e-05
87 *1385:A *1389:A 9.90367e-05
88 *1386:A *1389:A 0.00022266
89 *1393:A *1336:CLK 0.000104246
90 *1393:A *1379:CLK 1.21258e-05
91 *1393:A *245:71 3.69047e-06
92 *1393:A *245:75 0.000310075
93 *88:57 *245:25 0
94 *102:23 *245:41 0
95 *108:14 *245:37 0
96 *108:25 *245:25 0.00012401
97 *108:40 *245:25 0.000126062
98 *122:12 *245:31 7.58571e-05
*RES
1 *1386:X *245:4 9.3 
2 *245:4 *1389:A 20.1571 
3 *245:4 *245:19 4.5 
4 *245:19 *245:25 15.5179 
5 *245:25 *245:31 11.8571 
6 *245:31 *245:37 15.5 
7 *245:37 *245:41 11.9107 
8 *245:41 *1340:CLK 12.3 
9 *245:41 *1338:CLK 11.0679 
10 *245:37 *1339:CLK 13.8 
11 *245:31 *1377:CLK 11.0679 
12 *245:25 *245:71 12.8571 
13 *245:71 *245:75 14.3393 
14 *245:75 *1336:CLK 18.1214 
15 *245:75 *1337:CLK 14.3357 
16 *245:71 *1379:CLK 9.83571 
17 *245:19 *245:106 9.17857 
18 *245:106 *1352:CLK 14.3714 
19 *245:106 *245:119 3.83929 
20 *245:119 *245:127 19.75 
21 *245:127 *1378:CLK 9.72857 
22 *245:127 *1346:CLK 27.7643 
23 *245:119 *1376:CLK 10.6571 
*END

*D_NET *246 0.0180033
*CONN
*I *1365:CLK I *D sky130_fd_sc_hd__dfxtp_1
*I *1369:CLK I *D sky130_fd_sc_hd__dfxtp_1
*I *1368:CLK I *D sky130_fd_sc_hd__dfxtp_1
*I *1367:CLK I *D sky130_fd_sc_hd__dfxtp_1
*I *1366:CLK I *D sky130_fd_sc_hd__dfxtp_1
*I *1355:CLK I *D sky130_fd_sc_hd__dfxtp_1
*I *1360:CLK I *D sky130_fd_sc_hd__dfxtp_1
*I *1354:CLK I *D sky130_fd_sc_hd__dfxtp_1
*I *1356:CLK I *D sky130_fd_sc_hd__dfxtp_1
*I *1361:CLK I *D sky130_fd_sc_hd__dfxtp_1
*I *1390:A I *D sky130_fd_sc_hd__bufinv_16
*I *1364:CLK I *D sky130_fd_sc_hd__dfxtp_1
*I *1359:CLK I *D sky130_fd_sc_hd__dfxtp_1
*I *1387:X O *D sky130_fd_sc_hd__clkbuf_16
*CAP
1 *1365:CLK 0.000578722
2 *1369:CLK 0.000610444
3 *1368:CLK 0
4 *1367:CLK 0.000354989
5 *1366:CLK 3.21518e-05
6 *1355:CLK 3.74127e-05
7 *1360:CLK 3.03949e-05
8 *1354:CLK 0.000492891
9 *1356:CLK 0
10 *1361:CLK 0.000684794
11 *1390:A 0
12 *1364:CLK 2.89512e-05
13 *1359:CLK 0.00049994
14 *1387:X 0
15 *246:132 0.0011484
16 *246:117 0.00132508
17 *246:99 6.95644e-05
18 *246:97 0.000816103
19 *246:59 0.000740019
20 *246:57 0.0016477
21 *246:53 0.00133117
22 *246:47 0.00121089
23 *246:12 0.000631201
24 *246:10 0.00015126
25 *246:8 0.000691577
26 *246:4 0.000595618
27 *1354:CLK *267:51 0
28 *1359:CLK *1294:C1 0
29 *1359:CLK *266:60 0
30 *1359:CLK *293:36 0
31 *1361:CLK *1313:B 9.46277e-05
32 *1361:CLK *267:51 0
33 *1364:CLK *293:10 2.14083e-05
34 *1365:CLK *1234:A 6.95486e-05
35 *1365:CLK *294:12 0.000163755
36 *1369:CLK *267:14 9.77061e-05
37 *246:12 *266:60 0
38 *246:47 *1234:A 0.000304387
39 *246:47 *1234:B 3.14048e-05
40 *246:47 *304:27 0.00028223
41 *246:57 *1225:A 5.33005e-05
42 *246:57 *1225:B 5.39166e-06
43 *246:59 *267:51 0
44 *246:97 *1269:A 7.68486e-05
45 *246:97 *1272:B1 3.29511e-05
46 *246:117 *1272:B1 0.000302721
47 *246:132 *296:12 0.000101698
48 *1234:C *246:47 4.64386e-05
49 *1251:B *1360:CLK 3.50166e-05
50 *1251:B *246:53 0.000111349
51 *1251:B *246:57 6.95767e-05
52 *1264:A2 *246:8 7.39741e-05
53 *1264:A2 *246:10 0.000165262
54 *1264:A2 *246:12 1.02504e-05
55 *1285:C1 *1359:CLK 0.000299274
56 *1354:D *1354:CLK 0
57 *1356:D *246:57 0.000148913
58 *1359:D *1359:CLK 0.000122792
59 *1367:D *1367:CLK 6.41284e-06
60 *1368:D *1369:CLK 8.95186e-05
61 *1395:A *1369:CLK 3.3052e-05
62 *1422:A *1361:CLK 0.000188336
63 *3:11 *1365:CLK 0
64 *165:18 *1369:CLK 2.51343e-06
65 *167:8 *1359:CLK 5.33978e-05
66 *167:21 *1359:CLK 0.00022042
67 *169:12 *1359:CLK 0.000229456
68 *171:8 *246:12 5.07157e-05
69 *173:14 *1365:CLK 0.000196269
70 *209:10 *1359:CLK 2.31791e-05
71 *209:10 *246:8 8.15095e-05
72 *209:10 *246:10 0.000175512
73 *209:10 *246:12 0.000222878
*RES
1 *1387:X *246:4 9.3 
2 *246:4 *246:8 5.53571 
3 *246:8 *246:10 2.25 
4 *246:10 *246:12 2.85714 
5 *246:12 *1359:CLK 26.0857 
6 *246:12 *1364:CLK 14.3357 
7 *246:10 *1390:A 13.8 
8 *246:8 *246:47 21.8571 
9 *246:47 *246:53 7.5 
10 *246:53 *246:57 17.7679 
11 *246:57 *246:59 1.03571 
12 *246:59 *1361:CLK 26.4607 
13 *246:59 *1356:CLK 13.8 
14 *246:57 *1354:CLK 22.7286 
15 *246:53 *1360:CLK 10.0321 
16 *246:47 *246:97 7.41071 
17 *246:97 *246:99 4.5 
18 *246:99 *1355:CLK 9.83571 
19 *246:99 *1366:CLK 9.83571 
20 *246:97 *246:117 13.7321 
21 *246:117 *1367:CLK 13.4429 
22 *246:117 *246:132 8.78571 
23 *246:132 *1368:CLK 9.3 
24 *246:132 *1369:CLK 19.2107 
25 *246:4 *1365:CLK 28.2107 
*END

*D_NET *247 0.0183017
*CONN
*I *1373:CLK I *D sky130_fd_sc_hd__dfxtp_1
*I *1348:CLK I *D sky130_fd_sc_hd__dfxtp_1
*I *1347:CLK I *D sky130_fd_sc_hd__dfxtp_1
*I *1351:CLK I *D sky130_fd_sc_hd__dfxtp_1
*I *1381:CLK I *D sky130_fd_sc_hd__dfxtp_1
*I *1375:CLK I *D sky130_fd_sc_hd__dfxtp_1
*I *1374:CLK I *D sky130_fd_sc_hd__dfxtp_1
*I *1380:CLK I *D sky130_fd_sc_hd__dfxtp_2
*I *1370:CLK I *D sky130_fd_sc_hd__dfxtp_1
*I *1350:CLK I *D sky130_fd_sc_hd__dfxtp_1
*I *1349:CLK I *D sky130_fd_sc_hd__dfxtp_1
*I *1372:CLK I *D sky130_fd_sc_hd__dfxtp_1
*I *1371:CLK I *D sky130_fd_sc_hd__dfxtp_1
*I *1391:A I *D sky130_fd_sc_hd__clkinv_2
*I *1388:X O *D sky130_fd_sc_hd__clkbuf_16
*CAP
1 *1373:CLK 0
2 *1348:CLK 0.000230787
3 *1347:CLK 8.10348e-05
4 *1351:CLK 0
5 *1381:CLK 0.000265353
6 *1375:CLK 0
7 *1374:CLK 0
8 *1380:CLK 0.000232967
9 *1370:CLK 0
10 *1350:CLK 0.000418328
11 *1349:CLK 0
12 *1372:CLK 0
13 *1371:CLK 0.000233754
14 *1391:A 0.000121895
15 *1388:X 0
16 *247:151 0.000640889
17 *247:138 0.00060569
18 *247:123 0.000792001
19 *247:96 0.000624166
20 *247:88 0.000741592
21 *247:86 0.000600417
22 *247:84 0.000605554
23 *247:55 0.000810813
24 *247:44 0.000498946
25 *247:31 0.000605724
26 *247:27 0.000565715
27 *247:8 0.000669499
28 *247:4 0.000852952
29 *1347:CLK *332:10 0.000108584
30 *1348:CLK *1207:B 0
31 *1350:CLK *1275:B1 5.33005e-05
32 *1350:CLK *298:12 6.05161e-06
33 *1380:CLK *1326:A1 0.000140933
34 *1380:CLK *269:94 0
35 *1380:CLK *337:10 3.93893e-05
36 *1381:CLK *250:50 0
37 *1381:CLK *341:12 6.05161e-06
38 *1391:A *339:56 0
39 *247:8 *1308:A 0.000268396
40 *247:8 *339:8 8.18783e-05
41 *247:8 *339:56 0.000230694
42 *247:8 *340:14 0.000272371
43 *247:27 *339:56 0
44 *247:27 *340:14 0
45 *247:55 *1275:B1 3.17148e-05
46 *247:84 *1279:B1 6.42095e-05
47 *247:84 *1281:A2 1.46576e-05
48 *247:84 *1308:A 0.000129515
49 *247:88 *1382:A 0
50 *247:88 *250:35 0.000145584
51 *247:88 *328:34 0.000193732
52 *247:96 *1402:A 4.18895e-05
53 *247:96 *250:35 7.8327e-05
54 *247:96 *328:8 5.52302e-05
55 *247:96 *328:10 1.52978e-05
56 *247:96 *328:34 6.74911e-05
57 *247:123 *250:50 0
58 *247:123 *341:12 0.000148903
59 *247:138 *250:50 0
60 *247:151 *250:50 0
61 *247:151 *332:10 5.06983e-05
62 *1127:A *247:84 0.000111501
63 *1130:B1 *247:84 8.41815e-05
64 *1130:B1 *247:123 1.08359e-05
65 *1210:B *247:138 0
66 *1219:B2 *1350:CLK 0
67 *1279:A3 *247:84 0.000139913
68 *1281:B2 *247:84 0.000102957
69 *1300:A_N *247:8 0.000186669
70 *1300:A_N *247:84 0.000268396
71 *1328:A2 *1380:CLK 0.000174797
72 *1347:D *1347:CLK 0.00013001
73 *1347:D *247:151 0
74 *1348:D *1348:CLK 0
75 *1349:D *1350:CLK 0.000543375
76 *1350:D *1350:CLK 5.52302e-05
77 *1351:D *247:138 3.79467e-05
78 *1370:D *1391:A 7.49332e-05
79 *1370:D *247:27 0.000209893
80 *1372:D *1371:CLK 0.00014759
81 *1372:D *247:44 7.58664e-05
82 *1372:D *247:55 1.41706e-05
83 *1374:D *247:96 0.000581295
84 *1381:D *1381:CLK 5.95099e-05
85 *1381:D *247:123 0
86 *1387:A *1371:CLK 5.71472e-05
87 *1387:A *247:8 5.52302e-05
88 *1406:A *247:88 6.97972e-05
89 *3:11 *1371:CLK 0
90 *3:11 *247:44 0
91 *3:11 *247:55 0
92 *86:12 *247:151 0
93 *87:12 *247:123 0
94 *87:12 *247:138 0
95 *87:25 *247:88 0
96 *87:25 *247:123 0
97 *87:64 *1380:CLK 2.44318e-05
98 *87:64 *247:96 3.44348e-05
99 *155:16 *1380:CLK 0.000441737
100 *165:18 *1350:CLK 0.00028853
101 *202:25 *247:84 0.000467215
102 *206:12 *247:84 0.000823243
103 *206:12 *247:88 0.000391583
104 *206:12 *247:123 4.56437e-05
105 *243:36 *1391:A 0.000150625
*RES
1 *1388:X *247:4 9.3 
2 *247:4 *247:8 12.8393 
3 *247:8 *1391:A 16.8893 
4 *247:8 *247:27 11.0714 
5 *247:27 *247:31 8.73214 
6 *247:31 *1371:CLK 19.3179 
7 *247:31 *247:44 2.55357 
8 *247:44 *1372:CLK 13.8 
9 *247:44 *247:55 11.9107 
10 *247:55 *1349:CLK 9.3 
11 *247:55 *1350:CLK 29.3179 
12 *247:27 *1370:CLK 9.3 
13 *247:4 *247:84 17.3929 
14 *247:84 *247:86 4.5 
15 *247:86 *247:88 9.83929 
16 *247:88 *247:96 13.875 
17 *247:96 *1380:CLK 25.1929 
18 *247:96 *1374:CLK 9.3 
19 *247:88 *1375:CLK 13.8 
20 *247:86 *247:123 4.83036 
21 *247:123 *1381:CLK 18.4339 
22 *247:123 *247:138 5.4375 
23 *247:138 *1351:CLK 13.8 
24 *247:138 *247:151 10.5357 
25 *247:151 *1347:CLK 11.8893 
26 *247:151 *1348:CLK 22.2107 
27 *247:84 *1373:CLK 9.3 
*END

*D_NET *248 0.000398724
*CONN
*I *1288:A I *D sky130_fd_sc_hd__or2_1
*I *1413:X O *D sky130_fd_sc_hd__clkbuf_1
*CAP
1 *1288:A 0.000147732
2 *1413:X 0.000147732
3 *1288:A *306:12 0.00010326
*RES
1 *1413:X *1288:A 29.8857 
*END

*D_NET *249 0.000224251
*CONN
*I *1288:B I *D sky130_fd_sc_hd__or2_1
*I *1414:X O *D sky130_fd_sc_hd__clkbuf_1
*CAP
1 *1288:B 0.000107
2 *1414:X 0.000107
3 *1288:B *306:12 1.02504e-05
4 *213:10 *1288:B 0
*RES
1 *1414:X *1288:B 29.5464 
*END

*D_NET *250 0.0143495
*CONN
*I *1223:B1 I *D sky130_fd_sc_hd__a2111o_1
*I *1209:B I *D sky130_fd_sc_hd__nor2_1
*I *1208:B I *D sky130_fd_sc_hd__nor2_1
*I *1283:A I *D sky130_fd_sc_hd__nor2_1
*I *1397:A I *D sky130_fd_sc_hd__buf_2
*I *1415:X O *D sky130_fd_sc_hd__clkbuf_2
*CAP
1 *1223:B1 6.32733e-05
2 *1209:B 0
3 *1208:B 6.61554e-06
4 *1283:A 0
5 *1397:A 0
6 *1415:X 0.000408716
7 *250:66 0.00147745
8 *250:50 0.00280095
9 *250:35 0.00311501
10 *250:14 0.00225689
11 *1208:B *334:10 2.44318e-05
12 *1223:B1 *333:10 3.34366e-05
13 *250:14 *269:12 0.000299291
14 *250:35 *1133:B 6.5567e-05
15 *250:35 *1136:A 0
16 *250:35 *1136:B 0
17 *250:35 *1282:A 0
18 *250:35 *1382:A 2.19684e-05
19 *250:35 *1412:A 7.49615e-05
20 *250:35 *1428:A 0
21 *250:35 *1431:A 0
22 *250:35 *310:10 0
23 *250:35 *311:23 0.000207825
24 *250:35 *311:36 0.000192055
25 *250:35 *311:45 7.83587e-05
26 *250:35 *328:10 0
27 *250:50 *1206:A 0
28 *250:50 *1207:B 7.80714e-06
29 *250:50 *341:12 0
30 *250:66 *1220:A2 0
31 *250:66 *1221:A1 3.69697e-05
32 *250:66 *334:10 0.000227532
33 *250:66 *341:56 0
34 *1130:A2 *250:50 0
35 *1136:C *250:35 0
36 *1205:B1 *250:35 0.000260697
37 *1208:A *1208:B 5.71472e-05
38 *1208:A *250:66 0.000118651
39 *1223:C1 *1223:B1 0.000116481
40 *1223:C1 *250:66 9.25014e-06
41 *1283:B *250:35 4.1331e-06
42 *1283:B *250:50 3.42457e-05
43 *1323:B *250:14 6.70215e-05
44 *1329:A2 *250:50 0.000152685
45 *1346:CLK *250:35 8.16036e-05
46 *1346:D *250:35 0.00010326
47 *1347:D *250:50 0.000212831
48 *1374:D *250:35 0.000150618
49 *1379:D *250:14 0.000101545
50 *1381:CLK *250:50 0
51 *1381:D *250:50 5.56943e-05
52 *1393:A *250:14 6.8646e-06
53 *1424:A *250:35 0
54 *79:21 *1223:B1 0
55 *79:21 *250:66 0
56 *80:55 *250:66 7.85792e-05
57 *86:12 *250:50 0.000614039
58 *87:31 *250:35 0.000314799
59 *87:33 *250:35 0.00014279
60 *110:10 *250:14 2.8266e-06
61 *110:10 *250:35 4.06782e-05
62 *155:16 *250:35 0
63 *155:16 *250:50 0
64 *247:88 *250:35 0.000145584
65 *247:96 *250:35 7.8327e-05
66 *247:123 *250:50 0
67 *247:138 *250:50 0
68 *247:151 *250:50 0
*RES
1 *1415:X *250:14 22.55 
2 *250:14 *1397:A 13.8 
3 *250:14 *250:35 45.4107 
4 *250:35 *1283:A 13.8 
5 *250:35 *250:50 32.9107 
6 *250:50 *250:66 34.4643 
7 *250:66 *1208:B 9.83571 
8 *250:66 *1209:B 9.3 
9 *250:50 *1223:B1 15.4429 
*END

*D_NET *251 0.000465971
*CONN
*I *1313:A I *D sky130_fd_sc_hd__or4_1
*I *1416:X O *D sky130_fd_sc_hd__clkbuf_1
*CAP
1 *1313:A 0.000129283
2 *1416:X 0.000129283
3 *1313:A *1313:B 1.41029e-05
4 *1313:A *1313:C 0.000129868
5 *1313:D *1313:A 1.00375e-05
6 *1361:D *1313:A 0
7 *236:18 *1313:A 5.33978e-05
*RES
1 *1416:X *1313:A 30.7964 
*END

*D_NET *252 0.00147859
*CONN
*I *1318:A2 I *D sky130_fd_sc_hd__o21a_1
*I *1417:X O *D sky130_fd_sc_hd__clkbuf_1
*CAP
1 *1318:A2 0.00036924
2 *1417:X 0.00036924
3 *1318:A2 *1318:A1 0.000460391
4 *1318:A2 *1434:A 0
5 *1318:A2 *254:12 3.05446e-05
6 *1417:A *1318:A2 0.000157176
7 *1420:A *1318:A2 6.57026e-05
8 *1427:A *1318:A2 2.62984e-05
9 *87:31 *1318:A2 0
*RES
1 *1417:X *1318:A2 36.8679 
*END

*D_NET *253 0.00452274
*CONN
*I *1146:A I *D sky130_fd_sc_hd__nand2_1
*I *1156:A1 I *D sky130_fd_sc_hd__a2111o_1
*I *1418:X O *D sky130_fd_sc_hd__buf_1
*CAP
1 *1146:A 5.05464e-05
2 *1156:A1 0.000318926
3 *1418:X 0.00143744
4 *253:14 0.00180691
5 *1146:A *269:53 3.5626e-05
6 *1156:A1 *269:53 0.000140608
7 *1144:B *1156:A1 0.000139913
8 *1144:C *1156:A1 4.9088e-05
9 *1150:B *1156:A1 2.8266e-06
10 *1321:B1 *1156:A1 0.000350136
11 *1418:A *253:14 1.01912e-05
12 *88:57 *253:14 6.47594e-05
13 *104:14 *1156:A1 3.25477e-05
14 *111:8 *1146:A 2.59355e-05
15 *111:10 *1146:A 1.31511e-05
16 *111:10 *1156:A1 4.41381e-05
*RES
1 *1418:X *253:14 23.8265 
2 *253:14 *1156:A1 21.3804 
3 *253:14 *1146:A 14.9161 
*END

*D_NET *254 0.00623637
*CONN
*I *1327:A1 I *D sky130_fd_sc_hd__o211ai_1
*I *1291:A I *D sky130_fd_sc_hd__nor2_1
*I *1309:A2 I *D sky130_fd_sc_hd__o311a_1
*I *1304:C I *D sky130_fd_sc_hd__or4_1
*I *1419:X O *D sky130_fd_sc_hd__buf_1
*CAP
1 *1327:A1 0.000150585
2 *1291:A 5.13195e-05
3 *1309:A2 0.000123751
4 *1304:C 5.97936e-05
5 *1419:X 0.00109446
6 *254:27 0.000377674
7 *254:14 0.000438911
8 *254:12 0.00142156
9 *1304:C *1324:A 4.72818e-05
10 *254:12 *337:10 0.000171719
11 *254:14 *1324:A 0.000142053
12 *254:27 *1304:A 0
13 *1304:D *1304:C 5.33005e-05
14 *1305:A3 *254:27 0
15 *1309:C1 *1309:A2 9.60875e-05
16 *1314:A *254:27 5.41794e-05
17 *1318:A2 *254:12 3.05446e-05
18 *1318:B1 *254:12 0.000273269
19 *1325:B1 *1327:A1 0.00010096
20 *1325:B2 *1327:A1 0.000417768
21 *1327:B1 *1327:A1 0.000100831
22 *1327:C1 *1309:A2 9.31893e-05
23 *1327:C1 *1327:A1 1.97695e-05
24 *1328:A2 *1327:A1 1.98839e-05
25 *1380:D *254:12 0.000103323
26 *91:10 *1291:A 0.000191163
27 *91:10 *1327:A1 0
28 *91:10 *254:27 0.00038013
29 *231:10 *1291:A 0.000200413
30 *231:10 *254:27 2.24646e-05
*RES
1 *1419:X *254:12 28.4786 
2 *254:12 *254:14 3.82143 
3 *254:14 *1304:C 10.6571 
4 *254:14 *254:27 9.91071 
5 *254:27 *1309:A2 16.3893 
6 *254:27 *1291:A 16.3536 
7 *254:12 *1327:A1 24.3536 
*END

*D_NET *255 0.00743502
*CONN
*I *1383:A I *D sky130_fd_sc_hd__clkbuf_1
*I *1428:A I *D sky130_fd_sc_hd__buf_2
*I *1146:B I *D sky130_fd_sc_hd__nand2_1
*I *1156:A2 I *D sky130_fd_sc_hd__a2111o_1
*I *1293:B1 I *D sky130_fd_sc_hd__o21a_1
*I *1287:A2 I *D sky130_fd_sc_hd__a41o_1
*I *1124:Y O *D sky130_fd_sc_hd__inv_2
*CAP
1 *1383:A 0
2 *1428:A 0.00028637
3 *1146:B 0.000175077
4 *1156:A2 0.000131972
5 *1293:B1 2.23854e-05
6 *1287:A2 0.000259404
7 *1124:Y 0
8 *255:54 0.00112661
9 *255:32 0.000630107
10 *255:30 0.00141103
11 *255:10 0.000765159
12 *255:4 0.000731107
13 *255:10 *1115:A 0.000219765
14 *255:10 *1213:B1 9.90367e-05
15 *255:30 *330:58 0
16 *255:32 *269:53 0
17 *255:32 *330:58 0
18 *255:54 *288:12 0.000705713
19 unlock_enable *1428:A 0
20 *1124:A *255:10 4.88637e-05
21 *1149:A *1156:A2 0
22 *1149:A *255:32 0
23 *1156:B1 *1146:B 8.02593e-05
24 *1213:A2 *255:10 5.23057e-05
25 *1287:A1 *1287:A2 5.33433e-05
26 *1293:A1 *1287:A2 4.43256e-05
27 *1293:A1 *255:10 7.61932e-05
28 *1321:B1 *1156:A2 1.78536e-05
29 *1376:D *255:32 0
30 *156:10 *255:10 5.62203e-05
31 *212:6 *1287:A2 0.000100625
32 *245:25 *1156:A2 0.000112045
33 *245:25 *255:32 2.72545e-05
34 *245:106 *255:32 0.000201995
35 *245:127 *255:30 0
36 *245:127 *255:32 0
37 *250:35 *1428:A 0
*RES
1 *1124:Y *255:4 9.3 
2 *255:4 *255:10 8.48214 
3 *255:10 *1287:A2 13.9607 
4 *255:10 *1293:B1 9.72857 
5 *255:4 *255:30 8.875 
6 *255:30 *255:32 7.10714 
7 *255:32 *1156:A2 16.6571 
8 *255:32 *1146:B 16.8 
9 *255:30 *255:54 22.2857 
10 *255:54 *1428:A 23.1393 
11 *255:54 *1383:A 9.3 
*END

*D_NET *256 0.0014136
*CONN
*I *1429:A I *D sky130_fd_sc_hd__buf_2
*I *1405:A I *D sky130_fd_sc_hd__dlygate4sd3_1
*I *1373:Q O *D sky130_fd_sc_hd__dfxtp_1
*CAP
1 *1429:A 0.000249121
2 *1405:A 7.00239e-05
3 *1373:Q 0.000168438
4 *256:10 0.000487583
5 fsm_error *1429:A 7.71227e-05
6 safe_led *1429:A 0.000211059
7 safe_led *256:10 0.000150257
*RES
1 *1373:Q *256:10 16.6929 
2 *256:10 *1405:A 14.7464 
3 *256:10 *1429:A 18.7643 
*END

*D_NET *257 0.00059185
*CONN
*I *1430:A I *D sky130_fd_sc_hd__buf_2
*I *1398:A I *D sky130_fd_sc_hd__dlygate4sd3_1
*I *1346:Q O *D sky130_fd_sc_hd__dfxtp_1
*CAP
1 *1430:A 0.000102837
2 *1398:A 0.000177324
3 *1346:Q 0
4 *257:6 0.000280161
5 group_error *1430:A 3.15282e-05
*RES
1 *1346:Q *257:6 13.8 
2 *257:6 *1398:A 16.9607 
3 *257:6 *1430:A 15.7464 
*END

*D_NET *258 0.000400884
*CONN
*I *1431:A I *D sky130_fd_sc_hd__buf_2
*I *1126:Y O *D sky130_fd_sc_hd__inv_2
*CAP
1 *1431:A 0.000183508
2 *1126:Y 0.000183508
3 group_suspended *1431:A 3.38674e-05
4 *250:35 *1431:A 0
*RES
1 *1126:Y *1431:A 30.1893 
*END

*D_NET *259 0.00794856
*CONN
*I *1290:B I *D sky130_fd_sc_hd__nor2_1
*I *1309:A1 I *D sky130_fd_sc_hd__o311a_1
*I *1326:A2 I *D sky130_fd_sc_hd__o211ai_1
*I *1304:B I *D sky130_fd_sc_hd__or4_1
*I *1325:A2_N I *D sky130_fd_sc_hd__a2bb2o_1
*I *1420:X O *D sky130_fd_sc_hd__buf_1
*CAP
1 *1290:B 0
2 *1309:A1 2.9238e-05
3 *1326:A2 0
4 *1304:B 6.15619e-05
5 *1325:A2_N 0.00010141
6 *1420:X 0.00101952
7 *259:39 0.00025412
8 *259:31 0.000571053
9 *259:25 0.000683962
10 *259:8 0.00145564
11 *1325:A2_N *269:94 0.000184626
12 *1325:A2_N *337:21 1.02504e-05
13 *1325:A2_N *337:34 0.000346639
14 *259:8 *1316:A1 1.39841e-05
15 *259:8 *1316:A2 2.80449e-05
16 *259:25 *269:94 4.02462e-05
17 *259:25 *337:34 7.05447e-05
18 *259:31 *1301:B2 0
19 *1283:B *259:8 3.18676e-05
20 *1290:A *259:25 0.000271339
21 *1292:A2 *259:31 0.000219843
22 *1292:A2 *259:39 0.000146474
23 *1302:A1 *259:31 0
24 *1302:A1 *259:39 0
25 *1302:B1 *259:31 2.59093e-05
26 *1309:B1 *1304:B 0.000149904
27 *1310:B1 *259:31 0.000123126
28 *1316:A3 *259:8 0.000271345
29 *1326:B1 *259:39 2.44318e-05
30 *1326:C1 *259:39 9.80173e-05
31 *1327:B1 *259:39 0.00014183
32 *1327:C1 *1309:A1 5.33005e-05
33 *91:10 *1304:B 7.73662e-05
34 *91:10 *259:31 0
35 *155:16 *259:39 2.60984e-05
36 *208:6 *259:8 0.000703595
37 *208:6 *259:25 0.000200399
38 *208:6 *259:31 0.00044366
39 *215:10 *259:31 0
40 *225:10 *259:31 6.92175e-05
*RES
1 *1420:X *259:8 27.4786 
2 *259:8 *1325:A2_N 18.175 
3 *259:8 *259:25 12.25 
4 *259:25 *259:31 13.7143 
5 *259:31 *259:39 9.05357 
6 *259:39 *1304:B 20.2464 
7 *259:39 *1326:A2 9.3 
8 *259:31 *1309:A1 14.3357 
9 *259:25 *1290:B 9.3 
*END

*D_NET *260 0.00663847
*CONN
*I *1297:B I *D sky130_fd_sc_hd__nor2_1
*I *1215:A1 I *D sky130_fd_sc_hd__o21a_1
*I *1216:A1 I *D sky130_fd_sc_hd__o21ai_1
*I *1154:B1 I *D sky130_fd_sc_hd__o41ai_1
*I *1432:A I *D sky130_fd_sc_hd__buf_2
*I *1120:Y O *D sky130_fd_sc_hd__inv_2
*CAP
1 *1297:B 0.000303384
2 *1215:A1 4.54856e-05
3 *1216:A1 0
4 *1154:B1 1.645e-05
5 *1432:A 0.00107622
6 *1120:Y 0
7 *260:47 0.000405536
8 *260:38 0.000552342
9 *260:10 0.0012161
10 *260:4 0.000619106
11 *1215:A1 *288:12 5.33433e-05
12 *1297:B *330:58 0
13 *1432:A *270:8 0.000587782
14 *1432:A *289:8 0
15 *260:10 *1287:B1 0
16 *260:10 *270:8 4.46186e-06
17 *260:10 *270:19 2.16719e-05
18 *260:10 *270:38 3.72961e-05
19 *260:38 *270:38 2.8266e-06
20 *260:38 *330:31 6.72808e-05
21 *260:47 *1215:B1 0.000128154
22 *260:47 *330:58 0
23 *1153:C *1154:B1 9.90367e-05
24 *1153:D *1154:B1 9.90367e-05
25 *1187:A1 *1432:A 0
26 *1215:A2 *260:38 1.02504e-05
27 *1215:A2 *260:47 0.000177227
28 *1217:B1 *260:38 0.000220455
29 *1217:B1 *260:47 1.24469e-05
30 *1218:A1 *260:38 0.000136197
31 *1352:D *260:38 0
32 *1421:A *1432:A 2.89114e-05
33 *1425:A *1432:A 2.89114e-05
34 *103:25 *1432:A 0
35 *104:14 *260:10 5.33005e-05
36 *104:14 *260:38 0.000181796
37 *117:10 *1432:A 0
38 *133:92 *1432:A 0.000175512
39 *156:10 *1297:B 8.66228e-05
40 *156:10 *260:47 2.94501e-05
41 *222:10 *1297:B 0.000161868
*RES
1 *1120:Y *260:4 9.3 
2 *260:4 *260:10 6.67857 
3 *260:10 *1432:A 35.9964 
4 *260:10 *1154:B1 14.7464 
5 *260:4 *260:38 14.5893 
6 *260:38 *1216:A1 13.8 
7 *260:38 *260:47 2.55357 
8 *260:47 *1215:A1 14.7464 
9 *260:47 *1297:B 19.8893 
*END

*D_NET *261 0.00263725
*CONN
*I *1433:A I *D sky130_fd_sc_hd__buf_2
*I *1382:A I *D sky130_fd_sc_hd__clkbuf_1
*I *1130:Y O *D sky130_fd_sc_hd__o21ai_1
*CAP
1 *1433:A 0.000519699
2 *1382:A 0.000201687
3 *1130:Y 0.000189358
4 *261:6 0.000910744
5 *1433:A *1210:A 0
6 *1433:A *1316:A2 0
7 *1433:A *1373:D 3.5707e-05
8 *1433:A *1434:A 0.000227532
9 fsm_error *1433:A 5.98769e-05
10 safe_led *1433:A 0
11 security_breach *1433:A 4.1331e-06
12 *1130:B1 *261:6 6.05161e-06
13 *1406:A *1382:A 4.57445e-05
14 *87:12 *1433:A 0
15 *87:25 *1382:A 0.00023995
16 *87:25 *1433:A 0
17 *87:31 *1382:A 0.000174797
18 *247:88 *1382:A 0
19 *250:35 *1382:A 2.19684e-05
*RES
1 *1130:Y *261:6 11.8893 
2 *261:6 *1382:A 23.5857 
3 *261:6 *1433:A 28.2286 
*END

*D_NET *262 0.00119766
*CONN
*I *1434:A I *D sky130_fd_sc_hd__buf_2
*I *1382:X O *D sky130_fd_sc_hd__clkbuf_1
*CAP
1 *1434:A 0.000219715
2 *1382:X 0.000219715
3 *1434:A *1316:A2 0.000176234
4 *1318:A2 *1434:A 0
5 *1420:A *1434:A 0
6 *1433:A *1434:A 0.000227532
7 *87:25 *1434:A 0.000227021
8 *87:31 *1434:A 0.000127439
*RES
1 *1382:X *1434:A 34.1536 
*END

*D_NET *263 0.000308285
*CONN
*I *1435:A I *D sky130_fd_sc_hd__buf_2
*I *1383:X O *D sky130_fd_sc_hd__clkbuf_1
*CAP
1 *1435:A 0.000138209
2 *1383:X 0.000138209
3 *1435:A *288:12 3.18676e-05
*RES
1 *1383:X *1435:A 21.225 
*END

*D_NET *264 0.0129359
*CONN
*I *1175:C I *D sky130_fd_sc_hd__and3b_1
*I *1192:C1 I *D sky130_fd_sc_hd__o211a_1
*I *1204:A I *D sky130_fd_sc_hd__and3_1
*I *1201:C I *D sky130_fd_sc_hd__and3b_1
*I *1169:C I *D sky130_fd_sc_hd__and3b_1
*I *1166:A I *D sky130_fd_sc_hd__and3_1
*I *1163:A I *D sky130_fd_sc_hd__and3_1
*I *1160:B I *D sky130_fd_sc_hd__and2b_1
*I *1195:A I *D sky130_fd_sc_hd__and3_1
*I *1198:C I *D sky130_fd_sc_hd__and3b_1
*I *1392:X O *D sky130_fd_sc_hd__clkbuf_2
*CAP
1 *1175:C 0.000172884
2 *1192:C1 0.000312429
3 *1204:A 0
4 *1201:C 0.000837425
5 *1169:C 0.000371307
6 *1166:A 3.31558e-05
7 *1163:A 0.000359229
8 *1160:B 0.000100917
9 *1195:A 5.71601e-05
10 *1198:C 0.000624061
11 *1392:X 0.000105746
12 *264:90 0.000905306
13 *264:88 0.000618226
14 *264:86 0.00074587
15 *264:38 0.000744828
16 *264:16 0.000819722
17 *264:14 0.000909704
18 *264:10 0.000561826
19 *264:8 0.000706855
20 *264:6 0.000734215
21 *1163:A *312:10 0
22 *1163:A *312:71 0.000230482
23 *1166:A *320:19 1.17091e-05
24 *1169:C *1168:A1 3.80904e-05
25 *1169:C *319:10 1.19402e-05
26 *1169:C *319:12 5.25915e-05
27 *1169:C *319:16 4.35048e-05
28 *1192:C1 *1202:A 0.000265352
29 *1192:C1 *318:23 3.48705e-05
30 *1195:A *315:8 0.000184745
31 *1195:A *315:45 5.52302e-05
32 *1198:C *1196:B 0
33 *1198:C *315:14 0
34 *264:14 *1164:B 0.000142427
35 *264:14 *1165:A1 1.16111e-05
36 *264:14 *312:29 0.000228514
37 *264:14 *320:19 7.09928e-05
38 *264:16 *1404:A 0
39 *264:38 *312:10 0
40 *264:86 *1392:A 0
41 *264:88 *318:23 0
42 *1166:B *264:10 5.62995e-05
43 *1166:B *264:14 0.000190749
44 *1166:C *264:10 3.79027e-05
45 *1166:C *264:14 2.27416e-05
46 *1169:B *1169:C 0.000265385
47 *1175:B *264:86 0
48 *1192:A2 *1192:C1 9.7049e-06
49 *1192:B1 *1192:C1 6.20656e-05
50 *1195:C *1195:A 0.00010858
51 *1198:A_N *1198:C 0
52 *1198:B *1198:C 0.000168184
53 *1201:A_N *1201:C 0.000118887
54 *1204:B *1201:C 5.89612e-05
55 *1204:B *264:90 7.33494e-06
56 *1204:C *264:88 0.000165262
57 *1204:C *264:90 0.00010326
58 *1330:D *1163:A 0
59 *1333:D *1169:C 0.000128161
60 *1335:D *264:86 0
61 *1342:D *1195:A 5.52302e-05
62 *106:10 *1175:C 0.000274294
63 *144:29 *1198:C 0
64 *148:8 *1198:C 0
65 *244:10 *1169:C 0
66 *244:12 *1169:C 0
67 *244:12 *264:86 0
68 *244:20 *264:86 0
69 *244:20 *264:88 0
*RES
1 *1392:X *264:6 11.0679 
2 *264:6 *264:8 4.64286 
3 *264:8 *264:10 1.35714 
4 *264:10 *264:14 15.3036 
5 *264:14 *264:16 2.25 
6 *264:16 *1198:C 24.6929 
7 *264:16 *1195:A 15.9786 
8 *264:14 *264:38 5.13393 
9 *264:38 *1160:B 15.5589 
10 *264:38 *1163:A 20.3268 
11 *264:10 *1166:A 10.0321 
12 *264:8 *1169:C 26.55 
13 *264:6 *264:86 10.3929 
14 *264:86 *264:88 4.67857 
15 *264:88 *264:90 1.64286 
16 *264:90 *1201:C 27.9071 
17 *264:90 *1204:A 13.8 
18 *264:88 *1192:C1 20.1036 
19 *264:86 *1175:C 16.3893 
*END

*D_NET *265 0.013809
*CONN
*I *1180:A I *D sky130_fd_sc_hd__and2_1
*I *1178:A I *D sky130_fd_sc_hd__and3_1
*I *1172:A I *D sky130_fd_sc_hd__and3_1
*I *1392:A I *D sky130_fd_sc_hd__clkbuf_2
*I *1186:A I *D sky130_fd_sc_hd__and3_1
*I *1189:B I *D sky130_fd_sc_hd__and3b_1
*I *1183:A I *D sky130_fd_sc_hd__and3_1
*I *1393:X O *D sky130_fd_sc_hd__dlymetal6s2s_1
*CAP
1 *1180:A 0.000370392
2 *1178:A 9.92509e-05
3 *1172:A 2.03441e-05
4 *1392:A 0.000385081
5 *1186:A 0.000332512
6 *1189:B 0
7 *1183:A 0
8 *1393:X 0.000276094
9 *265:57 0.00115804
10 *265:42 0.0011824
11 *265:33 0.000727723
12 *265:20 0.00155229
13 *265:10 0.00140521
14 *265:8 0.00103061
15 *1172:A *321:10 5.7661e-06
16 *1392:A *321:10 0.000186669
17 *1392:A *321:36 4.58976e-05
18 *265:20 *324:8 0.00014183
19 *265:20 *324:14 0.000156917
20 *265:33 *313:19 0.000131123
21 *265:33 *313:30 7.22594e-05
22 *265:42 *313:30 0.000153047
23 *265:42 *313:41 0.00013966
24 *265:57 *1152:B1 0.000379596
25 *265:57 *1287:B1 0
26 *265:57 *313:41 3.34366e-05
27 *265:57 *321:36 0.000321285
28 *265:57 *322:10 9.24395e-05
29 *265:57 *322:14 0.000109809
30 *1139:B1 *265:57 6.8646e-06
31 *1142:A *265:57 0.000153047
32 *1172:B *265:57 5.41609e-05
33 *1172:C *265:57 1.95435e-05
34 *1176:B *265:20 1.32552e-05
35 *1178:B *1178:A 2.34204e-05
36 *1178:C *1178:A 0
37 *1180:B *1180:A 0.000266137
38 *1183:C *265:20 0.000394185
39 *1188:B *265:33 7.49332e-05
40 *1188:B *265:42 3.87848e-05
41 *1336:CLK *1180:A 0.000106552
42 *1336:CLK *265:8 3.67257e-05
43 *1336:CLK *265:10 3.67142e-05
44 *1336:D *1178:A 0.000101545
45 *1336:D *265:10 0.000108172
46 *1338:CLK *265:20 0.00018372
47 *1338:D *265:20 0.000108432
48 *1340:CLK *265:20 5.52238e-05
49 *1340:CLK *265:33 0.000139097
50 *1340:D *265:33 0.000275638
51 *103:51 *265:57 5.53312e-05
52 *104:14 *265:57 5.56943e-05
53 *105:10 *265:42 0.000171375
54 *105:10 *265:57 9.64387e-05
55 *107:12 *265:57 9.88136e-05
56 *108:14 *1186:A 0.000123356
57 *129:21 *1392:A 0.000103004
58 *129:21 *265:57 3.69047e-06
59 *129:25 *1392:A 0
60 *133:56 *265:20 0.000373058
61 *245:75 *1180:A 2.23987e-05
62 *264:86 *1392:A 0
*RES
1 *1393:X *265:8 13.0321 
2 *265:8 *265:10 5.05357 
3 *265:10 *265:20 17.8571 
4 *265:20 *1183:A 9.3 
5 *265:20 *265:33 14.5893 
6 *265:33 *1189:B 13.8 
7 *265:33 *265:42 3.76786 
8 *265:42 *1186:A 19.2643 
9 *265:42 *265:57 24.2143 
10 *265:57 *1392:A 26.4071 
11 *265:57 *1172:A 9.72857 
12 *265:10 *1178:A 20.55 
13 *265:8 *1180:A 25.6571 
*END

*D_NET *266 0.0180241
*CONN
*I *1266:B1 I *D sky130_fd_sc_hd__a21oi_1
*I *1264:B1 I *D sky130_fd_sc_hd__a21oi_1
*I *1250:B1 I *D sky130_fd_sc_hd__a21oi_1
*I *1260:B1 I *D sky130_fd_sc_hd__a21oi_1
*I *1256:B1 I *D sky130_fd_sc_hd__a21oi_1
*I *1258:B1 I *D sky130_fd_sc_hd__a21oi_1
*I *1245:B1 I *D sky130_fd_sc_hd__a21oi_1
*I *1247:B1 I *D sky130_fd_sc_hd__a21oi_1
*I *1272:B1 I *D sky130_fd_sc_hd__a21oi_1
*I *1269:A I *D sky130_fd_sc_hd__nor2_1
*I *1394:X O *D sky130_fd_sc_hd__buf_2
*CAP
1 *1266:B1 0.000147586
2 *1264:B1 6.3223e-05
3 *1250:B1 2.09069e-05
4 *1260:B1 0
5 *1256:B1 0.000459825
6 *1258:B1 0
7 *1245:B1 0
8 *1247:B1 0.000584432
9 *1272:B1 0.000408471
10 *1269:A 8.55721e-05
11 *1394:X 4.01746e-05
12 *266:96 0.00106419
13 *266:90 0.000863025
14 *266:66 0.000677753
15 *266:62 0.00069774
16 *266:60 0.00107314
17 *266:50 0.00106938
18 *266:24 0.0013064
19 *266:16 0.00168764
20 *266:6 0.000763362
21 *1247:B1 *1247:A1 0.00101847
22 *1250:B1 *268:44 5.52302e-05
23 *1256:B1 *1256:A1 7.32955e-05
24 *1256:B1 *1258:A1 6.8646e-06
25 *1256:B1 *268:83 0.000104267
26 *1256:B1 *306:29 5.33005e-05
27 *1256:B1 *306:37 0
28 *1266:B1 *294:6 2.77258e-05
29 *1269:A *267:27 5.65955e-05
30 *1272:B1 *1272:A1 0.000226412
31 *266:16 *1231:C 0.000174515
32 *266:16 *1235:A 1.92905e-05
33 *266:16 *1266:A1 7.90803e-05
34 *266:16 *295:32 5.19842e-06
35 *266:24 *1235:A 3.32631e-05
36 *266:24 *295:21 0.000265833
37 *266:50 *1234:B 0.000237521
38 *266:50 *267:27 9.01334e-05
39 *266:60 *1234:B 1.02504e-05
40 *266:60 *268:33 0.000100831
41 *266:60 *268:44 1.52978e-05
42 *266:60 *293:25 0.000390568
43 *266:60 *293:56 0.000175512
44 *266:62 *268:44 0.000284166
45 *266:62 *268:48 5.7616e-05
46 *266:66 *268:48 8.15939e-05
47 *266:90 *268:68 0.000107925
48 *266:96 *1259:A 4.88637e-05
49 *266:96 *306:29 0.000195455
50 *1230:D *266:60 0.000320031
51 *1231:D *266:50 3.84385e-05
52 *1233:D *266:60 0
53 *1250:A2 *266:60 8.2958e-06
54 *1250:A2 *266:62 5.80706e-06
55 *1252:A1 *1264:B1 6.05161e-06
56 *1252:A1 *266:50 3.17163e-05
57 *1252:A1 *266:60 7.92879e-05
58 *1255:A_N *1256:B1 9.90367e-05
59 *1255:B *1256:B1 2.8305e-05
60 *1256:A2 *1256:B1 5.71472e-05
61 *1257:B *266:96 3.11831e-05
62 *1258:A2 *266:96 0
63 *1259:C *266:96 4.66913e-05
64 *1261:A2 *266:96 4.10843e-05
65 *1263:B *266:50 7.4826e-05
66 *1266:A2 *266:16 7.90803e-05
67 *1268:A1 *266:24 8.27184e-06
68 *1272:A2 *1272:B1 0.000183022
69 *1314:C *266:60 0.000570226
70 *1359:CLK *266:60 0
71 *1359:D *1250:B1 1.33343e-05
72 *1362:D *1256:B1 7.83659e-05
73 *1364:D *1264:B1 3.69047e-06
74 *1365:D *1266:B1 0.000109556
75 *1366:D *1269:A 2.71803e-05
76 *1366:D *1272:B1 3.91783e-05
77 *1366:D *266:24 2.50499e-05
78 *1394:A *266:6 7.43578e-06
79 *3:11 *1266:B1 0
80 *167:21 *266:60 0
81 *169:12 *266:60 5.41794e-05
82 *171:8 *266:50 0.000119276
83 *171:19 *266:50 6.98669e-05
84 *173:14 *1266:B1 0.000118195
85 *173:14 *266:16 4.06782e-05
86 *175:8 *266:50 0
87 *187:20 *266:90 5.12608e-05
88 *187:20 *266:96 2.13805e-05
89 *191:12 *266:96 3.08664e-05
90 *209:10 *266:16 4.06782e-05
91 *236:18 *1256:B1 4.50208e-05
92 *246:12 *266:60 0
93 *246:97 *1269:A 7.68486e-05
94 *246:97 *1272:B1 3.29511e-05
95 *246:117 *1272:B1 0.000302721
*RES
1 *1394:X *266:6 9.83571 
2 *266:6 *266:16 17.5536 
3 *266:16 *266:24 14.4732 
4 *266:24 *1269:A 16.1304 
5 *266:24 *1272:B1 24.6661 
6 *266:16 *266:50 13.4286 
7 *266:50 *266:60 24.4286 
8 *266:60 *266:62 8.01786 
9 *266:62 *266:66 6.44643 
10 *266:66 *1247:B1 21.8179 
11 *266:66 *1245:B1 9.3 
12 *266:62 *266:90 9.14286 
13 *266:90 *266:96 8.78571 
14 *266:96 *1258:B1 9.3 
15 *266:96 *1256:B1 28.05 
16 *266:90 *1260:B1 9.3 
17 *266:60 *1250:B1 14.3357 
18 *266:50 *1264:B1 14.7464 
19 *266:6 *1266:B1 21.55 
*END

*D_NET *267 0.0106359
*CONN
*I *1276:A I *D sky130_fd_sc_hd__nor2_1
*I *1241:A I *D sky130_fd_sc_hd__nor2_1
*I *1252:B1 I *D sky130_fd_sc_hd__a21oi_1
*I *1236:B1 I *D sky130_fd_sc_hd__a21oi_1
*I *1238:B1 I *D sky130_fd_sc_hd__a21oi_1
*I *1273:B1 I *D sky130_fd_sc_hd__a41o_1
*I *1395:X O *D sky130_fd_sc_hd__clkbuf_2
*CAP
1 *1276:A 0.000285935
2 *1241:A 0
3 *1252:B1 0.000664806
4 *1236:B1 0
5 *1238:B1 0
6 *1273:B1 0
7 *1395:X 0
8 *267:51 0.00122223
9 *267:38 0.00101354
10 *267:27 0.00126269
11 *267:14 0.0011565
12 *267:4 0.000635859
13 *1252:B1 *1240:B1 0.000186662
14 *1276:A *297:14 5.66647e-05
15 *1276:A *297:38 6.74911e-05
16 *267:14 *1284:A 4.46186e-06
17 *267:14 *297:14 0
18 *267:14 *297:42 0
19 *267:27 *1231:A 9.24299e-05
20 *267:27 *1272:A1 1.92789e-05
21 *267:27 *1284:B 9.96238e-05
22 *267:27 *268:10 8.68655e-05
23 *267:27 *296:27 0
24 *267:27 *296:33 0
25 *267:27 *297:42 4.038e-06
26 *267:38 *1236:A1 1.32552e-05
27 *267:38 *1407:A 0.000142856
28 *267:51 *1239:B1 0
29 *267:51 *292:10 0
30 *267:51 *292:18 0
31 *1231:D *267:27 0
32 *1235:B *267:27 7.41547e-05
33 *1236:A2 *267:38 0.000154225
34 *1240:A1 *1252:B1 4.43256e-05
35 *1240:A2 *267:51 0
36 *1241:B *1252:B1 0.000144773
37 *1252:A1 *1252:B1 0.000100262
38 *1252:A2 *1252:B1 0.000143652
39 *1267:B *267:27 9.90367e-05
40 *1268:A1 *267:27 0
41 *1268:A2 *267:27 0.000105163
42 *1269:A *267:27 5.65955e-05
43 *1269:B *267:27 0.000187465
44 *1271:A *267:14 5.33005e-05
45 *1273:A1 *267:14 0.000310292
46 *1274:A2 *267:27 3.17148e-05
47 *1276:B *1276:A 0
48 *1354:CLK *267:51 0
49 *1356:D *267:51 8.15939e-05
50 *1361:CLK *267:51 0
51 *1366:D *267:27 1.13883e-05
52 *1369:CLK *267:14 9.77061e-05
53 *1369:D *1276:A 0
54 *172:10 *267:27 0
55 *172:12 *267:14 0.000271352
56 *173:14 *267:14 0
57 *173:20 *267:27 0.00153139
58 *173:20 *267:38 2.24763e-05
59 *175:8 *267:27 9.69119e-06
60 *176:25 *267:27 0
61 *246:59 *267:51 0
62 *266:50 *267:27 9.01334e-05
*RES
1 *1395:X *267:4 9.3 
2 *267:4 *267:14 16.8393 
3 *267:14 *1273:B1 9.3 
4 *267:14 *267:27 33.6429 
5 *267:27 *1238:B1 9.3 
6 *267:27 *267:38 8.875 
7 *267:38 *1236:B1 9.3 
8 *267:38 *267:51 19.375 
9 *267:51 *1252:B1 21.3536 
10 *267:51 *1241:A 9.3 
11 *267:4 *1276:A 23.7464 
*END

*D_NET *268 0.0165933
*CONN
*I *1266:A1 I *D sky130_fd_sc_hd__a21oi_1
*I *1268:B1 I *D sky130_fd_sc_hd__o21a_1
*I *1259:B I *D sky130_fd_sc_hd__and3_1
*I *1240:B1 I *D sky130_fd_sc_hd__o21a_1
*I *1256:A1 I *D sky130_fd_sc_hd__a21oi_1
*I *1258:A1 I *D sky130_fd_sc_hd__a21oi_1
*I *1245:A1 I *D sky130_fd_sc_hd__a21oi_1
*I *1247:A1 I *D sky130_fd_sc_hd__a21oi_1
*I *1250:A1 I *D sky130_fd_sc_hd__a21oi_1
*I *1272:A1 I *D sky130_fd_sc_hd__a21oi_1
*I *1396:X O *D sky130_fd_sc_hd__buf_2
*CAP
1 *1266:A1 6.18392e-05
2 *1268:B1 0
3 *1259:B 0
4 *1240:B1 0.00060986
5 *1256:A1 9.1685e-05
6 *1258:A1 5.1438e-05
7 *1245:A1 0
8 *1247:A1 0.000258146
9 *1250:A1 0
10 *1272:A1 0.000943106
11 *1396:X 0.000249648
12 *268:83 0.000926992
13 *268:72 0.000733462
14 *268:68 0.00106614
15 *268:48 0.000359951
16 *268:44 0.0010171
17 *268:33 0.00121133
18 *268:27 0.000943847
19 *268:10 0.00155021
20 *268:6 0.000880353
21 *1240:B1 *304:29 0
22 *1247:A1 *301:23 0.000102197
23 *1258:A1 *306:29 5.58941e-05
24 *1266:A1 *294:10 7.83659e-05
25 *268:6 *1265:A 1.39726e-05
26 *268:10 *1265:A 0.000125057
27 *268:33 *1233:A 0.000104974
28 *268:33 *304:27 0.000192577
29 *268:44 *301:36 0
30 *268:48 *301:23 0
31 *268:48 *301:36 0
32 *268:72 *306:29 5.33005e-05
33 *1233:B *268:33 0
34 *1240:A1 *1240:B1 5.52238e-05
35 *1245:A2 *268:48 0.000129868
36 *1247:A2 *1247:A1 0.000276211
37 *1247:B1 *1247:A1 0.00101847
38 *1250:A2 *268:33 0.000102545
39 *1250:B1 *268:44 5.52302e-05
40 *1252:B1 *1240:B1 0.000186662
41 *1255:B *1256:A1 0
42 *1256:A2 *1256:A1 5.71472e-05
43 *1256:B1 *1256:A1 7.32955e-05
44 *1256:B1 *1258:A1 6.8646e-06
45 *1256:B1 *268:83 0.000104267
46 *1257:B *268:68 2.36643e-05
47 *1257:B *268:72 0.000325572
48 *1261:B1 *268:68 5.52238e-05
49 *1265:B *268:10 9.90431e-05
50 *1266:A2 *1266:A1 3.48139e-05
51 *1267:B *268:10 5.33334e-05
52 *1268:A1 *1272:A1 0
53 *1268:A1 *268:33 4.1331e-06
54 *1268:A2 *268:10 0.0001827
55 *1271:A *1272:A1 2.52969e-05
56 *1271:B *1272:A1 5.52238e-05
57 *1272:A2 *1272:A1 6.7438e-05
58 *1272:B1 *1272:A1 0.000226412
59 *1359:D *268:44 2.14658e-05
60 *1361:D *1240:B1 0
61 *1396:A *268:6 4.88515e-05
62 *1426:A *268:83 0
63 *166:14 *1240:B1 0.000106533
64 *166:57 *268:33 0
65 *166:57 *268:44 0.000120645
66 *166:61 *268:44 0
67 *167:33 *268:33 0
68 *169:12 *268:44 0.000137983
69 *173:14 *1266:A1 3.90513e-05
70 *173:18 *268:6 2.88018e-06
71 *173:18 *268:10 9.22103e-06
72 *173:20 *268:10 5.5518e-05
73 *175:8 *268:33 0
74 *176:25 *1272:A1 0
75 *187:20 *268:68 0.000131702
76 *213:10 *1258:A1 0
77 *213:10 *268:83 0
78 *236:18 *1240:B1 0
79 *236:18 *1256:A1 0.000186662
80 *266:16 *1266:A1 7.90803e-05
81 *266:60 *268:33 0.000100831
82 *266:60 *268:44 1.52978e-05
83 *266:62 *268:44 0.000284166
84 *266:62 *268:48 5.7616e-05
85 *266:66 *268:48 8.15939e-05
86 *266:90 *268:68 0.000107925
87 *267:27 *1272:A1 1.92789e-05
88 *267:27 *268:10 8.68655e-05
*RES
1 *1396:X *268:6 12.3 
2 *268:6 *268:10 10.8214 
3 *268:10 *1272:A1 32.925 
4 *268:10 *268:27 0.732143 
5 *268:27 *268:33 25.5179 
6 *268:33 *1250:A1 9.3 
7 *268:33 *268:44 12.9643 
8 *268:44 *268:48 7.66071 
9 *268:48 *1247:A1 19.3179 
10 *268:48 *1245:A1 9.3 
11 *268:44 *268:68 12.4286 
12 *268:68 *268:72 10.7857 
13 *268:72 *1258:A1 14.8357 
14 *268:72 *268:83 4.52679 
15 *268:83 *1256:A1 16.8089 
16 *268:83 *1240:B1 26.4339 
17 *268:68 *1259:B 9.3 
18 *268:27 *1268:B1 9.3 
19 *268:6 *1266:A1 20.2464 
*END

*D_NET *269 0.0172262
*CONN
*I *1319:B1 I *D sky130_fd_sc_hd__a31o_1
*I *1118:A I *D sky130_fd_sc_hd__inv_2
*I *1207:B I *D sky130_fd_sc_hd__nor2_1
*I *1206:B I *D sky130_fd_sc_hd__or2_1
*I *1328:B1 I *D sky130_fd_sc_hd__a21o_1
*I *1213:B1 I *D sky130_fd_sc_hd__a21oi_1
*I *1322:A I *D sky130_fd_sc_hd__nor3_1
*I *1159:A_N I *D sky130_fd_sc_hd__and4bb_1
*I *1320:A I *D sky130_fd_sc_hd__nor2_1
*I *1323:A I *D sky130_fd_sc_hd__nor2_1
*I *1397:X O *D sky130_fd_sc_hd__buf_2
*CAP
1 *1319:B1 7.63165e-05
2 *1118:A 0.000538943
3 *1207:B 0.000277337
4 *1206:B 0
5 *1328:B1 0
6 *1213:B1 0.00035774
7 *1322:A 0
8 *1159:A_N 0.000354238
9 *1320:A 0.00013678
10 *1323:A 0
11 *1397:X 0.000227682
12 *269:101 0.000907863
13 *269:94 0.00138825
14 *269:79 0.00142358
15 *269:66 0.000564157
16 *269:57 0.000329986
17 *269:53 0.000882537
18 *269:38 0.00100406
19 *269:25 0.00117805
20 *269:12 0.00117486
21 *1118:A *1210:A 2.89114e-05
22 *1207:B *1223:A2 0
23 *1207:B *333:10 0
24 *269:25 *309:8 9.22103e-06
25 *269:25 *309:19 7.77652e-05
26 *269:53 *1148:A 0
27 *269:94 *1110:A 0.000140464
28 *269:94 *1277:C 9.90431e-05
29 *269:94 *1281:A1 3.57844e-05
30 *269:94 *1281:A2 0.000168939
31 *269:94 *337:10 4.40142e-05
32 *269:94 *337:21 5.85322e-05
33 *269:94 *337:34 3.78516e-05
34 *269:94 *337:60 1.91418e-05
35 *269:94 *337:73 0.0001663
36 *269:94 *341:37 3.68799e-05
37 *1124:A *1213:B1 0.000144773
38 *1130:A2 *269:94 0
39 *1146:A *269:53 3.5626e-05
40 *1148:C *269:53 0
41 *1149:B *269:53 0.00017152
42 *1150:B *269:53 0
43 *1150:C *269:53 2.01767e-05
44 *1156:A1 *269:53 0.000140608
45 *1158:B *269:25 0.000399142
46 *1159:D *269:25 1.92789e-05
47 *1277:B *1207:B 0
48 *1279:A3 *269:94 0.000125731
49 *1281:B1 *269:94 1.46624e-05
50 *1319:A1 *269:57 0.000561696
51 *1319:A1 *269:66 0.000150625
52 *1319:A1 *269:79 0.000226021
53 *1319:A2 *269:53 0
54 *1319:A3 *269:53 0.000142856
55 *1321:C1 *269:53 4.80563e-05
56 *1322:C *269:53 0
57 *1323:B *269:25 3.23206e-05
58 *1325:A2_N *269:94 0.000184626
59 *1328:A1 *269:94 5.33005e-05
60 *1328:A2 *269:94 0
61 *1347:D *1207:B 0.000488715
62 *1348:CLK *1207:B 0
63 *1351:D *1118:A 5.71472e-05
64 *1376:D *269:57 5.5782e-05
65 *1377:CLK *1320:A 1.74352e-05
66 *1377:D *1320:A 9.80173e-05
67 *1377:D *269:25 0.000116676
68 *1379:D *269:25 5.71472e-05
69 *1380:CLK *269:94 0
70 *1380:D *269:94 0.00010326
71 *1415:A *269:12 0
72 *79:21 *1207:B 0
73 *87:8 *1118:A 4.80241e-05
74 *98:10 *1319:B1 2.47833e-05
75 *98:10 *269:53 9.99644e-06
76 *100:6 *269:94 9.90431e-05
77 *111:10 *269:53 0
78 *122:12 *269:38 0.000175519
79 *122:12 *269:53 0.000117903
80 *155:16 *269:94 0
81 *202:12 *269:94 0.000250237
82 *245:71 *1159:A_N 0.000843861
83 *245:127 *269:57 0
84 *245:127 *269:66 0
85 *250:14 *269:12 0.000299291
86 *250:50 *1207:B 7.80714e-06
87 *255:10 *1213:B1 9.90367e-05
88 *255:32 *269:53 0
89 *259:25 *269:94 4.02462e-05
*RES
1 *1397:X *269:12 23.3179 
2 *269:12 *1323:A 9.3 
3 *269:12 *269:25 13.8393 
4 *269:25 *1320:A 11.3893 
5 *269:25 *269:38 6.75 
6 *269:38 *1159:A_N 21.7286 
7 *269:38 *269:53 16.1071 
8 *269:53 *269:57 11.6071 
9 *269:57 *1322:A 13.8 
10 *269:57 *269:66 1.94643 
11 *269:66 *1213:B1 20.0857 
12 *269:66 *269:79 7.66071 
13 *269:79 *1328:B1 9.3 
14 *269:79 *269:94 38.0714 
15 *269:94 *1206:B 9.3 
16 *269:94 *269:101 1.35714 
17 *269:101 *1207:B 25.1036 
18 *269:101 *1118:A 18.0679 
19 *269:53 *1319:B1 10.675 
*END

*D_NET *270 0.00602923
*CONN
*I *1217:A2 I *D sky130_fd_sc_hd__o211a_1
*I *1214:B1_N I *D sky130_fd_sc_hd__a21boi_1
*I *1154:A1 I *D sky130_fd_sc_hd__o41ai_1
*I *1153:A I *D sky130_fd_sc_hd__or4_1
*I *1421:X O *D sky130_fd_sc_hd__buf_1
*CAP
1 *1217:A2 0.000152727
2 *1214:B1_N 4.44102e-05
3 *1154:A1 0.000346687
4 *1153:A 6.94427e-05
5 *1421:X 0.000571957
6 *270:38 0.000494128
7 *270:19 0.000682455
8 *270:8 0.000680176
9 *1154:A1 *1139:A1 0
10 *1214:B1_N *1214:A2 9.60875e-05
11 *1217:A2 *1214:A2 9.30228e-05
12 *270:38 *1287:B1 0
13 *1153:C *1153:A 0.000186669
14 *1153:C *1154:A1 1.21258e-05
15 *1153:D *1153:A 0.000142856
16 *1153:D *1154:A1 0.000271345
17 *1157:A1 *1153:A 4.88637e-05
18 *1183:B *270:8 0
19 *1185:A *270:8 0.000150625
20 *1186:B *270:8 6.04891e-05
21 *1186:C *270:8 8.00806e-05
22 *1217:B1 *1217:A2 5.52238e-05
23 *1218:A1 *270:38 0.000389854
24 *1432:A *270:8 0.000587782
25 *107:12 *1154:A1 5.41494e-05
26 *108:14 *270:8 0.000344917
27 *133:92 *270:8 0.00017309
28 *243:14 *270:38 0.000173804
29 *245:41 *270:8 0
30 *260:10 *270:8 4.46186e-06
31 *260:10 *270:19 2.16719e-05
32 *260:10 *270:38 3.72961e-05
33 *260:38 *270:38 2.8266e-06
*RES
1 *1421:X *270:8 30.3179 
2 *270:8 *1153:A 16.3893 
3 *270:8 *270:19 0.732143 
4 *270:19 *1154:A1 18.7643 
5 *270:19 *270:38 11.6607 
6 *270:38 *1214:B1_N 10.2464 
7 *270:38 *1217:A2 12.3357 
*END

*D_NET *271 6.37568e-05
*CONN
*I *1205:A1 I *D sky130_fd_sc_hd__o21a_1
*I *1398:X O *D sky130_fd_sc_hd__dlygate4sd3_1
*CAP
1 *1205:A1 3.18784e-05
2 *1398:X 3.18784e-05
*RES
1 *1398:X *1205:A1 19.1357 
*END

*D_NET *272 0.00120855
*CONN
*I *1316:A2 I *D sky130_fd_sc_hd__o31a_1
*I *1405:X O *D sky130_fd_sc_hd__dlygate4sd3_1
*CAP
1 *1316:A2 0.000358982
2 *1405:X 0.000358982
3 *1316:A2 *1373:D 0.00010326
4 security_breach *1316:A2 0
5 *1316:A3 *1316:A2 1.92789e-05
6 *1433:A *1316:A2 0
7 *1434:A *1316:A2 0.000176234
8 *87:25 *1316:A2 0.000163774
9 *259:8 *1316:A2 2.80449e-05
*RES
1 *1405:X *1316:A2 35.5643 
*END

*D_NET *273 0.000606482
*CONN
*I *1373:D I *D sky130_fd_sc_hd__dfxtp_1
*I *1406:X O *D sky130_fd_sc_hd__dlygate4sd3_1
*CAP
1 *1373:D 0.000233758
2 *1406:X 0.000233758
3 *1316:A2 *1373:D 0.00010326
4 *1433:A *1373:D 3.5707e-05
*RES
1 *1406:X *1373:D 31.5688 
*END

*D_NET *274 0.000393069
*CONN
*I *1236:A1 I *D sky130_fd_sc_hd__a21oi_1
*I *1407:X O *D sky130_fd_sc_hd__dlygate4sd3_1
*CAP
1 *1236:A1 0.00011752
2 *1407:X 0.00011752
3 *1236:A2 *1236:A1 0.000144773
4 *267:38 *1236:A1 1.32552e-05
*RES
1 *1407:X *1236:A1 20.3679 
*END

*D_NET *275 0.000475251
*CONN
*I *1192:A1 I *D sky130_fd_sc_hd__o211a_1
*I *1408:X O *D sky130_fd_sc_hd__dlygate4sd3_1
*CAP
1 *1192:A1 8.65353e-05
2 *1408:X 8.65353e-05
3 *1192:A2 *1192:A1 0.000273269
4 *133:33 *1192:A1 2.89114e-05
*RES
1 *1408:X *1192:A1 21.1893 
*END

*D_NET *276 0.000702893
*CONN
*I *1261:A1 I *D sky130_fd_sc_hd__o21a_1
*I *1409:X O *D sky130_fd_sc_hd__dlygate4sd3_1
*CAP
1 *1261:A1 0.000329692
2 *1409:X 0.000329692
3 *1261:B1 *1261:A1 4.35092e-05
*RES
1 *1409:X *1261:A1 32.1357 
*END

*D_NET *277 0.000380683
*CONN
*I *1363:D I *D sky130_fd_sc_hd__dfxtp_1
*I *1410:X O *D sky130_fd_sc_hd__dlygate4sd3_1
*CAP
1 *1363:D 0.000148873
2 *1410:X 0.000148873
3 *1261:A2 *1363:D 0
4 *1357:CLK *1363:D 6.05161e-06
5 *1362:D *1363:D 0
6 *1363:CLK *1363:D 4.79842e-05
7 *244:69 *1363:D 2.89016e-05
*RES
1 *1410:X *1363:D 30.2473 
*END

*D_NET *278 0.000444429
*CONN
*I *1218:B2 I *D sky130_fd_sc_hd__o221a_1
*I *1411:X O *D sky130_fd_sc_hd__dlygate4sd3_1
*CAP
1 *1218:B2 0.000153909
2 *1411:X 0.000153909
3 *1218:B2 *1287:B1 0
4 *1218:B2 *288:12 8.46507e-06
5 *243:14 *1218:B2 0.000128146
*RES
1 *1411:X *1218:B2 30.1893 
*END

*D_NET *279 0.00126885
*CONN
*I *1318:A1 I *D sky130_fd_sc_hd__o21a_1
*I *1412:X O *D sky130_fd_sc_hd__dlygate4sd3_1
*CAP
1 *1318:A1 0.00040423
2 *1412:X 0.00040423
3 *1318:A1 *1317:A1 0
4 *1318:A2 *1318:A1 0.000460391
5 *1375:D *1318:A1 0
6 *87:31 *1318:A1 0
*RES
1 *1412:X *1318:A1 35.4571 
*END

*D_NET *280 0.000315919
*CONN
*I *1203:A I *D sky130_fd_sc_hd__nand2_1
*I *1399:X O *D sky130_fd_sc_hd__dlygate4sd3_1
*CAP
1 *1203:A 8.57918e-05
2 *1399:X 8.57918e-05
3 *1204:C *1203:A 1.92789e-05
4 *144:23 *1203:A 0.000125057
*RES
1 *1399:X *1203:A 20.7786 
*END

*D_NET *281 0.000730068
*CONN
*I *1313:B I *D sky130_fd_sc_hd__or4_1
*I *1422:X O *D sky130_fd_sc_hd__clkbuf_1
*CAP
1 *1313:B 0.000180499
2 *1422:X 0.000180499
3 *1313:B *1313:C 6.0038e-05
4 *1313:A *1313:B 1.41029e-05
5 *1313:D *1313:B 8.49318e-05
6 *1361:CLK *1313:B 9.46277e-05
7 *1422:A *1313:B 0.000115369
*RES
1 *1422:X *1313:B 32.5821 
*END

*D_NET *282 0.00076217
*CONN
*I *1275:B1 I *D sky130_fd_sc_hd__a21oi_1
*I *1400:X O *D sky130_fd_sc_hd__dlygate4sd3_1
*CAP
1 *1275:B1 0.000245497
2 *1400:X 0.000245497
3 *1275:B1 *298:12 0.00018616
4 *1350:CLK *1275:B1 5.33005e-05
5 *3:11 *1275:B1 0
6 *247:55 *1275:B1 3.17148e-05
*RES
1 *1400:X *1275:B1 32.4393 
*END

*D_NET *283 0.00114172
*CONN
*I *1206:A I *D sky130_fd_sc_hd__or2_1
*I *1401:X O *D sky130_fd_sc_hd__dlygate4sd3_1
*CAP
1 *1206:A 0.000426318
2 *1401:X 0.000426318
3 *1206:A *341:22 0.00010619
4 *1206:A *341:37 7.36267e-05
5 *1130:A2 *1206:A 4.48206e-05
6 *95:10 *1206:A 6.44449e-05
7 *250:50 *1206:A 0
*RES
1 *1401:X *1206:A 36.8321 
*END

*D_NET *284 0.000709864
*CONN
*I *1317:A1 I *D sky130_fd_sc_hd__o21a_1
*I *1402:X O *D sky130_fd_sc_hd__dlygate4sd3_1
*CAP
1 *1317:A1 0.000173815
2 *1402:X 0.000173815
3 *1317:A1 *1317:A2 0.0002638
4 *1318:A1 *1317:A1 0
5 *1375:D *1317:A1 7.83587e-05
6 *87:33 *1317:A1 2.00751e-05
*RES
1 *1402:X *1317:A1 31.0107 
*END

*D_NET *285 0.000550013
*CONN
*I *1113:A I *D sky130_fd_sc_hd__inv_2
*I *1403:X O *D sky130_fd_sc_hd__dlygate4sd3_1
*CAP
1 *1113:A 8.59981e-05
2 *1403:X 8.59981e-05
3 *1280:B1 *1113:A 0.000178525
4 *1281:C1 *1113:A 2.44318e-05
5 *82:31 *1113:A 0.000175059
*RES
1 *1403:X *1113:A 30.4929 
*END

*D_NET *286 0.000391624
*CONN
*I *1193:A I *D sky130_fd_sc_hd__nand2_1
*I *1404:X O *D sky130_fd_sc_hd__dlygate4sd3_1
*CAP
1 *1193:A 0.000169774
2 *1404:X 0.000169774
3 *1193:A *1404:A 0
4 *1193:A *312:29 5.20751e-05
*RES
1 *1404:X *1193:A 30.1893 
*END

*D_NET *287 0.00539686
*CONN
*I *1308:C I *D sky130_fd_sc_hd__or4_1
*I *1301:B2 I *D sky130_fd_sc_hd__a2bb2o_1
*I *1423:X O *D sky130_fd_sc_hd__clkbuf_1
*CAP
1 *1308:C 0
2 *1301:B2 0.000574952
3 *1423:X 0.00101704
4 *287:10 0.00159199
5 *287:10 *335:12 4.71964e-05
6 *1123:C *1301:B2 5.53592e-05
7 *1221:A2 *287:10 0
8 *1281:C1 *287:10 0
9 *1292:A2 *1301:B2 4.1331e-06
10 *1302:A1 *1301:B2 5.80706e-06
11 *1308:D *1301:B2 5.80706e-06
12 *1308:D *287:10 2.84398e-05
13 *81:49 *1301:B2 0.000241205
14 *81:49 *287:10 0.000378167
15 *81:62 *287:10 0.000649125
16 *81:81 *287:10 0
17 *82:31 *287:10 0.000390792
18 *90:10 *287:10 0.000101422
19 *93:10 *1301:B2 0
20 *93:27 *1301:B2 1.57983e-05
21 *215:10 *1301:B2 2.26327e-05
22 *216:8 *1301:B2 0.000137983
23 *231:10 *1301:B2 0.000129006
24 *259:31 *1301:B2 0
*RES
1 *1423:X *287:10 35.7464 
2 *287:10 *1301:B2 33.0321 
3 *287:10 *1308:C 13.8 
*END

*D_NET *288 0.00569562
*CONN
*I *1297:A I *D sky130_fd_sc_hd__nor2_1
*I *1424:X O *D sky130_fd_sc_hd__clkbuf_1
*CAP
1 *1297:A 0
2 *1424:X 0.0023728
3 *288:12 0.0023728
4 *288:12 *1287:B1 0
5 *1215:A1 *288:12 5.33433e-05
6 *1218:B2 *288:12 8.46507e-06
7 *1435:A *288:12 3.18676e-05
8 *243:14 *288:12 0.000150625
9 *255:54 *288:12 0.000705713
*RES
1 *1424:X *288:12 49.1214 
2 *288:12 *1297:A 9.3 
*END

*D_NET *289 0.00553522
*CONN
*I *1287:B1 I *D sky130_fd_sc_hd__a41o_1
*I *1153:B I *D sky130_fd_sc_hd__or4_1
*I *1154:A2 I *D sky130_fd_sc_hd__o41ai_1
*I *1425:X O *D sky130_fd_sc_hd__buf_1
*CAP
1 *1287:B1 0.00108579
2 *1153:B 0.000296462
3 *1154:A2 4.71054e-05
4 *1425:X 0.00086973
5 *289:10 0.000343567
6 *289:8 0.00195552
7 *1287:B1 *1214:A1 0
8 *1287:B1 *1289:A 0
9 *1287:B1 *322:10 0
10 *1287:B1 *331:21 0
11 *289:8 *1152:B1 0
12 *289:8 *313:19 0
13 *289:8 *313:30 0
14 *289:8 *313:41 0
15 *1153:C *1153:B 3.53079e-05
16 *1157:A1 *1153:B 0.000357952
17 *1187:A1 *289:8 8.25098e-05
18 *1218:B2 *1287:B1 0
19 *1340:D *289:8 0
20 *1432:A *289:8 0
21 *103:25 *289:8 0.000192585
22 *104:14 *1287:B1 0
23 *107:12 *1153:B 6.05161e-06
24 *107:12 *1154:A2 3.36817e-05
25 *107:12 *1287:B1 0
26 *107:12 *289:8 0
27 *117:10 *1287:B1 8.08022e-05
28 *117:10 *289:8 7.83587e-05
29 *157:12 *1287:B1 6.97972e-05
30 *243:14 *1287:B1 0
31 *260:10 *1287:B1 0
32 *265:57 *1287:B1 0
33 *270:38 *1287:B1 0
34 *288:12 *1287:B1 0
*RES
1 *1425:X *289:8 29.4071 
2 *289:8 *289:10 4.5 
3 *289:10 *1154:A2 9.91607 
4 *289:10 *1153:B 13.5321 
5 *289:8 *1287:B1 32.0679 
*END

*D_NET *290 0.000297615
*CONN
*I *1313:C I *D sky130_fd_sc_hd__or4_1
*I *1426:X O *D sky130_fd_sc_hd__clkbuf_1
*CAP
1 *1313:C 3.59621e-05
2 *1426:X 3.59621e-05
3 *1313:A *1313:C 0.000129868
4 *1313:B *1313:C 6.0038e-05
5 *1313:D *1313:C 3.57844e-05
*RES
1 *1426:X *1313:C 29.2429 
*END

*D_NET *291 0.000810337
*CONN
*I *1317:A2 I *D sky130_fd_sc_hd__o21a_1
*I *1427:X O *D sky130_fd_sc_hd__clkbuf_1
*CAP
1 *1317:A2 0.000238925
2 *1427:X 0.000238925
3 *1317:A1 *1317:A2 0.0002638
4 *1375:D *1317:A2 1.17968e-05
5 *87:31 *1317:A2 1.76135e-05
6 *87:33 *1317:A2 3.92757e-05
*RES
1 *1427:X *1317:A2 32.35 
*END

*D_NET *292 0.00203872
*CONN
*I *1407:A I *D sky130_fd_sc_hd__dlygate4sd3_1
*I *1237:B I *D sky130_fd_sc_hd__xnor2_1
*I *1225:C I *D sky130_fd_sc_hd__and3_2
*I *1239:A2 I *D sky130_fd_sc_hd__a21oi_1
*I *1354:Q O *D sky130_fd_sc_hd__dfxtp_1
*CAP
1 *1407:A 2.57978e-05
2 *1237:B 2.52229e-05
3 *1225:C 0.000143017
4 *1239:A2 4.68413e-05
5 *1354:Q 0.000104227
6 *292:18 0.000357439
7 *292:10 0.000357935
8 *292:8 0.000295155
9 *1225:C *1225:B 0.000100823
10 *1225:C *1239:A1 8.56752e-05
11 *1225:C *299:10 4.73656e-05
12 *1237:B *1237:A 5.52238e-05
13 *1239:A2 *1239:A1 3.18676e-05
14 *292:8 *299:8 0
15 *292:10 *299:8 0
16 *292:18 *299:10 0
17 *1236:A2 *1407:A 7.77751e-05
18 *1240:A2 *1225:C 0.000101656
19 *1240:A2 *292:18 3.98404e-05
20 *1354:D *292:8 0
21 *267:38 *1407:A 0.000142856
22 *267:51 *292:10 0
23 *267:51 *292:18 0
*RES
1 *1354:Q *292:8 15.4429 
2 *292:8 *292:10 2.85714 
3 *292:10 *292:18 7.71429 
4 *292:18 *1239:A2 10.2464 
5 *292:18 *1225:C 22.0143 
6 *292:10 *1237:B 14.3357 
7 *292:8 *1407:A 15.1571 
*END

*D_NET *293 0.0063702
*CONN
*I *1234:B I *D sky130_fd_sc_hd__and3_1
*I *1262:A I *D sky130_fd_sc_hd__nor2_1
*I *1312:A1 I *D sky130_fd_sc_hd__o311a_1
*I *1294:C1 I *D sky130_fd_sc_hd__o211a_1
*I *1285:D1 I *D sky130_fd_sc_hd__a2111o_1
*I *1230:A I *D sky130_fd_sc_hd__and4_1
*I *1364:Q O *D sky130_fd_sc_hd__dfxtp_1
*CAP
1 *1234:B 0.000153654
2 *1262:A 0
3 *1312:A1 0.000191907
4 *1294:C1 0.000101421
5 *1285:D1 0
6 *1230:A 2.22238e-05
7 *1364:Q 0.000600383
8 *293:56 0.000249866
9 *293:36 0.000379439
10 *293:25 0.000430109
11 *293:19 0.00044021
12 *293:10 0.000622607
13 *293:10 *1286:A 0.000141337
14 *1230:B *293:25 0.000126439
15 *1233:D *293:25 6.2993e-05
16 *1234:C *1234:B 0
17 *1252:A1 *1230:A 9.90367e-05
18 *1252:A1 *293:10 0.000139907
19 *1263:B *1234:B 0.000200413
20 *1286:B *293:10 5.76973e-05
21 *1311:B1 *1294:C1 5.80706e-06
22 *1312:A2 *1312:A1 6.05161e-06
23 *1314:B *1312:A1 2.77143e-05
24 *1314:C *1312:A1 0.000616982
25 *1359:CLK *1294:C1 0
26 *1359:CLK *293:36 0
27 *1364:CLK *293:10 2.14083e-05
28 *1364:D *293:10 4.87669e-06
29 *167:8 *1294:C1 0
30 *167:21 *293:10 6.81335e-05
31 *167:23 *1230:A 3.67142e-05
32 *167:23 *293:10 1.21258e-05
33 *167:33 *293:25 0
34 *170:18 *293:25 9.60875e-05
35 *170:31 *293:25 0.000225616
36 *170:42 *1294:C1 8.66228e-05
37 *170:42 *1312:A1 9.71197e-05
38 *170:42 *293:25 9.90431e-05
39 *170:42 *293:36 0.000101
40 *174:8 *293:56 0
41 *246:47 *1234:B 3.14048e-05
42 *266:50 *1234:B 0.000237521
43 *266:60 *1234:B 1.02504e-05
44 *266:60 *293:25 0.000390568
45 *266:60 *293:56 0.000175512
*RES
1 *1364:Q *293:10 18.6036 
2 *293:10 *1230:A 10.2464 
3 *293:10 *293:19 4.5 
4 *293:19 *293:25 13.3036 
5 *293:25 *1285:D1 9.3 
6 *293:25 *293:36 6.17857 
7 *293:36 *1294:C1 16.05 
8 *293:36 *1312:A1 19.675 
9 *293:19 *293:56 2.25 
10 *293:56 *1262:A 13.8 
11 *293:56 *1234:B 17.9071 
*END

*D_NET *294 0.00619199
*CONN
*I *1231:C I *D sky130_fd_sc_hd__and4_1
*I *1265:A I *D sky130_fd_sc_hd__xnor2_1
*I *1234:A I *D sky130_fd_sc_hd__and3_1
*I *1286:A I *D sky130_fd_sc_hd__or2_1
*I *1365:Q O *D sky130_fd_sc_hd__dfxtp_1
*CAP
1 *1231:C 0.000243182
2 *1265:A 6.3853e-05
3 *1234:A 0.000316037
4 *1286:A 0.000454653
5 *1365:Q 0.000603052
6 *294:12 0.00101116
7 *294:10 0.000380815
8 *294:6 0.000922724
9 *1231:C *1235:A 0
10 *1231:D *1231:C 2.89114e-05
11 *1266:A1 *294:10 7.83659e-05
12 *1266:A2 *1231:C 2.59355e-05
13 *1266:B1 *294:6 2.77258e-05
14 *1286:B *1286:A 0.000623771
15 *1364:D *1286:A 0
16 *1365:CLK *1234:A 6.95486e-05
17 *1365:CLK *294:12 0.000163755
18 *1365:D *1231:C 2.37575e-05
19 *1365:D *294:6 4.19279e-05
20 *173:14 *294:10 0.000148903
21 *173:14 *294:12 9.25014e-06
22 *173:18 *1265:A 0.000146523
23 *209:10 *1286:A 0
24 *209:10 *294:10 0
25 *209:10 *294:12 0
26 *211:10 *1286:A 4.88637e-05
27 *246:47 *1234:A 0.000304387
28 *266:16 *1231:C 0.000174515
29 *268:6 *1265:A 1.39726e-05
30 *268:10 *1265:A 0.000125057
31 *293:10 *1286:A 0.000141337
*RES
1 *1365:Q *294:6 16.4071 
2 *294:6 *294:10 6.44643 
3 *294:10 *294:12 5.28571 
4 *294:12 *1286:A 25.175 
5 *294:12 *1234:A 19.2643 
6 *294:10 *1265:A 16.3893 
7 *294:6 *1231:C 14.4071 
*END

*D_NET *295 0.00172006
*CONN
*I *1231:B I *D sky130_fd_sc_hd__and4_1
*I *1284:D I *D sky130_fd_sc_hd__or4_1
*I *1235:A I *D sky130_fd_sc_hd__and2_1
*I *1267:A I *D sky130_fd_sc_hd__nor2_1
*I *1366:Q O *D sky130_fd_sc_hd__dfxtp_1
*CAP
1 *1231:B 0
2 *1284:D 9.64712e-05
3 *1235:A 5.93072e-05
4 *1267:A 0.000112161
5 *1366:Q 0
6 *295:32 0.000138223
7 *295:21 0.000364994
8 *295:4 0.000376096
9 *1284:D *1231:A 5.33882e-05
10 *1284:D *1284:C 2.89114e-05
11 *1231:C *1235:A 0
12 *1231:D *1284:D 9.25014e-06
13 *1235:B *1267:A 0
14 *1235:B *295:21 2.89114e-05
15 *1268:A1 *1267:A 8.82117e-05
16 *1268:A1 *295:21 2.72967e-05
17 *172:10 *1284:D 0
18 *175:8 *1267:A 0
19 *176:6 *295:21 1.32552e-05
20 *266:16 *1235:A 1.92905e-05
21 *266:16 *295:32 5.19842e-06
22 *266:24 *1235:A 3.32631e-05
23 *266:24 *295:21 0.000265833
*RES
1 *1366:Q *295:4 9.3 
2 *295:4 *1267:A 20.55 
3 *295:4 *295:21 5.69643 
4 *295:21 *1235:A 11.3893 
5 *295:21 *295:32 0.535714 
6 *295:32 *1284:D 20.175 
7 *295:32 *1231:B 9.3 
*END

*D_NET *296 0.00315311
*CONN
*I *1273:A3 I *D sky130_fd_sc_hd__a41o_1
*I *1284:C I *D sky130_fd_sc_hd__or4_1
*I *1231:A I *D sky130_fd_sc_hd__and4_1
*I *1270:A I *D sky130_fd_sc_hd__nor2_1
*I *1367:Q O *D sky130_fd_sc_hd__dfxtp_1
*CAP
1 *1273:A3 0
2 *1284:C 7.86852e-05
3 *1231:A 8.22974e-05
4 *1270:A 3.00268e-05
5 *1367:Q 0.000240793
6 *296:33 0.000482689
7 *296:27 0.000432012
8 *296:12 0.000381126
9 *1284:C *1284:B 5.62995e-05
10 *1231:D *1231:A 9.10431e-06
11 *1270:B *296:27 0.000274288
12 *1271:A *1270:A 2.28385e-05
13 *1271:A *296:27 0.000359997
14 *1271:B *1270:A 5.42898e-05
15 *1274:A2 *296:27 0
16 *1284:D *1231:A 5.33882e-05
17 *1284:D *1284:C 2.89114e-05
18 *172:10 *1231:A 0
19 *176:25 *296:27 4.80729e-05
20 *176:25 *296:33 0.000324167
21 *246:132 *296:12 0.000101698
22 *267:27 *1231:A 9.24299e-05
23 *267:27 *296:27 0
24 *267:27 *296:33 0
*RES
1 *1367:Q *296:12 21.7107 
2 *296:12 *1270:A 10.2375 
3 *296:12 *296:27 8.94643 
4 *296:27 *296:33 11.1607 
5 *296:33 *1231:A 20.55 
6 *296:33 *1284:C 11.0679 
7 *296:27 *1273:A3 13.8 
*END

*D_NET *297 0.00443498
*CONN
*I *1274:A1 I *D sky130_fd_sc_hd__o21ba_1
*I *1273:A2 I *D sky130_fd_sc_hd__a41o_1
*I *1284:B I *D sky130_fd_sc_hd__or4_1
*I *1232:B I *D sky130_fd_sc_hd__nand3_2
*I *1275:A1 I *D sky130_fd_sc_hd__a21oi_1
*I *1368:Q O *D sky130_fd_sc_hd__dfxtp_1
*CAP
1 *1274:A1 0
2 *1273:A2 0.000152848
3 *1284:B 0.000223307
4 *1232:B 0
5 *1275:A1 0.000346551
6 *1368:Q 0
7 *297:42 0.000601874
8 *297:38 0.00047834
9 *297:14 0.000545674
10 *297:6 0.000451744
11 *1275:A1 *1284:A 0
12 *1275:A1 *298:12 9.99644e-06
13 *297:14 *1232:A 0
14 *297:14 *298:16 0.000186669
15 *1232:C *297:14 1.04232e-05
16 *1271:A *1273:A2 0.00014183
17 *1274:A2 *297:42 5.53979e-05
18 *1274:B1_N *297:42 0.000295137
19 *1275:A2 *1275:A1 0.000399835
20 *1275:A2 *297:14 2.89016e-05
21 *1276:A *297:14 5.66647e-05
22 *1276:A *297:38 6.74911e-05
23 *1276:B *297:14 0
24 *1284:C *1284:B 5.62995e-05
25 *1394:A *297:14 0
26 *172:10 *1284:B 0
27 *172:12 *1273:A2 8.57023e-05
28 *172:38 *297:14 8.07313e-05
29 *173:14 *1275:A1 5.59013e-05
30 *267:14 *297:14 0
31 *267:14 *297:42 0
32 *267:27 *1284:B 9.96238e-05
33 *267:27 *297:42 4.038e-06
*RES
1 *1368:Q *297:6 13.8 
2 *297:6 *297:14 9.85714 
3 *297:14 *1275:A1 23.2643 
4 *297:14 *1232:B 9.3 
5 *297:6 *297:38 9.55357 
6 *297:38 *297:42 10.0893 
7 *297:42 *1284:B 18.2107 
8 *297:42 *1273:A2 15.9786 
9 *297:38 *1274:A1 9.3 
*END

*D_NET *298 0.00336492
*CONN
*I *1400:A I *D sky130_fd_sc_hd__dlygate4sd3_1
*I *1232:A I *D sky130_fd_sc_hd__nand3_2
*I *1114:A I *D sky130_fd_sc_hd__inv_2
*I *1284:A I *D sky130_fd_sc_hd__or4_1
*I *1369:Q O *D sky130_fd_sc_hd__dfxtp_1
*CAP
1 *1400:A 0.000223152
2 *1232:A 3.99336e-05
3 *1114:A 0
4 *1284:A 0.000239635
5 *1369:Q 0
6 *298:16 0.000505993
7 *298:12 0.000542134
8 *298:4 0.000458994
9 *1232:C *298:16 0
10 *1275:A1 *1284:A 0
11 *1275:A1 *298:12 9.99644e-06
12 *1275:A2 *1232:A 0
13 *1275:A2 *298:12 8.71761e-05
14 *1275:A2 *298:16 5.72869e-05
15 *1275:B1 *298:12 0.00018616
16 *1276:B *298:12 0.000273269
17 *1350:CLK *298:12 6.05161e-06
18 *165:18 *298:12 0.000136006
19 *172:10 *1284:A 0.000370533
20 *172:38 *298:16 3.14193e-05
21 *173:14 *1284:A 0
22 *209:10 *1284:A 6.05161e-06
23 *267:14 *1284:A 4.46186e-06
24 *297:14 *1232:A 0
25 *297:14 *298:16 0.000186669
*RES
1 *1369:Q *298:4 9.3 
2 *298:4 *298:12 15.8036 
3 *298:12 *298:16 4.96429 
4 *298:16 *1284:A 23.8179 
5 *298:16 *1114:A 9.3 
6 *298:12 *1232:A 10.0321 
7 *298:4 *1400:A 13.0321 
*END

*D_NET *299 0.00237166
*CONN
*I *1237:A I *D sky130_fd_sc_hd__xnor2_1
*I *1239:A1 I *D sky130_fd_sc_hd__a21oi_1
*I *1225:B I *D sky130_fd_sc_hd__and3_2
*I *1355:Q O *D sky130_fd_sc_hd__dfxtp_1
*CAP
1 *1237:A 0.000135058
2 *1239:A1 0.00021197
3 *1225:B 0.000153403
4 *1355:Q 0.000217855
5 *299:10 0.000547524
6 *299:8 0.000535064
7 *1225:B *304:27 0
8 *1225:B *304:29 0
9 *1225:C *1225:B 0.000100823
10 *1225:C *1239:A1 8.56752e-05
11 *1225:C *299:10 4.73656e-05
12 *1237:B *1237:A 5.52238e-05
13 *1238:A2 *1237:A 5.33334e-05
14 *1238:A2 *299:8 0.000125731
15 *1239:A2 *1239:A1 3.18676e-05
16 *1240:A2 *1225:B 3.92169e-05
17 *1240:A2 *299:10 1.69115e-05
18 *1355:D *299:8 0
19 *166:8 *1225:B 9.25014e-06
20 *246:57 *1225:B 5.39166e-06
21 *292:8 *299:8 0
22 *292:10 *299:8 0
23 *292:18 *299:10 0
*RES
1 *1355:Q *299:8 17.8714 
2 *299:8 *299:10 3.46429 
3 *299:10 *1225:B 16.8893 
4 *299:10 *1239:A1 16.3893 
5 *299:8 *1237:A 16.3893 
*END

*D_NET *300 0.000495527
*CONN
*I *1225:A I *D sky130_fd_sc_hd__and3_2
*I *1239:B1 I *D sky130_fd_sc_hd__a21oi_1
*I *1356:Q O *D sky130_fd_sc_hd__dfxtp_1
*CAP
1 *1225:A 2.58262e-05
2 *1239:B1 7.95414e-05
3 *1356:Q 5.40981e-05
4 *300:6 0.000159466
5 *1240:A2 *1239:B1 0.000123295
6 *246:57 *1225:A 5.33005e-05
7 *267:51 *1239:B1 0
*RES
1 *1356:Q *300:6 10.3357 
2 *300:6 *1239:B1 19.9429 
3 *300:6 *1225:A 9.83571 
*END

*D_NET *301 0.00376227
*CONN
*I *1311:A2 I *D sky130_fd_sc_hd__o211a_1
*I *1226:C I *D sky130_fd_sc_hd__and3_1
*I *1248:A2 I *D sky130_fd_sc_hd__a31o_1
*I *1243:A I *D sky130_fd_sc_hd__or2_1
*I *1242:A I *D sky130_fd_sc_hd__nand2_1
*I *1357:Q O *D sky130_fd_sc_hd__dfxtp_1
*CAP
1 *1311:A2 0.000576363
2 *1226:C 0
3 *1248:A2 2.23854e-05
4 *1243:A 0
5 *1242:A 0
6 *1357:Q 0.000124375
7 *301:45 0.000728296
8 *301:36 0.000460502
9 *301:23 0.000481393
10 *301:10 0.000319585
11 *1311:A2 *1226:A 2.08464e-05
12 *1311:A2 *1248:B1 8.91987e-05
13 *1311:A2 *302:19 0
14 *1311:A2 *302:23 4.97621e-05
15 *1311:A2 *302:41 0
16 *1311:A2 *303:12 3.03304e-05
17 *301:45 *1248:A1 2.44318e-05
18 *301:45 *1248:B1 0.000268592
19 *1242:B *301:10 5.80706e-06
20 *1242:B *301:23 8.16036e-05
21 *1242:B *301:36 5.80706e-06
22 *1245:A2 *301:23 0
23 *1247:A1 *301:23 0.000102197
24 *1247:A2 *301:10 0
25 *3:11 *1311:A2 0.000122942
26 *166:57 *301:36 5.03772e-05
27 *166:61 *301:36 0.000189674
28 *211:16 *1311:A2 7.80714e-06
29 *268:44 *301:36 0
30 *268:48 *301:23 0
31 *268:48 *301:36 0
*RES
1 *1357:Q *301:10 20.2464 
2 *301:10 *1242:A 9.3 
3 *301:10 *301:23 8.64286 
4 *301:23 *1243:A 13.8 
5 *301:23 *301:36 10.5357 
6 *301:36 *1248:A2 9.72857 
7 *301:36 *301:45 3.33929 
8 *301:45 *1226:C 9.3 
9 *301:45 *1311:A2 28.925 
*END

*D_NET *302 0.00440315
*CONN
*I *1311:A1 I *D sky130_fd_sc_hd__o211a_1
*I *1294:A2 I *D sky130_fd_sc_hd__o211a_1
*I *1226:B I *D sky130_fd_sc_hd__and3_1
*I *1248:A1 I *D sky130_fd_sc_hd__a31o_1
*I *1246:A I *D sky130_fd_sc_hd__xor2_1
*I *1358:Q O *D sky130_fd_sc_hd__dfxtp_1
*CAP
1 *1311:A1 0.000228918
2 *1294:A2 0
3 *1226:B 0
4 *1248:A1 0.000148593
5 *1246:A 0.000472961
6 *1358:Q 0.000253864
7 *302:41 0.000352221
8 *302:23 0.000372749
9 *302:19 0.000641181
10 *302:6 0.00102055
11 *1248:A1 *1248:B1 0.000276211
12 *1311:A1 *1311:C1 0.000188586
13 *1311:A1 *303:32 3.18988e-05
14 *302:19 *303:12 0
15 *302:23 *1248:B1 3.48705e-05
16 *302:23 *303:12 1.92789e-05
17 *302:41 *303:12 0
18 *1287:A4 *302:19 0
19 *1295:A2 *1311:A1 2.15245e-05
20 *1311:A2 *302:19 0
21 *1311:A2 *302:23 4.97621e-05
22 *1311:A2 *302:41 0
23 *1311:B1 *1311:A1 4.06366e-05
24 *1311:B1 *302:41 5.59013e-05
25 *1358:CLK *1246:A 0.000144788
26 *1358:CLK *302:6 1.39726e-05
27 *167:8 *302:41 0
28 *170:42 *302:41 1.02504e-05
29 *211:16 *302:19 0
30 *301:45 *1248:A1 2.44318e-05
*RES
1 *1358:Q *302:6 12.3 
2 *302:6 *1246:A 15.8 
3 *302:6 *302:19 9.48214 
4 *302:19 *302:23 7.5 
5 *302:23 *1248:A1 13.0321 
6 *302:23 *1226:B 9.3 
7 *302:19 *302:41 6.44643 
8 *302:41 *1294:A2 9.3 
9 *302:41 *1311:A1 13.9786 
*END

*D_NET *303 0.00196133
*CONN
*I *1311:C1 I *D sky130_fd_sc_hd__o211a_1
*I *1294:A1 I *D sky130_fd_sc_hd__o211a_1
*I *1226:A I *D sky130_fd_sc_hd__and3_1
*I *1248:B1 I *D sky130_fd_sc_hd__a31o_1
*I *1359:Q O *D sky130_fd_sc_hd__dfxtp_1
*CAP
1 *1311:C1 2.4259e-05
2 *1294:A1 0
3 *1226:A 1.7586e-05
4 *1248:B1 4.54956e-05
5 *1359:Q 0
6 *303:32 0.000192728
7 *303:12 0.00021112
8 *303:4 0.000316508
9 *1248:A1 *1248:B1 0.000276211
10 *1311:A1 *1311:C1 0.000188586
11 *1311:A1 *303:32 3.18988e-05
12 *1311:A2 *1226:A 2.08464e-05
13 *1311:A2 *1248:B1 8.91987e-05
14 *1311:A2 *303:12 3.03304e-05
15 *1311:B1 *1311:C1 9.77274e-05
16 *1311:B1 *303:32 9.60939e-05
17 *167:8 *303:12 0
18 *301:45 *1248:B1 0.000268592
19 *302:19 *303:12 0
20 *302:23 *1248:B1 3.48705e-05
21 *302:23 *303:12 1.92789e-05
22 *302:41 *303:12 0
*RES
1 *1359:Q *303:4 9.3 
2 *303:4 *303:12 11.4821 
3 *303:12 *1248:B1 12.7107 
4 *303:12 *1226:A 9.72857 
5 *303:4 *303:32 3.33929 
6 *303:32 *1294:A1 9.3 
7 *303:32 *1311:C1 11.0679 
*END

*D_NET *304 0.00584789
*CONN
*I *1251:A I *D sky130_fd_sc_hd__xor2_1
*I *1229:D I *D sky130_fd_sc_hd__and4_1
*I *1253:B I *D sky130_fd_sc_hd__and4_1
*I *1254:A1 I *D sky130_fd_sc_hd__a31o_1
*I *1233:A I *D sky130_fd_sc_hd__and4_1
*I *1360:Q O *D sky130_fd_sc_hd__dfxtp_1
*CAP
1 *1251:A 0
2 *1229:D 0.000385758
3 *1253:B 0
4 *1254:A1 0.000201612
5 *1233:A 0.000101987
6 *1360:Q 0
7 *304:31 0.000231699
8 *304:29 0.000819613
9 *304:27 0.00127323
10 *304:6 0.000971447
11 *1229:D *307:29 8.18233e-06
12 *1254:A1 *306:37 0.000150618
13 *1225:B *304:27 0
14 *1225:B *304:29 0
15 *1234:C *304:27 0
16 *1240:B1 *304:29 0
17 *1249:A *304:29 0
18 *1251:B *304:27 0
19 *1251:B *304:29 0
20 *1252:A1 *1233:A 5.62995e-05
21 *1252:A2 *304:29 0
22 *1254:A2 *1254:A1 0.000246655
23 *1254:A2 *304:31 1.02504e-05
24 *1255:A_N *1254:A1 9.43486e-06
25 *1314:C *1229:D 0.000395797
26 *1360:D *304:27 0
27 *1360:D *304:29 0
28 *166:8 *304:29 0
29 *166:14 *304:29 0
30 *166:18 *304:29 0.000248486
31 *166:18 *304:31 6.81083e-05
32 *167:39 *304:29 1.31516e-05
33 *170:18 *1229:D 0
34 *174:8 *1233:A 0
35 *174:8 *304:27 0
36 *236:18 *1254:A1 2.82057e-05
37 *236:18 *304:29 1.17968e-05
38 *236:18 *304:31 3.57844e-05
39 *246:47 *304:27 0.00028223
40 *268:33 *1233:A 0.000104974
41 *268:33 *304:27 0.000192577
*RES
1 *1360:Q *304:6 13.8 
2 *304:6 *1233:A 16.0857 
3 *304:6 *304:27 21.5357 
4 *304:27 *304:29 8.32143 
5 *304:29 *304:31 1.03571 
6 *304:31 *1254:A1 18.4429 
7 *304:31 *1253:B 13.8 
8 *304:29 *1229:D 28.2643 
9 *304:27 *1251:A 13.8 
*END

*D_NET *305 0.00237406
*CONN
*I *1228:C I *D sky130_fd_sc_hd__and3_1
*I *1254:B1 I *D sky130_fd_sc_hd__a31o_1
*I *1229:C I *D sky130_fd_sc_hd__and4_1
*I *1253:A I *D sky130_fd_sc_hd__and4_1
*I *1361:Q O *D sky130_fd_sc_hd__dfxtp_1
*CAP
1 *1228:C 8.71034e-05
2 *1254:B1 0.000180621
3 *1229:C 1.9971e-05
4 *1253:A 0
5 *1361:Q 0.000108554
6 *305:24 0.000281422
7 *305:15 0.000212971
8 *305:8 0.000287857
9 *1228:C *1228:A 7.86956e-05
10 *1228:C *1228:B 0.000118687
11 *1254:B1 *1228:B 0
12 *1254:B1 *307:29 0.000150625
13 *305:15 *1228:A 2.41665e-05
14 *305:15 *1229:B 0.000127651
15 *305:15 *306:37 0.000220935
16 *305:24 *1228:A 3.18676e-05
17 *1255:A_N *1254:B1 8.17173e-05
18 *170:18 *1228:C 9.83388e-05
19 *170:18 *1254:B1 0
20 *187:10 *1228:C 1.98839e-05
21 *187:10 *1254:B1 0.000126439
22 *187:10 *305:15 9.66697e-05
23 *187:10 *305:24 1.98839e-05
*RES
1 *1361:Q *305:8 11.0857 
2 *305:8 *1253:A 9.3 
3 *305:8 *305:15 4.23214 
4 *305:15 *1229:C 9.72857 
5 *305:15 *305:24 0.535714 
6 *305:24 *1254:B1 22.8536 
7 *305:24 *1228:C 12.4071 
*END

*D_NET *306 0.00599145
*CONN
*I *1259:A I *D sky130_fd_sc_hd__and3_1
*I *1229:B I *D sky130_fd_sc_hd__and4_1
*I *1228:B I *D sky130_fd_sc_hd__and3_1
*I *1257:A I *D sky130_fd_sc_hd__xnor2_1
*I *1362:Q O *D sky130_fd_sc_hd__dfxtp_1
*CAP
1 *1259:A 3.14547e-05
2 *1229:B 2.44053e-05
3 *1228:B 0.000477075
4 *1257:A 0
5 *1362:Q 0.000374059
6 *306:37 0.000979859
7 *306:29 0.000791684
8 *306:12 0.00065591
9 *1228:B *1228:A 0.000269808
10 *1228:B *1229:A 5.49489e-05
11 *1229:B *1228:A 4.25176e-05
12 *1229:B *1229:A 5.49489e-05
13 *306:37 *307:29 0
14 *1228:C *1228:B 0.000118687
15 *1254:A1 *306:37 0.000150618
16 *1254:A2 *306:37 1.41029e-05
17 *1254:A3 *306:37 2.6949e-05
18 *1254:B1 *1228:B 0
19 *1256:B1 *306:29 5.33005e-05
20 *1256:B1 *306:37 0
21 *1257:B *1259:A 9.90431e-05
22 *1257:B *306:29 0.000713063
23 *1258:A1 *306:29 5.58941e-05
24 *1258:A2 *306:29 0
25 *1259:C *1259:A 1.3701e-05
26 *1288:A *306:12 0.00010326
27 *1288:B *306:12 1.02504e-05
28 *1362:D *306:29 5.41794e-05
29 *191:12 *306:37 0
30 *236:18 *306:37 0.000175526
31 *266:96 *1259:A 4.88637e-05
32 *266:96 *306:29 0.000195455
33 *268:72 *306:29 5.33005e-05
34 *305:15 *1229:B 0.000127651
35 *305:15 *306:37 0.000220935
*RES
1 *1362:Q *306:12 24.9607 
2 *306:12 *1257:A 9.3 
3 *306:12 *306:29 17.6964 
4 *306:29 *306:37 18.8929 
5 *306:37 *1228:B 17.1437 
6 *306:37 *1229:B 10.6571 
7 *306:29 *1259:A 10.675 
*END

*D_NET *307 0.00286972
*CONN
*I *1409:A I *D sky130_fd_sc_hd__dlygate4sd3_1
*I *1228:A I *D sky130_fd_sc_hd__and3_1
*I *1229:A I *D sky130_fd_sc_hd__and4_1
*I *1260:A1 I *D sky130_fd_sc_hd__a21oi_1
*I *1363:Q O *D sky130_fd_sc_hd__dfxtp_1
*CAP
1 *1409:A 6.74458e-05
2 *1228:A 4.88957e-05
3 *1229:A 1.21804e-05
4 *1260:A1 0
5 *1363:Q 0
6 *307:29 0.000598268
7 *307:10 0.000772473
8 *307:4 0.000302727
9 *1228:B *1228:A 0.000269808
10 *1228:B *1229:A 5.49489e-05
11 *1228:C *1228:A 7.86956e-05
12 *1229:B *1228:A 4.25176e-05
13 *1229:B *1229:A 5.49489e-05
14 *1229:D *307:29 8.18233e-06
15 *1254:B1 *307:29 0.000150625
16 *1261:A2 *307:10 9.9129e-05
17 *1261:A2 *307:29 3.27461e-05
18 *1261:B1 *307:29 1.85027e-05
19 *170:18 *307:29 0
20 *187:10 *307:29 3.45894e-05
21 *187:20 *307:29 0.000142997
22 *191:12 *307:29 2.40056e-05
23 *305:15 *1228:A 2.41665e-05
24 *305:24 *1228:A 3.18676e-05
25 *306:37 *307:29 0
*RES
1 *1363:Q *307:4 9.3 
2 *307:4 *307:10 7.60714 
3 *307:10 *1260:A1 13.8 
4 *307:10 *307:29 14.5536 
5 *307:29 *1229:A 9.83571 
6 *307:29 *1228:A 11.8893 
7 *307:4 *1409:A 10.5679 
*END

*D_NET *308 0.00263921
*CONN
*I *1131:D_N I *D sky130_fd_sc_hd__or4b_2
*I *1119:A I *D sky130_fd_sc_hd__or4b_2
*I *1125:A I *D sky130_fd_sc_hd__or4b_1
*I *1133:A I *D sky130_fd_sc_hd__or4b_1
*I *1376:Q O *D sky130_fd_sc_hd__dfxtp_1
*CAP
1 *1131:D_N 4.67858e-05
2 *1119:A 2.23854e-05
3 *1125:A 0.000153246
4 *1133:A 0
5 *1376:Q 0.000124733
6 *308:38 8.25229e-05
7 *308:21 0.000331463
8 *308:12 0.000289598
9 *1119:A *1131:C 0
10 *1125:A *1125:C 0.000229246
11 *1125:A *1125:D_N 2.59355e-05
12 *1125:A *310:10 9.69119e-06
13 *1125:A *311:36 1.69115e-05
14 *1125:A *311:45 7.79781e-06
15 *1131:D_N *1131:A 0.00021843
16 *1131:D_N *1131:C 8.86413e-05
17 *308:21 *1131:C 6.87574e-05
18 *308:21 *1133:C 0.00018077
19 *308:21 *309:43 9.46929e-05
20 *308:38 *1131:A 1.33343e-05
21 *308:38 *1131:C 2.28598e-05
22 *308:38 *309:43 2.14757e-05
23 *1126:A *1125:A 1.02821e-05
24 *1134:B *1125:A 0.000103783
25 *1134:D *308:12 5.62995e-05
26 *1134:D *308:21 2.95641e-05
27 *1136:C *308:12 0
28 *88:12 *1125:A 0.000102545
29 *96:14 *1125:A 0.000100831
30 *98:10 *308:12 3.18676e-05
31 *101:16 *308:12 0.000154762
*RES
1 *1376:Q *308:12 21.6036 
2 *308:12 *1133:A 9.3 
3 *308:12 *308:21 4.25 
4 *308:21 *1125:A 22.7464 
5 *308:21 *308:38 0.535714 
6 *308:38 *1119:A 9.72857 
7 *308:38 *1131:D_N 11.4964 
*END

*D_NET *309 0.00465141
*CONN
*I *1119:B I *D sky130_fd_sc_hd__or4b_2
*I *1131:A I *D sky130_fd_sc_hd__or4b_2
*I *1133:D_N I *D sky130_fd_sc_hd__or4b_1
*I *1125:B I *D sky130_fd_sc_hd__or4b_1
*I *1158:A I *D sky130_fd_sc_hd__xor2_1
*I *1377:Q O *D sky130_fd_sc_hd__dfxtp_1
*CAP
1 *1119:B 0
2 *1131:A 0.000136308
3 *1133:D_N 0
4 *1125:B 0.000253623
5 *1158:A 0
6 *1377:Q 0.000132577
7 *309:43 0.000338979
8 *309:30 0.000310241
9 *309:19 0.000804039
10 *309:8 0.000575422
11 *1131:A *1131:B 0.000192212
12 *1131:A *1131:C 0.000156902
13 *309:19 *311:10 0
14 *309:19 *311:23 0
15 *309:30 *1125:C 0.00010326
16 *309:43 *1125:C 3.34295e-05
17 *309:43 *1133:B 1.02504e-05
18 *309:43 *310:10 6.98302e-05
19 *1126:A *1125:B 9.60875e-05
20 *1131:D_N *1131:A 0.00021843
21 *1134:B *1125:B 1.21289e-05
22 *1134:D *309:30 7.6644e-05
23 *1136:C *309:30 1.31516e-05
24 *1136:C *309:43 4.40802e-05
25 *1158:B *309:8 0.0001409
26 *1159:B_N *309:19 0.000295255
27 *1159:B_N *309:30 5.61055e-05
28 *1159:C *309:19 0.000150618
29 *1159:D *309:19 6.42338e-05
30 *88:12 *309:30 2.81086e-05
31 *88:18 *309:19 0
32 *88:18 *309:30 0
33 *96:14 *1125:B 9.31893e-05
34 *96:20 *1125:B 2.89114e-05
35 *245:75 *309:19 0
36 *269:25 *309:8 9.22103e-06
37 *269:25 *309:19 7.77652e-05
38 *308:21 *309:43 9.46929e-05
39 *308:38 *1131:A 1.33343e-05
40 *308:38 *309:43 2.14757e-05
*RES
1 *1377:Q *309:8 12.2107 
2 *309:8 *1158:A 9.3 
3 *309:8 *309:19 14.7857 
4 *309:19 *1125:B 17.2107 
5 *309:19 *309:30 2.85714 
6 *309:30 *1133:D_N 13.8 
7 *309:30 *309:43 8.01786 
8 *309:43 *1131:A 13.9964 
9 *309:43 *1119:B 9.3 
*END

*D_NET *310 0.0037663
*CONN
*I *1119:D_N I *D sky130_fd_sc_hd__or4b_2
*I *1131:C I *D sky130_fd_sc_hd__or4b_2
*I *1133:C I *D sky130_fd_sc_hd__or4b_1
*I *1125:C I *D sky130_fd_sc_hd__or4b_1
*I *1378:Q O *D sky130_fd_sc_hd__dfxtp_1
*CAP
1 *1119:D_N 0
2 *1131:C 0.00028713
3 *1133:C 6.81392e-05
4 *1125:C 0.000365307
5 *1378:Q 0.000346168
6 *310:25 0.000355269
7 *310:10 0.000711475
8 *1125:C *1125:D_N 1.56e-05
9 *310:10 *1133:B 3.34687e-05
10 *310:10 *311:45 0
11 *1119:A *1131:C 0
12 *1125:A *1125:C 0.000229246
13 *1125:A *310:10 9.69119e-06
14 *1131:A *1131:C 0.000156902
15 *1131:D_N *1131:C 8.86413e-05
16 *1134:B *1125:C 4.43256e-05
17 *1134:D *1133:C 4.87854e-05
18 *1136:C *310:10 0.000141591
19 *1205:A2 *310:10 5.52302e-05
20 *88:12 *1125:C 3.92854e-05
21 *96:14 *1125:C 1.74352e-05
22 *96:14 *1131:C 0.000268403
23 *96:20 *1125:C 5.30637e-06
24 *250:35 *310:10 0
25 *308:21 *1131:C 6.87574e-05
26 *308:21 *1133:C 0.00018077
27 *308:38 *1131:C 2.28598e-05
28 *309:30 *1125:C 0.00010326
29 *309:43 *1125:C 3.34295e-05
30 *309:43 *310:10 6.98302e-05
*RES
1 *1378:Q *310:10 21.1393 
2 *310:10 *1125:C 19.5857 
3 *310:10 *310:25 4.5 
4 *310:25 *1133:C 11.0679 
5 *310:25 *1131:C 16.0321 
6 *310:25 *1119:D_N 9.3 
*END

*D_NET *311 0.00519076
*CONN
*I *1133:B I *D sky130_fd_sc_hd__or4b_1
*I *1131:B I *D sky130_fd_sc_hd__or4b_2
*I *1119:C I *D sky130_fd_sc_hd__or4b_2
*I *1125:D_N I *D sky130_fd_sc_hd__or4b_1
*I *1151:A1 I *D sky130_fd_sc_hd__o21a_1
*I *1379:Q O *D sky130_fd_sc_hd__dfxtp_1
*CAP
1 *1133:B 0.000387041
2 *1131:B 0.000185024
3 *1119:C 0
4 *1125:D_N 0.000101435
5 *1151:A1 0
6 *1379:Q 0.000661078
7 *311:45 0.000621733
8 *311:36 0.000144929
9 *311:23 0.000462904
10 *311:10 0.000927287
11 *1125:A *1125:D_N 2.59355e-05
12 *1125:A *311:36 1.69115e-05
13 *1125:A *311:45 7.79781e-06
14 *1125:C *1125:D_N 1.56e-05
15 *1126:A *1125:D_N 0.000306485
16 *1131:A *1131:B 0.000192212
17 *1134:B *1125:D_N 0
18 *1136:C *1133:B 8.00806e-05
19 *1159:C *311:10 2.56601e-05
20 *1323:B *311:10 0.000128154
21 *1323:B *311:23 3.34295e-05
22 *1379:CLK *311:10 2.59355e-05
23 *1379:D *311:10 3.32132e-06
24 *1393:A *311:10 3.06878e-06
25 *88:12 *311:23 5.7836e-06
26 *88:18 *311:23 5.03894e-05
27 *96:14 *311:23 3.47641e-06
28 *96:14 *311:36 6.43284e-05
29 *110:10 *311:23 0.000117189
30 *245:71 *311:10 6.05161e-06
31 *250:35 *1133:B 6.5567e-05
32 *250:35 *311:23 0.000207825
33 *250:35 *311:36 0.000192055
34 *250:35 *311:45 7.83587e-05
35 *309:19 *311:10 0
36 *309:19 *311:23 0
37 *309:43 *1133:B 1.02504e-05
38 *310:10 *1133:B 3.34687e-05
39 *310:10 *311:45 0
*RES
1 *1379:Q *311:10 22.1393 
2 *311:10 *1151:A1 13.8 
3 *311:10 *311:23 6.46429 
4 *311:23 *1125:D_N 16.8179 
5 *311:23 *311:36 2.55357 
6 *311:36 *1119:C 13.8 
7 *311:36 *311:45 1.03571 
8 *311:45 *1131:B 16.3893 
9 *311:45 *1133:B 28.5321 
*END

*D_NET *312 0.00523587
*CONN
*I *1161:A I *D sky130_fd_sc_hd__nand2_1
*I *1162:A I *D sky130_fd_sc_hd__or2_1
*I *1168:A1 I *D sky130_fd_sc_hd__a31o_1
*I *1167:A I *D sky130_fd_sc_hd__and4_1
*I *1164:A I *D sky130_fd_sc_hd__nand3_1
*I *1165:A1 I *D sky130_fd_sc_hd__a21o_1
*I *1160:A_N I *D sky130_fd_sc_hd__and2b_1
*I *1330:Q O *D sky130_fd_sc_hd__dfxtp_1
*CAP
1 *1161:A 4.28285e-05
2 *1162:A 0
3 *1168:A1 0.000139213
4 *1167:A 0
5 *1164:A 0
6 *1165:A1 0.000196529
7 *1160:A_N 0.000109618
8 *1330:Q 0
9 *312:71 0.000282809
10 *312:45 0.000579334
11 *312:29 0.000552163
12 *312:21 0.000999305
13 *312:10 0.000420091
14 *312:6 0.000346903
15 *1161:A *1162:B 5.68713e-05
16 *1165:A1 *1164:B 4.72818e-05
17 *1165:A1 *320:19 9.77118e-05
18 *1168:A1 *1167:B 3.97677e-05
19 *1168:A1 *1168:B1 0.000103253
20 *312:29 *1404:A 4.1331e-06
21 *312:45 *1167:B 7.48091e-05
22 *1163:A *312:10 0
23 *1163:A *312:71 0.000230482
24 *1163:B *1161:A 5.08111e-05
25 *1163:B *312:71 8.00847e-05
26 *1163:C *312:71 0.000128283
27 *1169:B *1168:A1 0.00012401
28 *1169:C *1168:A1 3.80904e-05
29 *1193:A *312:29 5.20751e-05
30 *1333:D *1168:A1 9.41642e-05
31 *1333:D *312:45 5.52238e-05
32 *244:12 *1168:A1 4.98968e-05
33 *264:14 *1165:A1 1.16111e-05
34 *264:14 *312:29 0.000228514
35 *264:38 *312:10 0
*RES
1 *1330:Q *312:6 13.8 
2 *312:6 *312:10 6.14286 
3 *312:10 *1160:A_N 11.0679 
4 *312:10 *312:21 3.42857 
5 *312:21 *312:29 16.1607 
6 *312:29 *1165:A1 12.2107 
7 *312:29 *1164:A 9.3 
8 *312:21 *312:45 7.51786 
9 *312:45 *1167:A 9.3 
10 *312:45 *1168:A1 22.3357 
11 *312:6 *312:71 10.5893 
12 *312:71 *1162:A 9.3 
13 *312:71 *1161:A 10.6571 
*END

*D_NET *313 0.00452262
*CONN
*I *1152:B1 I *D sky130_fd_sc_hd__o211a_1
*I *1143:A I *D sky130_fd_sc_hd__or3_1
*I *1190:B I *D sky130_fd_sc_hd__and4_1
*I *1187:B1 I *D sky130_fd_sc_hd__a21o_1
*I *1188:A I *D sky130_fd_sc_hd__and3_1
*I *1340:Q O *D sky130_fd_sc_hd__dfxtp_1
*CAP
1 *1152:B1 0.000182103
2 *1143:A 0
3 *1190:B 0.000128518
4 *1187:B1 5.27429e-05
5 *1188:A 0.000121316
6 *1340:Q 0
7 *313:41 0.000280176
8 *313:30 0.000339166
9 *313:19 0.000480226
10 *313:4 0.000436226
11 *1152:B1 *1152:A1 5.33005e-05
12 *1152:B1 *1152:A2 5.33005e-05
13 *1188:A *314:10 3.67142e-05
14 *1190:B *1140:A 0.00010096
15 *1190:B *314:23 0.000129515
16 *1188:B *1188:A 9.99644e-06
17 *1188:B *313:19 0
18 *1189:C *1187:B1 9.90431e-05
19 *1190:C *1190:B 6.87574e-05
20 *1340:D *313:19 0.000102545
21 *103:25 *1190:B 8.40933e-05
22 *105:10 *1190:B 0.000443654
23 *107:12 *1152:B1 0.000123288
24 *133:33 *1187:B1 0.000102207
25 *143:12 *1188:A 0.000185643
26 *265:33 *313:19 0.000131123
27 *265:33 *313:30 7.22594e-05
28 *265:42 *313:30 0.000153047
29 *265:42 *313:41 0.00013966
30 *265:57 *1152:B1 0.000379596
31 *265:57 *313:41 3.34366e-05
32 *289:8 *1152:B1 0
33 *289:8 *313:19 0
34 *289:8 *313:30 0
35 *289:8 *313:41 0
*RES
1 *1340:Q *313:4 9.3 
2 *313:4 *1188:A 12.4071 
3 *313:4 *313:19 9.83929 
4 *313:19 *1187:B1 15.5679 
5 *313:19 *313:30 2.85714 
6 *313:30 *1190:B 18.8536 
7 *313:30 *313:41 2.25 
8 *313:41 *1143:A 13.8 
9 *313:41 *1152:B1 19.3179 
*END

*D_NET *314 0.00234438
*CONN
*I *1190:A I *D sky130_fd_sc_hd__and4_1
*I *1140:A I *D sky130_fd_sc_hd__or2_1
*I *1408:A I *D sky130_fd_sc_hd__dlygate4sd3_1
*I *1341:Q O *D sky130_fd_sc_hd__dfxtp_1
*CAP
1 *1190:A 0
2 *1140:A 7.38639e-05
3 *1408:A 0
4 *1341:Q 0.000239964
5 *314:23 0.000234635
6 *314:10 0.000400735
7 *1188:A *314:10 3.67142e-05
8 *1188:B *314:10 0.000246505
9 *1188:B *314:23 7.63851e-05
10 *1188:C *314:10 5.15476e-05
11 *1188:C *314:23 0
12 *1190:B *1140:A 0.00010096
13 *1190:B *314:23 0.000129515
14 *1190:C *1140:A 0.000144773
15 *1190:C *314:23 0.00014285
16 *105:10 *1140:A 0.000117621
17 *133:14 *1140:A 0.000230475
18 *133:18 *314:23 0
19 *143:12 *314:10 9.13205e-05
20 *144:8 *1140:A 2.65105e-05
*RES
1 *1341:Q *314:10 19.9607 
2 *314:10 *1408:A 13.8 
3 *314:10 *314:23 8.71429 
4 *314:23 *1140:A 13.1214 
5 *314:23 *1190:A 9.3 
*END

*D_NET *315 0.00266262
*CONN
*I *1194:A I *D sky130_fd_sc_hd__or2_1
*I *1404:A I *D sky130_fd_sc_hd__dlygate4sd3_1
*I *1141:C I *D sky130_fd_sc_hd__or3_1
*I *1196:B I *D sky130_fd_sc_hd__and3_1
*I *1197:A1 I *D sky130_fd_sc_hd__a21o_1
*I *1342:Q O *D sky130_fd_sc_hd__dfxtp_1
*CAP
1 *1194:A 0
2 *1404:A 0.0001375
3 *1141:C 0.000101919
4 *1196:B 0.000122941
5 *1197:A1 0
6 *1342:Q 0.000118039
7 *315:45 0.000192198
8 *315:23 0.000334184
9 *315:14 0.000255006
10 *315:8 0.00031842
11 *1141:C *1141:B 5.20751e-05
12 *1141:C *1197:B1 4.43256e-05
13 *1196:B *1141:B 2.49484e-05
14 *1196:B *316:10 6.22185e-05
15 *1196:B *316:19 5.84171e-05
16 *315:23 *1197:B1 0.000103425
17 *1193:A *1404:A 0
18 *1195:A *315:8 0.000184745
19 *1195:A *315:45 5.52302e-05
20 *1195:B *315:8 2.89016e-05
21 *1195:B *315:45 1.38323e-05
22 *1195:C *315:45 2.44318e-05
23 *1198:C *1196:B 0
24 *1198:C *315:14 0
25 *1342:D *315:8 2.28499e-05
26 *144:29 *1196:B 4.25809e-05
27 *144:29 *315:14 1.02504e-05
28 *144:44 *1196:B 1.19309e-05
29 *144:44 *315:14 0.000189455
30 *144:44 *315:45 0.000142856
31 *148:8 *1196:B 5.80706e-06
32 *264:16 *1404:A 0
33 *312:29 *1404:A 4.1331e-06
*RES
1 *1342:Q *315:8 12.2107 
2 *315:8 *315:14 11.8571 
3 *315:14 *1197:A1 9.3 
4 *315:14 *315:23 2.19643 
5 *315:23 *1196:B 21.7643 
6 *315:23 *1141:C 11.4964 
7 *315:8 *315:45 1.76786 
8 *315:45 *1404:A 20.55 
9 *315:45 *1194:A 9.3 
*END

*D_NET *316 0.001859
*CONN
*I *1141:B I *D sky130_fd_sc_hd__or3_1
*I *1197:B1 I *D sky130_fd_sc_hd__a21o_1
*I *1196:A I *D sky130_fd_sc_hd__and3_1
*I *1343:Q O *D sky130_fd_sc_hd__dfxtp_1
*CAP
1 *1141:B 0.000147073
2 *1197:B1 0.000218503
3 *1196:A 0
4 *1343:Q 0.000268019
5 *316:19 0.000445185
6 *316:10 0.000347628
7 *1141:B *1141:A 0
8 *316:10 *1141:A 0
9 *316:19 *1141:A 0
10 *1141:C *1141:B 5.20751e-05
11 *1141:C *1197:B1 4.43256e-05
12 *1196:B *1141:B 2.49484e-05
13 *1196:B *316:10 6.22185e-05
14 *1196:B *316:19 5.84171e-05
15 *144:44 *1141:B 0
16 *148:8 *316:10 0
17 *244:30 *316:10 8.71847e-05
18 *315:23 *1197:B1 0.000103425
*RES
1 *1343:Q *316:10 18.2286 
2 *316:10 *1196:A 13.8 
3 *316:10 *316:19 1.64286 
4 *316:19 *1197:B1 17.6393 
5 *316:19 *1141:B 16.0857 
*END

*D_NET *317 0.00207446
*CONN
*I *1141:A I *D sky130_fd_sc_hd__or3_1
*I *1199:A I *D sky130_fd_sc_hd__and2_1
*I *1200:A I *D sky130_fd_sc_hd__or2_1
*I *1344:Q O *D sky130_fd_sc_hd__dfxtp_1
*CAP
1 *1141:A 0.000385093
2 *1199:A 0
3 *1200:A 4.52787e-05
4 *1344:Q 0.000321572
5 *317:12 4.52787e-05
6 *317:10 0.000706665
7 *1141:B *1141:A 0
8 *1199:B *1200:A 0.000174939
9 *1201:A_N *1141:A 0
10 *1201:A_N *317:10 0
11 *1201:B *1141:A 4.66511e-05
12 *1201:B *317:10 0.000121573
13 *1203:B *1141:A 0
14 *106:10 *1141:A 9.87617e-05
15 *244:30 *1200:A 0.000128646
16 *316:10 *1141:A 0
17 *316:19 *1141:A 0
*RES
1 *1344:Q *317:10 17.6214 
2 *317:10 *317:12 4.5 
3 *317:12 *1200:A 11.0857 
4 *317:12 *1199:A 9.3 
5 *317:10 *1141:A 20.55 
*END

*D_NET *318 0.00214896
*CONN
*I *1140:B I *D sky130_fd_sc_hd__or2_1
*I *1399:A I *D sky130_fd_sc_hd__dlygate4sd3_1
*I *1202:A I *D sky130_fd_sc_hd__or2_1
*I *1345:Q O *D sky130_fd_sc_hd__dfxtp_1
*CAP
1 *1140:B 0.000142012
2 *1399:A 0
3 *1202:A 0.000348713
4 *1345:Q 0
5 *318:23 0.000272713
6 *318:4 0.000479415
7 *1191:A *318:23 5.33978e-05
8 *1192:C1 *1202:A 0.000265352
9 *1192:C1 *318:23 3.48705e-05
10 *1204:B *1202:A 0.000139663
11 *1345:D *1202:A 5.95099e-05
12 *133:14 *1140:B 2.27416e-05
13 *144:8 *1140:B 0.000126639
14 *144:23 *1140:B 3.32631e-05
15 *144:23 *318:23 2.58997e-05
16 *244:22 *1202:A 0.000144773
17 *264:88 *318:23 0
*RES
1 *1345:Q *318:4 9.3 
2 *318:4 *1202:A 17.675 
3 *318:4 *318:23 11.8929 
4 *318:23 *1399:A 9.3 
5 *318:23 *1140:B 12.7286 
*END

*D_NET *319 0.00332776
*CONN
*I *1162:B I *D sky130_fd_sc_hd__or2_1
*I *1161:B I *D sky130_fd_sc_hd__nand2_1
*I *1167:B I *D sky130_fd_sc_hd__and4_1
*I *1168:A2 I *D sky130_fd_sc_hd__a31o_1
*I *1165:A2 I *D sky130_fd_sc_hd__a21o_1
*I *1164:B I *D sky130_fd_sc_hd__nand3_1
*I *1331:Q O *D sky130_fd_sc_hd__dfxtp_1
*CAP
1 *1162:B 9.19416e-05
2 *1161:B 0
3 *1167:B 0.000174859
4 *1168:A2 8.16534e-05
5 *1165:A2 0
6 *1164:B 2.60683e-05
7 *1331:Q 0.000182749
8 *319:56 0.000223695
9 *319:24 0.000316307
10 *319:16 0.000452492
11 *319:12 0.000404837
12 *319:10 0.000463881
13 *1164:B *320:19 5.49544e-05
14 *1168:A2 *320:27 9.31893e-05
15 *1168:A2 *320:36 3.18676e-05
16 *319:24 *320:27 0.000127123
17 *1161:A *1162:B 5.68713e-05
18 *1163:B *1162:B 1.13883e-05
19 *1165:A1 *1164:B 4.72818e-05
20 *1168:A1 *1167:B 3.97677e-05
21 *1169:B *1168:A2 5.17614e-05
22 *1169:C *319:10 1.19402e-05
23 *1169:C *319:12 5.25915e-05
24 *1169:C *319:16 4.35048e-05
25 *1333:D *319:12 6.97972e-05
26 *264:14 *1164:B 0.000142427
27 *312:45 *1167:B 7.48091e-05
*RES
1 *1331:Q *319:10 16.3893 
2 *319:10 *319:12 3.46429 
3 *319:12 *319:16 6.14286 
4 *319:16 *319:24 14.4464 
5 *319:24 *1164:B 10.6571 
6 *319:24 *1165:A2 9.3 
7 *319:16 *1168:A2 11.4786 
8 *319:12 *1167:B 15.9786 
9 *319:10 *319:56 6.67857 
10 *319:56 *1161:B 9.3 
11 *319:56 *1162:B 11.0857 
*END

*D_NET *320 0.00432282
*CONN
*I *1165:B1 I *D sky130_fd_sc_hd__a21o_1
*I *1147:A2 I *D sky130_fd_sc_hd__o2111a_1
*I *1167:D I *D sky130_fd_sc_hd__and4_1
*I *1168:A3 I *D sky130_fd_sc_hd__a31o_1
*I *1164:C I *D sky130_fd_sc_hd__nand3_1
*I *1332:Q O *D sky130_fd_sc_hd__dfxtp_1
*CAP
1 *1165:B1 0
2 *1147:A2 0.00098107
3 *1167:D 0.000136634
4 *1168:A3 2.23854e-05
5 *1164:C 0
6 *1332:Q 9.65967e-05
7 *320:36 0.00122144
8 *320:27 0.000410476
9 *320:19 0.000367795
10 *320:10 0.000180034
11 *1147:A2 *1139:A1 1.58163e-05
12 *1147:A2 *1139:C1 5.33882e-05
13 *1147:A2 *1147:A1 0.00010326
14 *1167:D *321:10 5.33005e-05
15 *320:36 *1168:B1 1.92789e-05
16 *1164:B *320:19 5.49544e-05
17 *1165:A1 *320:19 9.77118e-05
18 *1166:A *320:19 1.17091e-05
19 *1168:A2 *320:27 9.31893e-05
20 *1168:A2 *320:36 3.18676e-05
21 *244:12 *1167:D 0.000173804
22 *264:14 *320:19 7.09928e-05
23 *319:24 *320:27 0.000127123
*RES
1 *1332:Q *320:10 19.6393 
2 *320:10 *1164:C 9.3 
3 *320:10 *320:19 2.19643 
4 *320:19 *320:27 14.25 
5 *320:27 *1168:A3 9.72857 
6 *320:27 *320:36 1.76786 
7 *320:36 *1167:D 21.0857 
8 *320:36 *1147:A2 33.7286 
9 *320:19 *1165:B1 9.3 
*END

*D_NET *321 0.00434667
*CONN
*I *1139:A1 I *D sky130_fd_sc_hd__o211a_1
*I *1147:A1 I *D sky130_fd_sc_hd__o2111a_1
*I *1167:C I *D sky130_fd_sc_hd__and4_1
*I *1168:B1 I *D sky130_fd_sc_hd__a31o_1
*I *1333:Q O *D sky130_fd_sc_hd__dfxtp_1
*CAP
1 *1139:A1 0.000253135
2 *1147:A1 0.000127829
3 *1167:C 0
4 *1168:B1 9.5157e-05
5 *1333:Q 0
6 *321:36 0.000937392
7 *321:10 0.000509441
8 *321:4 0.000970712
9 *1139:A1 *1139:C1 5.52302e-05
10 *1147:A1 *1139:C1 2.41317e-05
11 *1147:A1 *1147:C1 1.76039e-05
12 *1147:A1 *322:10 0
13 *1147:A1 *322:48 0
14 *321:36 *322:10 0
15 *321:36 *322:48 0
16 *1147:A2 *1139:A1 1.58163e-05
17 *1147:A2 *1147:A1 0.00010326
18 *1154:A1 *1139:A1 0
19 *1167:D *321:10 5.33005e-05
20 *1168:A1 *1168:B1 0.000103253
21 *1172:A *321:10 5.7661e-06
22 *1172:C *321:36 2.0954e-05
23 *1333:CLK *321:10 0.000142856
24 *1333:D *321:10 0.000131281
25 *1392:A *321:10 0.000186669
26 *1392:A *321:36 4.58976e-05
27 *129:21 *321:10 0.000103151
28 *244:12 *1168:B1 0.000103267
29 *265:57 *321:36 0.000321285
30 *320:36 *1168:B1 1.92789e-05
*RES
1 *1333:Q *321:4 9.3 
2 *321:4 *321:10 8.78571 
3 *321:10 *1168:B1 20.6036 
4 *321:10 *1167:C 9.3 
5 *321:4 *321:36 12.5357 
6 *321:36 *1147:A1 16.6571 
7 *321:36 *1139:A1 17.6393 
*END

*D_NET *322 0.0056479
*CONN
*I *1139:A2 I *D sky130_fd_sc_hd__o211a_1
*I *1152:A2 I *D sky130_fd_sc_hd__o211a_1
*I *1147:C1 I *D sky130_fd_sc_hd__o2111a_1
*I *1171:A I *D sky130_fd_sc_hd__or2_1
*I *1170:A I *D sky130_fd_sc_hd__nand2_1
*I *1173:B I *D sky130_fd_sc_hd__and3_2
*I *1174:A1 I *D sky130_fd_sc_hd__a21o_1
*I *1334:Q O *D sky130_fd_sc_hd__dfxtp_1
*CAP
1 *1139:A2 0
2 *1152:A2 7.85133e-05
3 *1147:C1 0.000128566
4 *1171:A 0.000139008
5 *1170:A 0
6 *1173:B 0
7 *1174:A1 0.0001253
8 *1334:Q 0.000344342
9 *322:48 0.000668997
10 *322:35 0.000552374
11 *322:22 0.000365867
12 *322:20 0.000489202
13 *322:14 0.00027653
14 *322:10 0.000399905
15 *1147:C1 *1139:C1 5.66157e-05
16 *1147:C1 *1152:A1 2.57655e-05
17 *1147:C1 *323:12 0
18 *1147:C1 *323:36 2.89114e-05
19 *1152:A2 *1152:A1 4.71153e-05
20 *1174:A1 *1174:B1 3.01979e-05
21 *322:20 *1152:A1 7.13597e-05
22 *322:20 *323:36 1.98839e-05
23 *322:22 *1174:B1 2.07382e-05
24 *322:22 *323:36 0.000248788
25 *1139:B1 *322:14 0.000202842
26 *1147:A1 *1147:C1 1.76039e-05
27 *1147:A1 *322:10 0
28 *1147:A1 *322:48 0
29 *1152:B1 *1152:A2 5.33005e-05
30 *1152:C1 *1152:A2 8.57023e-05
31 *1152:C1 *322:20 5.52302e-05
32 *1170:B *1171:A 0.00014183
33 *1172:B *322:48 0.000267814
34 *1172:C *1171:A 5.33005e-05
35 *1172:C *322:48 0
36 *1173:C *1174:A1 0.000186669
37 *1287:B1 *322:10 0
38 *1334:D *322:48 1.3142e-05
39 *1385:A *322:10 5.38072e-05
40 *103:51 *1147:C1 0
41 *112:6 *1152:A2 0.0001827
42 *129:25 *322:48 0
43 *244:163 *322:48 1.37292e-05
44 *265:57 *322:10 9.24395e-05
45 *265:57 *322:14 0.000109809
46 *321:36 *322:10 0
47 *321:36 *322:48 0
*RES
1 *1334:Q *322:10 19.6393 
2 *322:10 *322:14 7.05357 
3 *322:14 *322:20 2.73214 
4 *322:20 *322:22 5.05357 
5 *322:22 *1174:A1 12.3357 
6 *322:22 *322:35 0.428571 
7 *322:35 *1173:B 9.3 
8 *322:35 *322:48 18.875 
9 *322:48 *1170:A 9.3 
10 *322:48 *1171:A 12.175 
11 *322:20 *1147:C1 20.5857 
12 *322:14 *1152:A2 11.9071 
13 *322:10 *1139:A2 13.8 
*END

*D_NET *323 0.00339697
*CONN
*I *1152:A1 I *D sky130_fd_sc_hd__o211a_1
*I *1147:B1 I *D sky130_fd_sc_hd__o2111a_1
*I *1139:C1 I *D sky130_fd_sc_hd__o211a_1
*I *1173:A I *D sky130_fd_sc_hd__and3_2
*I *1174:B1 I *D sky130_fd_sc_hd__a21o_1
*I *1335:Q O *D sky130_fd_sc_hd__dfxtp_1
*CAP
1 *1152:A1 0.000146839
2 *1147:B1 0
3 *1139:C1 0.000127251
4 *1173:A 0
5 *1174:B1 0.000274319
6 *1335:Q 0.0001865
7 *323:36 0.000473363
8 *323:12 0.000660092
9 *1139:A1 *1139:C1 5.52302e-05
10 *1139:B1 *1139:C1 7.7674e-05
11 *1147:A1 *1139:C1 2.41317e-05
12 *1147:A2 *1139:C1 5.33882e-05
13 *1147:C1 *1139:C1 5.66157e-05
14 *1147:C1 *1152:A1 2.57655e-05
15 *1147:C1 *323:12 0
16 *1147:C1 *323:36 2.89114e-05
17 *1147:D1 *1152:A1 0.000354911
18 *1152:A2 *1152:A1 4.71153e-05
19 *1152:B1 *1152:A1 5.33005e-05
20 *1152:C1 *1152:A1 0.000140933
21 *1173:C *1174:B1 0.000185394
22 *1173:C *323:36 1.40034e-05
23 *1174:A1 *1174:B1 3.01979e-05
24 *103:51 *1139:C1 2.8266e-06
25 *112:6 *1152:A1 1.74352e-05
26 *133:8 *323:12 0
27 *322:20 *1152:A1 7.13597e-05
28 *322:20 *323:36 1.98839e-05
29 *322:22 *1174:B1 2.07382e-05
30 *322:22 *323:36 0.000248788
*RES
1 *1335:Q *323:12 20.5857 
2 *323:12 *1174:B1 14.5321 
3 *323:12 *1173:A 9.3 
4 *323:12 *323:36 5.07143 
5 *323:36 *1139:C1 21.6929 
6 *323:36 *1147:B1 9.3 
7 *323:36 *1152:A1 14.7643 
*END

*D_NET *324 0.00362143
*CONN
*I *1177:A I *D sky130_fd_sc_hd__or2_1
*I *1137:B I *D sky130_fd_sc_hd__and3_1
*I *1176:A I *D sky130_fd_sc_hd__nand2_1
*I *1138:B I *D sky130_fd_sc_hd__and4_1
*I *1182:A2 I *D sky130_fd_sc_hd__a31o_1
*I *1336:Q O *D sky130_fd_sc_hd__dfxtp_1
*CAP
1 *1177:A 0
2 *1137:B 0
3 *1176:A 0.00021734
4 *1138:B 0
5 *1182:A2 0.000138542
6 *1336:Q 7.05436e-05
7 *324:36 0.000509077
8 *324:16 0.000138542
9 *324:14 0.000469791
10 *324:8 0.000248597
11 *1176:A *325:10 9.40041e-05
12 *1176:A *325:19 0.00010096
13 *1182:A2 *1137:C 4.18895e-05
14 *1182:A2 *1138:D 0.000184745
15 *1182:A2 *1182:A1 2.28499e-05
16 *1182:A2 *1182:B1 0.000184745
17 *1182:A2 *326:19 4.27935e-05
18 *324:14 *326:10 5.01117e-05
19 *324:36 *325:19 4.14279e-05
20 *324:36 *326:10 1.08359e-05
21 *1176:B *324:8 4.70078e-05
22 *1176:B *324:14 8.76257e-05
23 *1179:B *1176:A 5.52302e-05
24 *102:10 *1182:A2 1.74352e-05
25 *102:10 *324:36 0.000230482
26 *133:56 *324:14 0.000318107
27 *265:20 *324:8 0.00014183
28 *265:20 *324:14 0.000156917
*RES
1 *1336:Q *324:8 11.3893 
2 *324:8 *324:14 10.2679 
3 *324:14 *324:16 4.5 
4 *324:16 *1182:A2 13.1393 
5 *324:16 *1138:B 9.3 
6 *324:14 *324:36 8.83929 
7 *324:36 *1176:A 13.8714 
8 *324:36 *1137:B 9.3 
9 *324:8 *1177:A 9.3 
*END

*D_NET *325 0.00382496
*CONN
*I *1179:A I *D sky130_fd_sc_hd__xnor2_1
*I *1138:A I *D sky130_fd_sc_hd__and4_1
*I *1182:A1 I *D sky130_fd_sc_hd__a31o_1
*I *1137:A I *D sky130_fd_sc_hd__and3_1
*I *1337:Q O *D sky130_fd_sc_hd__dfxtp_1
*CAP
1 *1179:A 2.23854e-05
2 *1138:A 0
3 *1182:A1 6.96182e-05
4 *1137:A 0
5 *1337:Q 0.000569894
6 *325:19 0.000165844
7 *325:10 0.000494099
8 *325:8 0.000990153
9 *1182:A1 *1137:C 0.00014183
10 *1182:A1 *1182:B1 0.000184745
11 *1182:A1 *326:19 5.52302e-05
12 *325:19 *1137:C 0.000133042
13 *1176:A *325:10 9.40041e-05
14 *1176:A *325:19 0.00010096
15 *1179:B *325:10 0.000145807
16 *1182:A2 *1182:A1 2.28499e-05
17 *1337:CLK *325:8 2.89114e-05
18 *1337:D *325:8 1.76204e-05
19 *102:10 *1182:A1 0.000401764
20 *102:10 *325:19 0.000144773
21 *324:36 *325:19 4.14279e-05
*RES
1 *1337:Q *325:8 18.0679 
2 *325:8 *325:10 7.51786 
3 *325:10 *1137:A 9.3 
4 *325:10 *325:19 3.73214 
5 *325:19 *1182:A1 13.1214 
6 *325:19 *1138:A 9.3 
7 *325:8 *1179:A 9.72857 
*END

*D_NET *326 0.00140848
*CONN
*I *1137:C I *D sky130_fd_sc_hd__and3_1
*I *1138:C I *D sky130_fd_sc_hd__and4_1
*I *1182:B1 I *D sky130_fd_sc_hd__a31o_1
*I *1338:Q O *D sky130_fd_sc_hd__dfxtp_1
*CAP
1 *1137:C 0.000153615
2 *1138:C 0
3 *1182:B1 3.14135e-05
4 *1338:Q 8.69712e-05
5 *326:19 0.000163243
6 *326:10 0.000128013
7 *1182:A1 *1137:C 0.00014183
8 *1182:A1 *1182:B1 0.000184745
9 *1182:A1 *326:19 5.52302e-05
10 *1182:A2 *1137:C 4.18895e-05
11 *1182:A2 *1182:B1 0.000184745
12 *1182:A2 *326:19 4.27935e-05
13 *133:56 *326:10 0
14 *324:14 *326:10 5.01117e-05
15 *324:36 *326:10 1.08359e-05
16 *325:19 *1137:C 0.000133042
*RES
1 *1338:Q *326:10 19.9429 
2 *326:10 *1182:B1 11.0679 
3 *326:10 *326:19 0.535714 
4 *326:19 *1138:C 9.3 
5 *326:19 *1137:C 13.1214 
*END

*D_NET *327 0.00379574
*CONN
*I *1148:A I *D sky130_fd_sc_hd__or3_1
*I *1155:A1 I *D sky130_fd_sc_hd__o31ai_1
*I *1184:B1 I *D sky130_fd_sc_hd__a21o_1
*I *1138:D I *D sky130_fd_sc_hd__and4_1
*I *1339:Q O *D sky130_fd_sc_hd__dfxtp_1
*CAP
1 *1148:A 0.000174272
2 *1155:A1 0.00023553
3 *1184:B1 0.000331816
4 *1138:D 0.000315659
5 *1339:Q 0
6 *327:32 0.000705138
7 *327:8 0.00076011
8 *327:6 0.000407973
9 *1147:D1 *1155:A1 1.24368e-05
10 *1148:C *1148:A 0.000148196
11 *1155:B1 *1148:A 0
12 *1155:B1 *1155:A1 0.000274288
13 *1182:A2 *1138:D 0.000184745
14 *1184:A2 *1184:B1 9.06125e-05
15 *108:14 *1155:A1 4.40835e-05
16 *108:25 *1155:A1 7.80757e-05
17 *122:12 *1148:A 0
18 *133:56 *1138:D 2.19684e-05
19 *245:25 *1148:A 1.08359e-05
20 *245:31 *1148:A 0
21 *245:31 *327:32 0
22 *269:53 *1148:A 0
*RES
1 *1339:Q *327:6 13.8 
2 *327:6 *327:8 1.94643 
3 *327:8 *1138:D 18.7286 
4 *327:8 *1184:B1 19.6929 
5 *327:6 *327:32 5.28571 
6 *327:32 *1155:A1 18.8714 
7 *327:32 *1148:A 17.3179 
*END

*D_NET *328 0.00391856
*CONN
*I *1402:A I *D sky130_fd_sc_hd__dlygate4sd3_1
*I *1282:B I *D sky130_fd_sc_hd__or3_1
*I *1316:A1 I *D sky130_fd_sc_hd__o31a_1
*I *1135:B I *D sky130_fd_sc_hd__nor2_1
*I *1136:B I *D sky130_fd_sc_hd__or3_2
*I *1374:Q O *D sky130_fd_sc_hd__dfxtp_1
*CAP
1 *1402:A 0.000178653
2 *1282:B 0
3 *1316:A1 0.000150981
4 *1135:B 0.000129178
5 *1136:B 9.06163e-05
6 *1374:Q 0
7 *328:34 0.000372278
8 *328:10 0.000406288
9 *328:8 0.000447011
10 *328:4 0.000217875
11 *1135:B *1135:A 5.52238e-05
12 *1136:B *1136:A 0.000153047
13 *1136:B *329:10 3.17148e-05
14 *328:10 *329:10 0.000403083
15 *328:34 *1282:A 0.000197984
16 *328:34 *329:10 0.000192585
17 *328:34 *329:30 0.000126439
18 *1283:B *328:34 2.91887e-05
19 *1316:A3 *1316:A1 0.000106391
20 *1329:A2 *328:34 4.1331e-06
21 *1374:D *1402:A 2.14658e-05
22 *1374:D *328:10 5.26091e-05
23 *1406:A *1316:A1 3.18676e-05
24 *87:64 *1402:A 1.79511e-05
25 *100:6 *1135:B 3.18676e-05
26 *206:12 *328:34 8.25098e-05
27 *247:88 *328:34 0.000193732
28 *247:96 *1402:A 4.18895e-05
29 *247:96 *328:8 5.52302e-05
30 *247:96 *328:10 1.52978e-05
31 *247:96 *328:34 6.74911e-05
32 *250:35 *1136:B 0
33 *250:35 *328:10 0
34 *259:8 *1316:A1 1.39841e-05
*RES
1 *1374:Q *328:4 9.3 
2 *328:4 *328:8 5.03571 
3 *328:8 *328:10 5.28571 
4 *328:10 *1136:B 16.05 
5 *328:10 *1135:B 15.9964 
6 *328:8 *328:34 11.9107 
7 *328:34 *1316:A1 12.6393 
8 *328:34 *1282:B 9.3 
9 *328:4 *1402:A 11.925 
*END

*D_NET *329 0.00450433
*CONN
*I *1282:A I *D sky130_fd_sc_hd__or3_1
*I *1412:A I *D sky130_fd_sc_hd__dlygate4sd3_1
*I *1135:A I *D sky130_fd_sc_hd__nor2_1
*I *1136:A I *D sky130_fd_sc_hd__or3_2
*I *1375:Q O *D sky130_fd_sc_hd__dfxtp_1
*CAP
1 *1282:A 0.000110202
2 *1412:A 0.000283198
3 *1135:A 2.36895e-05
4 *1136:A 0.000119032
5 *1375:Q 0.000674883
6 *329:30 0.000464878
7 *329:10 0.000464912
8 *329:8 0.00106855
9 *1135:B *1135:A 5.52238e-05
10 *1136:B *1136:A 0.000153047
11 *1136:B *329:10 3.17148e-05
12 *1283:B *1282:A 4.46186e-06
13 *1346:CLK *1136:A 4.1331e-06
14 *1375:D *329:8 5.13563e-05
15 *250:35 *1136:A 0
16 *250:35 *1282:A 0
17 *250:35 *1412:A 7.49615e-05
18 *328:10 *329:10 0.000403083
19 *328:34 *1282:A 0.000197984
20 *328:34 *329:10 0.000192585
21 *328:34 *329:30 0.000126439
*RES
1 *1375:Q *329:8 21.3179 
2 *329:8 *329:10 8.01786 
3 *329:10 *1136:A 16.6571 
4 *329:10 *1135:A 14.3357 
5 *329:8 *329:30 1.64286 
6 *329:30 *1412:A 18.4429 
7 *329:30 *1282:A 16.3536 
*END

*D_NET *330 0.00714348
*CONN
*I *1324:A I *D sky130_fd_sc_hd__or4_1
*I *1304:A I *D sky130_fd_sc_hd__or4_1
*I *1115:A I *D sky130_fd_sc_hd__inv_2
*I *1216:B1 I *D sky130_fd_sc_hd__o21ai_1
*I *1214:A2 I *D sky130_fd_sc_hd__a21boi_1
*I *1217:A1 I *D sky130_fd_sc_hd__o211a_1
*I *1215:B1 I *D sky130_fd_sc_hd__o21a_1
*I *1352:Q O *D sky130_fd_sc_hd__dfxtp_1
*CAP
1 *1324:A 0.000408898
2 *1304:A 3.82418e-05
3 *1115:A 3.80087e-05
4 *1216:B1 0
5 *1214:A2 0.000341317
6 *1217:A1 0
7 *1215:B1 0.000185011
8 *1352:Q 0.000315893
9 *330:73 0.000772281
10 *330:58 0.000803243
11 *330:31 0.000485557
12 *330:23 0.00018434
13 *330:8 0.000410393
14 *330:6 0.000941267
15 *1214:A2 *1214:A1 2.89016e-05
16 *1213:A2 *1115:A 0.000183713
17 *1213:A2 *330:73 0
18 *1214:B1_N *1214:A2 9.60875e-05
19 *1215:A2 *330:58 0
20 *1217:A2 *1214:A2 9.30228e-05
21 *1217:B1 *1214:A2 5.33005e-05
22 *1217:C1 *1215:B1 1.32552e-05
23 *1218:B1 *330:23 0
24 *1292:A2 *330:73 6.42338e-05
25 *1297:B *330:58 0
26 *1304:C *1324:A 4.72818e-05
27 *1304:D *1324:A 5.33005e-05
28 *1309:B1 *330:73 7.83587e-05
29 *1325:B2 *1324:A 0
30 *1328:A2 *1324:A 0
31 *1352:CLK *330:6 0.000304767
32 *1352:CLK *330:8 0.000188586
33 *1352:CLK *330:23 1.97695e-05
34 *1352:D *330:31 4.79842e-05
35 *91:10 *330:73 0
36 *91:12 *330:73 0
37 *91:16 *330:73 0
38 *156:10 *1115:A 2.44318e-05
39 *156:10 *1215:B1 0.000129868
40 *157:21 *1215:B1 3.14163e-05
41 *157:21 *330:23 1.97695e-05
42 *222:10 *330:58 0
43 *222:10 *330:73 0
44 *245:119 *330:6 0.000183726
45 *254:14 *1324:A 0.000142053
46 *254:27 *1304:A 0
47 *255:10 *1115:A 0.000219765
48 *255:30 *330:58 0
49 *255:32 *330:58 0
50 *260:38 *330:31 6.72808e-05
51 *260:47 *1215:B1 0.000128154
52 *260:47 *330:58 0
*RES
1 *1352:Q *330:6 13.9429 
2 *330:6 *330:8 2.58929 
3 *330:8 *1215:B1 21.7107 
4 *330:8 *330:23 1.03571 
5 *330:23 *330:31 12.0893 
6 *330:31 *1217:A1 9.3 
7 *330:31 *1214:A2 15.6214 
8 *330:23 *1216:B1 9.3 
9 *330:6 *330:58 11.5357 
10 *330:58 *1115:A 15.9786 
11 *330:58 *330:73 9.41071 
12 *330:73 *1304:A 10.0321 
13 *330:73 *1324:A 24.175 
*END

*D_NET *331 0.00199598
*CONN
*I *1289:A I *D sky130_fd_sc_hd__or2_1
*I *1411:A I *D sky130_fd_sc_hd__dlygate4sd3_1
*I *1214:A1 I *D sky130_fd_sc_hd__a21boi_1
*I *1353:Q O *D sky130_fd_sc_hd__dfxtp_1
*CAP
1 *1289:A 0.000259186
2 *1411:A 0.000159471
3 *1214:A1 0.000406425
4 *1353:Q 4.16506e-05
5 *331:21 0.000521007
6 *331:8 0.000550426
7 *1214:A2 *1214:A1 2.89016e-05
8 *1287:B1 *1214:A1 0
9 *1287:B1 *1289:A 0
10 *1287:B1 *331:21 0
11 *1353:D *331:8 2.89114e-05
*RES
1 *1353:Q *331:8 14.3357 
2 *331:8 *1214:A1 20.5679 
3 *331:8 *331:21 1.64286 
4 *331:21 *1411:A 16.3893 
5 *331:21 *1289:A 18.4786 
*END

*D_NET *332 0.0021013
*CONN
*I *1222:A2 I *D sky130_fd_sc_hd__o22ai_1
*I *1223:A2 I *D sky130_fd_sc_hd__a2111o_1
*I *1347:Q O *D sky130_fd_sc_hd__dfxtp_1
*CAP
1 *1222:A2 0
2 *1223:A2 7.35628e-05
3 *1347:Q 0.000659983
4 *332:10 0.000733546
5 *1223:A2 *333:10 3.07555e-05
6 *1207:A *1223:A2 5.71472e-05
7 *1207:A *332:10 8.73231e-05
8 *1207:B *1223:A2 0
9 *1223:D1 *1223:A2 0.000142856
10 *1347:CLK *332:10 0.000108584
11 *1347:D *332:10 1.39841e-05
12 *82:40 *1223:A2 0.000142856
13 *247:151 *332:10 5.06983e-05
*RES
1 *1347:Q *332:10 18.6036 
2 *332:10 *1223:A2 20.8 
3 *332:10 *1222:A2 9.3 
*END

*D_NET *333 0.00185523
*CONN
*I *1222:B1 I *D sky130_fd_sc_hd__o22ai_1
*I *1219:A2 I *D sky130_fd_sc_hd__a22o_1
*I *1348:Q O *D sky130_fd_sc_hd__dfxtp_1
*CAP
1 *1222:B1 3.16397e-05
2 *1219:A2 0.000428515
3 *1348:Q 0.000121276
4 *333:10 0.000581431
5 *1219:A2 *1116:A 0.000155196
6 *1207:B *333:10 0
7 *1223:A1 *1222:B1 0.00010096
8 *1223:A2 *333:10 3.07555e-05
9 *1223:B1 *333:10 3.34366e-05
10 *1224:C1 *1219:A2 2.19404e-05
11 *1348:D *333:10 0
12 *82:40 *1219:A2 0.000272307
13 *82:40 *1222:B1 7.77751e-05
*RES
1 *1348:Q *333:10 20.55 
2 *333:10 *1219:A2 16.8714 
3 *333:10 *1222:B1 10.6571 
*END

*D_NET *334 0.00193188
*CONN
*I *1224:A2 I *D sky130_fd_sc_hd__a211o_1
*I *1220:A2 I *D sky130_fd_sc_hd__o22ai_1
*I *1349:Q O *D sky130_fd_sc_hd__dfxtp_1
*CAP
1 *1224:A2 3.5445e-05
2 *1220:A2 0.000141784
3 *1349:Q 0.000414527
4 *334:10 0.000591756
5 *1220:A2 *341:56 0
6 *1208:A *1224:A2 9.90431e-05
7 *1208:A *334:10 0.000252898
8 *1208:B *334:10 2.44318e-05
9 *1219:B2 *1220:A2 0
10 *1349:D *334:10 0.00010096
11 *80:55 *1220:A2 0
12 *81:62 *1220:A2 0
13 *81:81 *1220:A2 4.35048e-05
14 *250:66 *1220:A2 0
15 *250:66 *334:10 0.000227532
*RES
1 *1349:Q *334:10 16.4429 
2 *334:10 *1220:A2 20.8536 
3 *334:10 *1224:A2 10.2464 
*END

*D_NET *335 0.00110785
*CONN
*I *1219:B1 I *D sky130_fd_sc_hd__a22o_1
*I *1116:A I *D sky130_fd_sc_hd__inv_2
*I *1350:Q O *D sky130_fd_sc_hd__dfxtp_1
*CAP
1 *1219:B1 0
2 *1116:A 3.63011e-05
3 *1350:Q 0.000338558
4 *335:12 0.000374859
5 *1219:A2 *1116:A 0.000155196
6 *1219:B2 *335:12 3.92757e-05
7 *82:40 *1116:A 0.000116468
8 *287:10 *335:12 4.71964e-05
*RES
1 *1350:Q *335:12 22.8357 
2 *335:12 *1116:A 11.5143 
3 *335:12 *1219:B1 9.3 
*END

*D_NET *336 0.000684743
*CONN
*I *1117:A I *D sky130_fd_sc_hd__inv_2
*I *1351:Q O *D sky130_fd_sc_hd__dfxtp_1
*CAP
1 *1117:A 0.000342372
2 *1351:Q 0.000342372
3 *86:12 *1117:A 0
*RES
1 *1351:Q *1117:A 33.4393 
*END

*D_NET *337 0.00990423
*CONN
*I *1110:A I *D sky130_fd_sc_hd__inv_2
*I *1121:B I *D sky130_fd_sc_hd__nor3_1
*I *1122:B I *D sky130_fd_sc_hd__or3_1
*I *1279:B1 I *D sky130_fd_sc_hd__a31o_1
*I *1128:A I *D sky130_fd_sc_hd__or3_1
*I *1401:A I *D sky130_fd_sc_hd__dlygate4sd3_1
*I *1325:A1_N I *D sky130_fd_sc_hd__a2bb2o_1
*I *1326:A1 I *D sky130_fd_sc_hd__o211ai_1
*I *1380:Q O *D sky130_fd_sc_hd__dfxtp_2
*CAP
1 *1110:A 0.000101375
2 *1121:B 0.000150561
3 *1122:B 0.000385899
4 *1279:B1 0.000126589
5 *1128:A 2.63309e-05
6 *1401:A 0.000161506
7 *1325:A1_N 0
8 *1326:A1 0.000260629
9 *1380:Q 0.000463112
10 *337:77 0.000890487
11 *337:73 0.000642674
12 *337:60 0.000411478
13 *337:49 0.000144294
14 *337:34 0.000595258
15 *337:21 0.000516655
16 *337:10 0.000826988
17 *1110:A *341:37 9.60939e-05
18 *1121:B *341:43 5.33334e-05
19 *337:34 *1128:B 2.89114e-05
20 *337:34 *1281:A1 5.66157e-05
21 *337:34 *339:32 9.60939e-05
22 *337:34 *340:37 2.59355e-05
23 *1129:B *337:77 0.000127051
24 *1130:A1 *1401:A 0.000166485
25 *1130:A2 *1401:A 0.00040279
26 *1212:B *1401:A 0.00014183
27 *1212:B *337:60 7.60306e-05
28 *1212:B *337:73 1.52978e-05
29 *1277:B *1110:A 7.6644e-05
30 *1279:A3 *1128:A 7.43578e-06
31 *1279:A3 *1279:B1 5.52302e-05
32 *1279:A3 *337:34 2.42662e-05
33 *1279:A3 *337:60 5.10822e-05
34 *1279:A3 *337:73 1.08359e-05
35 *1280:A1 *1122:B 9.46929e-05
36 *1280:B1 *1121:B 2.56694e-05
37 *1281:B2 *1279:B1 0
38 *1281:C1 *1122:B 0.000268403
39 *1281:C1 *337:77 8.57023e-05
40 *1290:A *337:34 0
41 *1325:A2_N *337:21 1.02504e-05
42 *1325:A2_N *337:34 0.000346639
43 *1325:B1 *337:34 0
44 *1327:B1 *1326:A1 0.000242668
45 *1327:B1 *337:21 0
46 *1328:A2 *337:10 0
47 *1328:A2 *337:21 0
48 *1380:CLK *1326:A1 0.000140933
49 *1380:CLK *337:10 3.93893e-05
50 *90:10 *1122:B 8.0786e-06
51 *93:10 *337:34 0
52 *94:8 *1128:A 1.24368e-05
53 *94:8 *1401:A 2.42662e-05
54 *154:10 *1110:A 3.25078e-05
55 *154:10 *337:73 0.000241838
56 *155:16 *1326:A1 0.000342176
57 *247:84 *1279:B1 6.42095e-05
58 *254:12 *337:10 0.000171719
59 *259:25 *337:34 7.05447e-05
60 *269:94 *1110:A 0.000140464
61 *269:94 *337:10 4.40142e-05
62 *269:94 *337:21 5.85322e-05
63 *269:94 *337:34 3.78516e-05
64 *269:94 *337:60 1.91418e-05
65 *269:94 *337:73 0.0001663
*RES
1 *1380:Q *337:10 20.8 
2 *337:10 *1326:A1 21.3179 
3 *337:10 *337:21 2.25 
4 *337:21 *1325:A1_N 13.8 
5 *337:21 *337:34 14.5 
6 *337:34 *1401:A 15.3357 
7 *337:34 *337:49 0.428571 
8 *337:49 *1128:A 10.2464 
9 *337:49 *337:60 6.44643 
10 *337:60 *1279:B1 15.9964 
11 *337:60 *337:73 6.19643 
12 *337:73 *337:77 9.14286 
13 *337:77 *1122:B 14.3536 
14 *337:77 *1121:B 20.7107 
15 *337:73 *1110:A 16.6929 
*END

*D_NET *338 0.00287082
*CONN
*I *1122:C I *D sky130_fd_sc_hd__or3_1
*I *1277:C I *D sky130_fd_sc_hd__or3_1
*I *1211:B I *D sky130_fd_sc_hd__nand2b_1
*I *1121:C I *D sky130_fd_sc_hd__nor3_1
*I *1403:A I *D sky130_fd_sc_hd__dlygate4sd3_1
*I *1370:Q O *D sky130_fd_sc_hd__dfxtp_1
*CAP
1 *1122:C 0
2 *1277:C 0.000120316
3 *1211:B 6.74826e-06
4 *1121:C 0
5 *1403:A 0
6 *1370:Q 0.000171264
7 *338:32 0.000254788
8 *338:23 0.000275165
9 *338:16 0.000339683
10 *338:8 0.000363506
11 *1211:B *1211:A_N 4.72938e-06
12 *1211:B *341:39 2.04777e-05
13 *1277:C *341:37 5.71472e-05
14 *1277:C *341:39 0.000266252
15 *338:16 *1122:A 0.000106542
16 *338:16 *340:14 0
17 *338:16 *341:43 5.52302e-05
18 *338:16 *341:56 1.17968e-05
19 *338:23 *341:43 0.000341668
20 *338:32 *1211:A_N 6.11433e-05
21 *338:32 *341:39 2.52285e-05
22 *338:32 *341:43 6.58597e-05
23 *1280:A1 *338:8 0.000122873
24 *80:14 *338:8 7.15846e-05
25 *80:18 *338:16 2.97756e-05
26 *269:94 *1277:C 9.90431e-05
*RES
1 *1370:Q *338:8 13.0321 
2 *338:8 *338:16 13.2143 
3 *338:16 *1403:A 9.3 
4 *338:16 *338:23 3.41071 
5 *338:23 *1121:C 9.3 
6 *338:23 *338:32 2.8125 
7 *338:32 *1211:B 9.92054 
8 *338:32 *1277:C 13.0589 
9 *338:8 *1122:C 9.3 
*END

*D_NET *339 0.00603525
*CONN
*I *1127:B I *D sky130_fd_sc_hd__or3_1
*I *1308:B I *D sky130_fd_sc_hd__or4_1
*I *1128:C I *D sky130_fd_sc_hd__or3_1
*I *1281:A2 I *D sky130_fd_sc_hd__a221o_1
*I *1278:B I *D sky130_fd_sc_hd__xnor2_1
*I *1112:A I *D sky130_fd_sc_hd__inv_2
*I *1371:Q O *D sky130_fd_sc_hd__dfxtp_1
*CAP
1 *1127:B 0.000134569
2 *1308:B 0
3 *1128:C 0
4 *1281:A2 8.02242e-05
5 *1278:B 1.41579e-05
6 *1112:A 0
7 *1371:Q 0.000198946
8 *339:56 0.000720163
9 *339:32 0.000152194
10 *339:23 0.000698516
11 *339:12 0.000734297
12 *339:8 0.000906449
13 *1278:B *340:37 3.57366e-05
14 *1281:A2 *1281:A1 0.000148196
15 *339:12 *340:22 0
16 *339:23 *340:22 0.00019243
17 *339:23 *340:33 0.000267881
18 *339:23 *340:37 9.22103e-06
19 *339:32 *340:37 3.30237e-05
20 *339:56 *340:14 4.25523e-05
21 *339:56 *340:22 0
22 *1123:C *339:23 0.000181796
23 *1279:A3 *339:32 2.59355e-05
24 *1281:B1 *1281:A2 5.80706e-06
25 *1281:B2 *1281:A2 1.46576e-05
26 *1290:A *1281:A2 0
27 *1300:A_N *1127:B 0.000125547
28 *1300:A_N *339:56 0.000316184
29 *1300:C *339:23 0.00014183
30 *1305:A1 *339:23 1.32552e-05
31 *1387:A *339:8 2.59355e-05
32 *1391:A *339:56 0
33 *81:31 *339:23 9.24825e-05
34 *81:38 *339:23 2.24763e-05
35 *91:10 *339:23 5.52238e-05
36 *202:25 *1127:B 5.33005e-05
37 *243:36 *339:12 0
38 *243:36 *339:56 0
39 *247:8 *339:8 8.18783e-05
40 *247:8 *339:56 0.000230694
41 *247:27 *339:56 0
42 *247:84 *1281:A2 1.46576e-05
43 *269:94 *1281:A2 0.000168939
44 *337:34 *339:32 9.60939e-05
*RES
1 *1371:Q *339:8 16.3893 
2 *339:8 *339:12 6.14286 
3 *339:12 *1112:A 9.3 
4 *339:12 *339:23 12.8929 
5 *339:23 *1278:B 9.72857 
6 *339:23 *339:32 1.76786 
7 *339:32 *1281:A2 20.6973 
8 *339:32 *1128:C 9.3 
9 *339:8 *339:56 13.25 
10 *339:56 *1308:B 9.3 
11 *339:56 *1127:B 11.0679 
*END

*D_NET *340 0.00803116
*CONN
*I *1221:A1 I *D sky130_fd_sc_hd__a221o_1
*I *1111:A I *D sky130_fd_sc_hd__inv_2
*I *1308:A I *D sky130_fd_sc_hd__or4_1
*I *1278:A I *D sky130_fd_sc_hd__xnor2_1
*I *1128:B I *D sky130_fd_sc_hd__or3_1
*I *1281:A1 I *D sky130_fd_sc_hd__a221o_1
*I *1123:A I *D sky130_fd_sc_hd__or3_2
*I *1372:Q O *D sky130_fd_sc_hd__dfxtp_1
*CAP
1 *1221:A1 0.000675509
2 *1111:A 0
3 *1308:A 7.70875e-05
4 *1278:A 0
5 *1128:B 3.25519e-05
6 *1281:A1 0.000115229
7 *1123:A 0
8 *1372:Q 0.00026836
9 *340:69 0.000740541
10 *340:37 0.000317107
11 *340:33 0.000403066
12 *340:22 0.000436291
13 *340:14 0.000789987
14 *340:8 0.000843739
15 *1221:A1 *1220:B2 4.88637e-05
16 *1123:C *340:33 0.00018372
17 *1127:A *1308:A 0.000357048
18 *1220:A1 *1221:A1 1.68773e-05
19 *1220:B1 *1221:A1 0.000285633
20 *1278:B *340:37 3.57366e-05
21 *1281:A2 *1281:A1 0.000148196
22 *1290:A *1281:A1 0
23 *1300:A_N *340:22 2.39779e-05
24 *1300:C *340:22 0.00010326
25 *80:14 *1221:A1 7.29667e-05
26 *80:14 *340:14 0.00020112
27 *80:14 *340:69 0.000118903
28 *80:18 *340:14 0
29 *80:18 *340:22 2.31791e-05
30 *80:55 *1221:A1 7.83659e-05
31 *81:38 *340:22 0.000173921
32 *81:49 *340:22 2.89016e-05
33 *81:49 *340:33 1.98839e-05
34 *86:12 *1221:A1 1.15281e-05
35 *91:10 *340:22 0
36 *247:8 *1308:A 0.000268396
37 *247:8 *340:14 0.000272371
38 *247:27 *340:14 0
39 *247:84 *1308:A 0.000129515
40 *250:66 *1221:A1 3.69697e-05
41 *269:94 *1281:A1 3.57844e-05
42 *337:34 *1128:B 2.89114e-05
43 *337:34 *1281:A1 5.66157e-05
44 *337:34 *340:37 2.59355e-05
45 *338:16 *340:14 0
46 *339:12 *340:22 0
47 *339:23 *340:22 0.00019243
48 *339:23 *340:33 0.000267881
49 *339:23 *340:37 9.22103e-06
50 *339:32 *340:37 3.30237e-05
51 *339:56 *340:14 4.25523e-05
52 *339:56 *340:22 0
*RES
1 *1372:Q *340:8 16.8 
2 *340:8 *340:14 15.4107 
3 *340:14 *340:22 14.9643 
4 *340:22 *1123:A 9.3 
5 *340:22 *340:33 5.60714 
6 *340:33 *340:37 2.80357 
7 *340:37 *1281:A1 21.1571 
8 *340:37 *1128:B 9.83571 
9 *340:33 *1278:A 9.3 
10 *340:14 *1308:A 13.1214 
11 *340:8 *340:69 1.64286 
12 *340:69 *1111:A 13.8 
13 *340:69 *1221:A1 23.8893 
*END

*D_NET *341 0.00691413
*CONN
*I *1210:A I *D sky130_fd_sc_hd__and2_1
*I *1329:A1 I *D sky130_fd_sc_hd__o21a_1
*I *1277:A I *D sky130_fd_sc_hd__or3_1
*I *1211:A_N I *D sky130_fd_sc_hd__nand2b_1
*I *1121:A I *D sky130_fd_sc_hd__nor3_1
*I *1221:B2 I *D sky130_fd_sc_hd__a221o_1
*I *1220:B2 I *D sky130_fd_sc_hd__o22ai_1
*I *1122:A I *D sky130_fd_sc_hd__or3_1
*I *1129:A I *D sky130_fd_sc_hd__nand2_1
*I *1381:Q O *D sky130_fd_sc_hd__dfxtp_1
*CAP
1 *1210:A 0.00014031
2 *1329:A1 0
3 *1277:A 0
4 *1211:A_N 2.18609e-05
5 *1121:A 0
6 *1221:B2 3.2234e-05
7 *1220:B2 2.56345e-05
8 *1122:A 8.23798e-05
9 *1129:A 5.12134e-05
10 *1381:Q 0
11 *341:56 0.000286417
12 *341:43 0.00052138
13 *341:39 0.000337367
14 *341:37 0.000238435
15 *341:22 0.000565325
16 *341:12 0.000704242
17 *341:4 0.000463822
18 fsm_error *1210:A 0
19 *1110:A *341:37 9.60939e-05
20 *1118:A *1210:A 2.89114e-05
21 *1121:B *341:43 5.33334e-05
22 *1206:A *341:22 0.00010619
23 *1206:A *341:37 7.36267e-05
24 *1210:B *1210:A 5.83304e-05
25 *1211:B *1211:A_N 4.72938e-06
26 *1211:B *341:39 2.04777e-05
27 *1220:A1 *1220:B2 2.16045e-05
28 *1220:A1 *1221:B2 0
29 *1220:A2 *341:56 0
30 *1220:B1 *1220:B2 5.52238e-05
31 *1220:B1 *1221:B2 0.000106641
32 *1221:A1 *1220:B2 4.88637e-05
33 *1221:C1 *1220:B2 8.85597e-05
34 *1221:C1 *1221:B2 5.52302e-05
35 *1277:B *341:37 1.08359e-05
36 *1277:C *341:37 5.71472e-05
37 *1277:C *341:39 0.000266252
38 *1329:A2 *341:22 7.77751e-05
39 *1329:B1 *341:22 0.00014285
40 *1381:CLK *341:12 6.05161e-06
41 *1381:D *341:12 0
42 *1433:A *1210:A 0
43 *81:49 *1122:A 4.1331e-06
44 *81:62 *1122:A 6.53874e-05
45 *81:62 *1221:B2 1.98302e-05
46 *81:62 *341:56 0.000134889
47 *87:8 *1210:A 2.89114e-05
48 *87:12 *1210:A 0.00020112
49 *95:10 *1129:A 4.87854e-05
50 *95:10 *341:22 0.00015304
51 *154:10 *341:22 3.53786e-05
52 *154:10 *341:37 0.000334413
53 *154:10 *341:39 0.000185643
54 *247:123 *341:12 0.000148903
55 *250:50 *341:12 0
56 *250:66 *341:56 0
57 *269:94 *341:37 3.68799e-05
58 *338:16 *1122:A 0.000106542
59 *338:16 *341:43 5.52302e-05
60 *338:16 *341:56 1.17968e-05
61 *338:23 *341:43 0.000341668
62 *338:32 *1211:A_N 6.11433e-05
63 *338:32 *341:39 2.52285e-05
64 *338:32 *341:43 6.58597e-05
*RES
1 *1381:Q *341:4 9.3 
2 *341:4 *341:12 13.5357 
3 *341:12 *341:22 13.1786 
4 *341:22 *1129:A 14.7464 
5 *341:22 *341:37 9.23214 
6 *341:37 *341:39 3.82143 
7 *341:39 *341:43 9.55357 
8 *341:43 *1122:A 16.3536 
9 *341:43 *341:56 9.48214 
10 *341:56 *1220:B2 10.6571 
11 *341:56 *1221:B2 10.8045 
12 *341:39 *1121:A 9.3 
13 *341:39 *1211:A_N 10.2643 
14 *341:37 *1277:A 9.3 
15 *341:12 *1329:A1 9.3 
16 *341:4 *1210:A 21.9964 
*END
