*SPEF "ieee 1481-1999"
*DESIGN "secure_boot_control_plane"
*DATE "06:45:04 Wednesday February 25, 2026"
*VENDOR "The OpenROAD Project"
*PROGRAM "OpenROAD"
*VERSION "edf00dff99f6c40d67a30c0e22a8191c5d2ed9d6"
*DESIGN_FLOW "NAME_SCOPE LOCAL" "PIN_CAP NONE"
*DIVIDER /
*DELIMITER :
*BUS_DELIMITER []
*T_UNIT 1 NS
*C_UNIT 1 PF
*R_UNIT 1 OHM
*L_UNIT 1 HENRY

*NAME_MAP
*1 clock_glitch
*2 cold_reset_req
*3 debug_enable
*4 file_denied
*5 fsm_error
*6 fw_fail
*7 fw_ok
*8 global_pin_ok
*9 group_autolock
*10 group_error
*11 group_suspended
*12 group_unlocked
*13 hdr_parse_fail
*14 illegal_in
*15 power_glitch
*16 safe_led
*17 security_breach
*18 size_mismatch
*19 tamper_in
*20 unlock_enable
*21 unlock_req
*22 user_irq
*25 warm_reset_req
*26 wb_ack_o
*27 wb_adr_i[0]
*28 wb_adr_i[10]
*29 wb_adr_i[11]
*30 wb_adr_i[12]
*31 wb_adr_i[13]
*32 wb_adr_i[14]
*33 wb_adr_i[15]
*34 wb_adr_i[16]
*35 wb_adr_i[17]
*36 wb_adr_i[18]
*37 wb_adr_i[19]
*38 wb_adr_i[1]
*39 wb_adr_i[20]
*40 wb_adr_i[21]
*41 wb_adr_i[22]
*42 wb_adr_i[23]
*43 wb_adr_i[24]
*44 wb_adr_i[25]
*45 wb_adr_i[26]
*46 wb_adr_i[27]
*47 wb_adr_i[28]
*48 wb_adr_i[29]
*49 wb_adr_i[2]
*50 wb_adr_i[30]
*51 wb_adr_i[31]
*52 wb_adr_i[3]
*53 wb_adr_i[4]
*54 wb_adr_i[5]
*55 wb_adr_i[6]
*56 wb_adr_i[7]
*57 wb_adr_i[8]
*58 wb_adr_i[9]
*59 wb_clk_i
*60 wb_cyc_i
*61 wb_dat_i[0]
*62 wb_dat_i[10]
*63 wb_dat_i[11]
*64 wb_dat_i[12]
*65 wb_dat_i[13]
*66 wb_dat_i[14]
*67 wb_dat_i[15]
*68 wb_dat_i[16]
*69 wb_dat_i[17]
*70 wb_dat_i[18]
*71 wb_dat_i[19]
*72 wb_dat_i[1]
*73 wb_dat_i[20]
*74 wb_dat_i[21]
*75 wb_dat_i[22]
*76 wb_dat_i[23]
*77 wb_dat_i[24]
*78 wb_dat_i[25]
*79 wb_dat_i[26]
*80 wb_dat_i[27]
*81 wb_dat_i[28]
*82 wb_dat_i[29]
*83 wb_dat_i[2]
*84 wb_dat_i[30]
*85 wb_dat_i[31]
*86 wb_dat_i[3]
*87 wb_dat_i[4]
*88 wb_dat_i[5]
*89 wb_dat_i[6]
*90 wb_dat_i[7]
*91 wb_dat_i[8]
*92 wb_dat_i[9]
*93 wb_dat_o[0]
*94 wb_dat_o[10]
*95 wb_dat_o[11]
*96 wb_dat_o[12]
*97 wb_dat_o[13]
*98 wb_dat_o[14]
*99 wb_dat_o[15]
*100 wb_dat_o[16]
*101 wb_dat_o[17]
*102 wb_dat_o[18]
*103 wb_dat_o[19]
*104 wb_dat_o[1]
*105 wb_dat_o[20]
*106 wb_dat_o[21]
*107 wb_dat_o[22]
*108 wb_dat_o[23]
*109 wb_dat_o[24]
*110 wb_dat_o[25]
*111 wb_dat_o[26]
*112 wb_dat_o[27]
*113 wb_dat_o[28]
*114 wb_dat_o[29]
*115 wb_dat_o[2]
*116 wb_dat_o[30]
*117 wb_dat_o[31]
*118 wb_dat_o[3]
*119 wb_dat_o[4]
*120 wb_dat_o[5]
*121 wb_dat_o[6]
*122 wb_dat_o[7]
*123 wb_dat_o[8]
*124 wb_dat_o[9]
*125 wb_rst_i
*126 wb_sel_i[0]
*127 wb_sel_i[1]
*128 wb_sel_i[2]
*129 wb_sel_i[3]
*130 wb_stb_i
*131 wb_we_i
*132 _000_
*133 _001_
*134 _002_
*135 _003_
*136 _004_
*137 _005_
*138 _006_
*139 _007_
*140 _008_
*141 _009_
*142 _010_
*143 _011_
*144 _012_
*145 _013_
*146 _014_
*147 _015_
*148 _016_
*149 _017_
*150 _018_
*151 _019_
*152 _020_
*153 _021_
*154 _022_
*155 _023_
*156 _024_
*157 _025_
*158 _026_
*159 _027_
*160 _028_
*161 _029_
*162 _030_
*163 _031_
*164 _032_
*165 _033_
*166 _034_
*167 _035_
*168 _036_
*169 _037_
*170 _038_
*171 _039_
*172 _040_
*173 _041_
*174 _042_
*175 _043_
*176 _044_
*177 _045_
*178 _046_
*179 _047_
*180 _048_
*181 _049_
*182 _050_
*183 _051_
*184 _052_
*185 _053_
*186 _054_
*187 _055_
*188 _056_
*189 _057_
*190 _058_
*191 _059_
*192 _060_
*193 _061_
*194 _062_
*195 _063_
*196 _064_
*197 _065_
*198 _066_
*199 _067_
*200 _068_
*201 _069_
*202 _070_
*203 _071_
*204 _072_
*205 _073_
*206 _074_
*207 _075_
*208 _076_
*209 _077_
*210 _078_
*211 _079_
*212 _080_
*213 _081_
*214 _082_
*215 _083_
*216 _084_
*217 _085_
*218 _086_
*219 _087_
*220 _088_
*221 _089_
*222 _090_
*223 _091_
*224 _092_
*225 _093_
*226 _094_
*227 _095_
*228 _096_
*229 _097_
*230 _098_
*231 _099_
*232 _100_
*233 _101_
*234 _102_
*235 _103_
*236 _104_
*237 _105_
*238 _106_
*239 _107_
*240 _108_
*241 _109_
*242 _110_
*243 _111_
*244 _112_
*245 _113_
*246 _114_
*247 _115_
*248 _116_
*249 _117_
*250 _118_
*251 _119_
*252 _120_
*253 _121_
*254 _122_
*255 _123_
*256 _124_
*257 _125_
*258 _126_
*259 _127_
*260 _128_
*261 _129_
*262 _130_
*263 _131_
*264 _132_
*265 _133_
*266 _134_
*267 _135_
*268 _136_
*269 _137_
*270 _138_
*271 _139_
*272 _140_
*273 _141_
*274 _142_
*275 _143_
*276 _144_
*277 _145_
*278 _146_
*279 _147_
*280 _148_
*281 _149_
*282 _150_
*283 _151_
*284 _152_
*285 _153_
*286 _154_
*287 _155_
*288 _156_
*289 _157_
*290 _158_
*291 _159_
*292 _160_
*293 _161_
*294 _162_
*295 _163_
*296 _164_
*297 _165_
*298 _166_
*299 _167_
*300 _168_
*301 _169_
*302 _170_
*303 _171_
*304 _172_
*305 _173_
*306 _174_
*307 _175_
*308 _176_
*309 _177_
*310 _178_
*311 _179_
*312 _180_
*313 _181_
*314 _182_
*315 _183_
*316 _184_
*317 _185_
*318 _186_
*319 _187_
*320 _188_
*321 _189_
*322 _190_
*323 _191_
*324 _192_
*325 _193_
*326 _194_
*327 _195_
*328 _196_
*329 _197_
*330 _198_
*331 _199_
*332 _200_
*333 _201_
*334 _202_
*335 _203_
*336 _204_
*337 _205_
*338 _206_
*339 _207_
*340 _208_
*341 _209_
*342 _210_
*343 _211_
*344 _212_
*345 _213_
*346 _214_
*347 _215_
*348 _216_
*349 _217_
*350 _218_
*351 _219_
*352 _220_
*353 _221_
*354 _222_
*355 _223_
*356 _224_
*357 _225_
*358 _226_
*359 _227_
*360 _228_
*361 _229_
*362 _230_
*363 _231_
*364 _232_
*365 _233_
*366 _234_
*367 _235_
*368 _236_
*369 _237_
*370 _238_
*371 _239_
*372 _240_
*373 _241_
*374 _242_
*375 _243_
*376 _244_
*377 _245_
*378 _246_
*379 _247_
*380 _248_
*381 _249_
*382 _250_
*383 _251_
*384 _252_
*385 _253_
*386 _254_
*387 _255_
*388 _256_
*389 _257_
*390 _258_
*391 _259_
*392 _260_
*393 _261_
*394 _262_
*395 _263_
*396 _264_
*397 _265_
*398 _266_
*399 _267_
*400 _268_
*401 _269_
*402 _270_
*403 _271_
*404 _272_
*405 _273_
*406 _274_
*407 _275_
*408 _276_
*409 _277_
*410 _278_
*411 _279_
*412 _280_
*413 _281_
*414 _282_
*415 _283_
*416 _284_
*417 _285_
*418 _286_
*419 _287_
*420 _288_
*421 _289_
*422 _290_
*423 _291_
*424 _292_
*425 _293_
*426 _294_
*427 _295_
*428 _296_
*429 _297_
*430 _298_
*431 _299_
*432 _300_
*433 _301_
*434 _302_
*435 _303_
*436 _304_
*437 _305_
*438 _306_
*439 _307_
*440 _308_
*441 _309_
*442 _310_
*443 _311_
*444 _312_
*445 _313_
*446 _314_
*447 _315_
*448 _316_
*449 _317_
*450 _318_
*451 _319_
*452 _320_
*453 _321_
*454 _322_
*455 _323_
*456 _324_
*457 _325_
*458 _326_
*459 _327_
*460 _328_
*461 _329_
*462 _330_
*463 _331_
*464 _332_
*465 clknet_0_wb_clk_i
*466 clknet_3_0__leaf_wb_clk_i
*467 clknet_3_1__leaf_wb_clk_i
*468 clknet_3_2__leaf_wb_clk_i
*469 clknet_3_3__leaf_wb_clk_i
*470 clknet_3_4__leaf_wb_clk_i
*471 clknet_3_5__leaf_wb_clk_i
*472 clknet_3_6__leaf_wb_clk_i
*473 clknet_3_7__leaf_wb_clk_i
*474 ctrl_clear_pulse\[0\]
*475 ctrl_clear_pulse\[1\]
*476 ctrl_clear_pulse\[2\]
*477 ctrl_clear_pulse\[3\]
*478 ctrl_clear_pulse\[4\]
*479 global_timeout_count\[0\]
*480 global_timeout_count\[10\]
*481 global_timeout_count\[11\]
*482 global_timeout_count\[12\]
*483 global_timeout_count\[13\]
*484 global_timeout_count\[14\]
*485 global_timeout_count\[15\]
*486 global_timeout_count\[1\]
*487 global_timeout_count\[2\]
*488 global_timeout_count\[3\]
*489 global_timeout_count\[4\]
*490 global_timeout_count\[5\]
*491 global_timeout_count\[6\]
*492 global_timeout_count\[7\]
*493 global_timeout_count\[8\]
*494 global_timeout_count\[9\]
*495 group_state_bits\[0\]
*496 group_state_bits\[1\]
*497 group_state_bits\[2\]
*498 group_state_bits\[3\]
*499 group_timeout_count\[0\]
*500 group_timeout_count\[10\]
*501 group_timeout_count\[11\]
*502 group_timeout_count\[12\]
*503 group_timeout_count\[13\]
*504 group_timeout_count\[14\]
*505 group_timeout_count\[15\]
*506 group_timeout_count\[1\]
*507 group_timeout_count\[2\]
*508 group_timeout_count\[3\]
*509 group_timeout_count\[4\]
*510 group_timeout_count\[5\]
*511 group_timeout_count\[6\]
*512 group_timeout_count\[7\]
*513 group_timeout_count\[8\]
*514 group_timeout_count\[9\]
*515 net1
*516 net10
*517 net100
*518 net101
*519 net102
*520 net103
*521 net104
*522 net105
*523 net106
*524 net107
*525 net108
*526 net109
*527 net11
*528 net110
*529 net111
*530 net112
*531 net113
*532 net114
*533 net115
*534 net116
*535 net117
*536 net118
*537 net119
*538 net12
*539 net13
*540 net14
*541 net15
*542 net16
*543 net17
*544 net18
*545 net19
*546 net2
*547 net20
*548 net21
*549 net22
*550 net23
*551 net24
*552 net25
*553 net26
*554 net27
*555 net28
*556 net29
*557 net3
*558 net30
*559 net31
*560 net32
*561 net33
*562 net34
*563 net35
*564 net36
*565 net37
*566 net38
*567 net39
*568 net4
*569 net40
*570 net41
*571 net42
*572 net43
*573 net44
*574 net45
*575 net46
*576 net47
*577 net48
*578 net49
*579 net5
*580 net50
*581 net51
*582 net52
*583 net53
*584 net54
*585 net55
*586 net56
*587 net57
*588 net58
*589 net59
*590 net6
*591 net60
*592 net61
*593 net62
*594 net63
*595 net64
*596 net65
*597 net66
*598 net67
*599 net68
*600 net69
*601 net7
*602 net70
*603 net71
*604 net72
*605 net73
*606 net74
*607 net75
*608 net76
*609 net77
*610 net78
*611 net79
*612 net8
*613 net80
*614 net81
*615 net82
*616 net83
*617 net84
*618 net85
*619 net86
*620 net87
*621 net88
*622 net89
*623 net9
*624 net90
*625 net91
*626 net92
*627 net93
*628 net94
*629 net95
*630 net96
*631 net97
*632 net98
*633 net99
*634 sticky_illegal_core
*635 sticky_tamper_core
*636 sw_sticky_breach
*637 sw_sticky_fsm_error
*638 sw_sticky_group_error
*639 sw_sticky_illegal
*640 sw_sticky_tamper
*641 u_system\.u_global\.denial_counter\[0\]
*642 u_system\.u_global\.denial_counter\[1\]
*643 u_system\.u_global\.prev_state\[0\]
*644 u_system\.u_global\.prev_state\[1\]
*645 u_system\.u_global\.prev_state\[2\]
*646 u_system\.u_global\.prev_state\[3\]
*647 u_system\.u_global\.prev_state\[4\]
*648 u_system\.u_global\.state\[0\]
*649 u_system\.u_global\.state\[1\]
*650 u_system\.u_global\.state\[2\]
*651 u_system\.u_global\.state\[3\]
*652 u_system\.u_global\.state\[4\]
*653 ANTENNA__336__Y
*654 ANTENNA__339__Y
*655 ANTENNA__353__X
*656 ANTENNA__354__A2
*657 ANTENNA__365__X
*658 ANTENNA__389__B1
*659 ANTENNA__392__B1
*660 ANTENNA__396__A2
*661 ANTENNA__405__A2
*662 ANTENNA__407__A2
*663 ANTENNA__411__C
*664 ANTENNA__412__C
*665 ANTENNA__447__B
*666 ANTENNA__478__A1
*667 ANTENNA__483__A1
*668 ANTENNA__489__B1
*669 ANTENNA__495__B1
*670 ANTENNA__497__B1
*671 ANTENNA__547__B1
*672 ANTENNA__548__B
*673 ANTENNA__549__B
*674 ANTENNA__550__B
*675 ANTENNA__551__B
*676 ANTENNA__552__B
*677 ANTENNA__554__B1
*678 ANTENNA__555__C1
*679 ANTENNA__572__D1
*680 ANTENNA__621__B1
*681 ANTENNA__627__B1
*682 ANTENNA__628__B1
*683 ANTENNA__632__A
*684 ANTENNA__637__A
*685 ANTENNA__638__A
*686 ANTENNA__639__A
*687 ANTENNA__640__A
*688 ANTENNA__641__A
*689 ANTENNA__642__A
*690 ANTENNA__643__A
*691 ANTENNA__644__A
*692 ANTENNA__646__A
*693 ANTENNA__647__A
*694 ANTENNA__650__A
*695 ANTENNA__651__A
*696 ANTENNA__653__A
*697 ANTENNA__671__RESET_B
*698 ANTENNA__766__A
*699 ANTENNA_clkbuf_0_wb_clk_i_A
*700 ANTENNA_clkbuf_0_wb_clk_i_X
*701 ANTENNA_clkbuf_3_0__f_wb_clk_i_A
*702 ANTENNA_clkbuf_3_1__f_wb_clk_i_A
*703 ANTENNA_clkbuf_3_2__f_wb_clk_i_A
*704 ANTENNA_clkbuf_3_3__f_wb_clk_i_A
*705 ANTENNA_clkbuf_3_4__f_wb_clk_i_A
*706 ANTENNA_clkbuf_3_5__f_wb_clk_i_A
*707 ANTENNA_clkbuf_3_6__f_wb_clk_i_A
*708 ANTENNA_clkbuf_3_7__f_wb_clk_i_A
*709 ANTENNA_fanout75_A
*710 ANTENNA_fanout76_A
*711 ANTENNA_fanout77_A
*712 ANTENNA_fanout79_A
*713 ANTENNA_fanout80_X
*714 ANTENNA_fanout82_A
*715 ANTENNA_fanout82_X
*716 ANTENNA_fanout84_A
*717 ANTENNA_fanout86_A
*718 ANTENNA_fanout87_A
*719 ANTENNA_fanout87_X
*720 ANTENNA_fanout88_A
*721 ANTENNA_fanout88_X
*722 ANTENNA_fanout89_X
*723 ANTENNA_input10_A
*724 ANTENNA_input11_A
*725 ANTENNA_input12_A
*726 ANTENNA_input13_A
*727 ANTENNA_input14_A
*728 ANTENNA_input15_A
*729 ANTENNA_input16_A
*730 ANTENNA_input17_A
*731 ANTENNA_input18_A
*732 ANTENNA_input19_A
*733 ANTENNA_input1_A
*734 ANTENNA_input20_A
*735 ANTENNA_input21_A
*736 ANTENNA_input22_A
*737 ANTENNA_input23_A
*738 ANTENNA_input24_A
*739 ANTENNA_input25_A
*740 ANTENNA_input26_A
*741 ANTENNA_input2_A
*742 ANTENNA_input3_A
*743 ANTENNA_input4_A
*744 ANTENNA_input5_A
*745 ANTENNA_input6_A
*746 ANTENNA_input7_A
*747 ANTENNA_input8_A
*748 ANTENNA_input9_A
*749 ANTENNA_output32_A
*750 FILLER_0_109
*751 FILLER_0_111
*752 FILLER_0_113
*753 FILLER_0_125
*754 FILLER_0_133
*755 FILLER_0_135
*756 FILLER_0_151
*757 FILLER_0_164
*758 FILLER_0_169
*759 FILLER_0_181
*760 FILLER_0_193
*761 FILLER_0_195
*762 FILLER_0_197
*763 FILLER_0_209
*764 FILLER_0_221
*765 FILLER_0_223
*766 FILLER_0_225
*767 FILLER_0_27
*768 FILLER_0_33
*769 FILLER_0_45
*770 FILLER_0_53
*771 FILLER_0_55
*772 FILLER_0_57
*773 FILLER_0_69
*774 FILLER_0_81
*775 FILLER_0_83
*776 FILLER_0_85
*777 FILLER_0_97
*778 FILLER_10_101
*779 FILLER_10_103
*780 FILLER_10_107
*781 FILLER_10_11
*782 FILLER_10_119
*783 FILLER_10_133
*784 FILLER_10_164
*785 FILLER_10_176
*786 FILLER_10_188
*787 FILLER_10_197
*788 FILLER_10_217
*789 FILLER_10_229
*790 FILLER_10_23
*791 FILLER_10_29
*792 FILLER_10_37
*793 FILLER_10_43
*794 FILLER_10_55
*795 FILLER_10_59
*796 FILLER_10_67
*797 FILLER_10_75
*798 FILLER_10_83
*799 FILLER_10_85
*800 FILLER_10_93
*801 FILLER_11_107
*802 FILLER_11_111
*803 FILLER_11_113
*804 FILLER_11_125
*805 FILLER_11_137
*806 FILLER_11_141
*807 FILLER_11_167
*808 FILLER_11_169
*809 FILLER_11_181
*810 FILLER_11_183
*811 FILLER_11_202
*812 FILLER_11_219
*813 FILLER_11_223
*814 FILLER_11_225
*815 FILLER_11_229
*816 FILLER_11_23
*817 FILLER_11_231
*818 FILLER_11_35
*819 FILLER_11_47
*820 FILLER_11_55
*821 FILLER_11_57
*822 FILLER_11_71
*823 FILLER_11_83
*824 FILLER_11_95
*825 FILLER_12_107
*826 FILLER_12_116
*827 FILLER_12_118
*828 FILLER_12_125
*829 FILLER_12_129
*830 FILLER_12_13
*831 FILLER_12_133
*832 FILLER_12_137
*833 FILLER_12_139
*834 FILLER_12_141
*835 FILLER_12_145
*836 FILLER_12_171
*837 FILLER_12_186
*838 FILLER_12_205
*839 FILLER_12_217
*840 FILLER_12_229
*841 FILLER_12_231
*842 FILLER_12_25
*843 FILLER_12_27
*844 FILLER_12_29
*845 FILLER_12_33
*846 FILLER_12_37
*847 FILLER_12_43
*848 FILLER_12_65
*849 FILLER_12_7
*850 FILLER_12_77
*851 FILLER_12_79
*852 FILLER_12_83
*853 FILLER_12_85
*854 FILLER_12_9
*855 FILLER_12_93
*856 FILLER_12_95
*857 FILLER_12_99
*858 FILLER_13_108
*859 FILLER_13_113
*860 FILLER_13_131
*861 FILLER_13_14
*862 FILLER_13_143
*863 FILLER_13_152
*864 FILLER_13_164
*865 FILLER_13_177
*866 FILLER_13_189
*867 FILLER_13_201
*868 FILLER_13_213
*869 FILLER_13_22
*870 FILLER_13_221
*871 FILLER_13_223
*872 FILLER_13_225
*873 FILLER_13_232
*874 FILLER_13_236
*875 FILLER_13_49
*876 FILLER_13_66
*877 FILLER_13_7
*878 FILLER_13_70
*879 FILLER_13_72
*880 FILLER_13_96
*881 FILLER_14_108
*882 FILLER_14_110
*883 FILLER_14_127
*884 FILLER_14_139
*885 FILLER_14_141
*886 FILLER_14_178
*887 FILLER_14_190
*888 FILLER_14_194
*889 FILLER_14_197
*890 FILLER_14_209
*891 FILLER_14_217
*892 FILLER_14_226
*893 FILLER_14_23
*894 FILLER_14_230
*895 FILLER_14_27
*896 FILLER_14_29
*897 FILLER_14_41
*898 FILLER_14_50
*899 FILLER_14_62
*900 FILLER_14_74
*901 FILLER_14_82
*902 FILLER_14_85
*903 FILLER_14_97
*904 FILLER_14_99
*905 FILLER_15_107
*906 FILLER_15_111
*907 FILLER_15_113
*908 FILLER_15_115
*909 FILLER_15_119
*910 FILLER_15_131
*911 FILLER_15_143
*912 FILLER_15_155
*913 FILLER_15_160
*914 FILLER_15_177
*915 FILLER_15_19
*916 FILLER_15_193
*917 FILLER_15_206
*918 FILLER_15_218
*919 FILLER_15_222
*920 FILLER_15_225
*921 FILLER_15_31
*922 FILLER_15_39
*923 FILLER_15_57
*924 FILLER_15_65
*925 FILLER_15_7
*926 FILLER_15_83
*927 FILLER_15_95
*928 FILLER_16_111
*929 FILLER_16_120
*930 FILLER_16_132
*931 FILLER_16_141
*932 FILLER_16_145
*933 FILLER_16_163
*934 FILLER_16_175
*935 FILLER_16_183
*936 FILLER_16_195
*937 FILLER_16_20
*938 FILLER_16_216
*939 FILLER_16_225
*940 FILLER_16_229
*941 FILLER_16_231
*942 FILLER_16_34
*943 FILLER_16_63
*944 FILLER_16_65
*945 FILLER_16_8
*946 FILLER_16_82
*947 FILLER_16_93
*948 FILLER_16_97
*949 FILLER_16_99
*950 FILLER_17_102
*951 FILLER_17_104
*952 FILLER_17_110
*953 FILLER_17_118
*954 FILLER_17_120
*955 FILLER_17_13
*956 FILLER_17_147
*957 FILLER_17_15
*958 FILLER_17_159
*959 FILLER_17_167
*960 FILLER_17_169
*961 FILLER_17_177
*962 FILLER_17_179
*963 FILLER_17_208
*964 FILLER_17_212
*965 FILLER_17_214
*966 FILLER_17_221
*967 FILLER_17_223
*968 FILLER_17_225
*969 FILLER_17_229
*970 FILLER_17_231
*971 FILLER_17_39
*972 FILLER_17_67
*973 FILLER_17_75
*974 FILLER_18_101
*975 FILLER_18_118
*976 FILLER_18_130
*977 FILLER_18_138
*978 FILLER_18_141
*979 FILLER_18_143
*980 FILLER_18_160
*981 FILLER_18_164
*982 FILLER_18_171
*983 FILLER_18_175
*984 FILLER_18_195
*985 FILLER_18_197
*986 FILLER_18_209
*987 FILLER_18_21
*988 FILLER_18_213
*989 FILLER_18_231
*990 FILLER_18_68
*991 FILLER_18_8
*992 FILLER_18_80
*993 FILLER_18_93
*994 FILLER_19_106
*995 FILLER_19_135
*996 FILLER_19_151
*997 FILLER_19_163
*998 FILLER_19_167
*999 FILLER_19_169
*1000 FILLER_19_177
*1001 FILLER_19_187
*1002 FILLER_19_199
*1003 FILLER_19_207
*1004 FILLER_19_222
*1005 FILLER_19_23
*1006 FILLER_19_27
*1007 FILLER_19_30
*1008 FILLER_19_42
*1009 FILLER_19_51
*1010 FILLER_19_55
*1011 FILLER_19_57
*1012 FILLER_19_69
*1013 FILLER_19_91
*1014 FILLER_19_99
*1015 FILLER_1_103
*1016 FILLER_1_11
*1017 FILLER_1_111
*1018 FILLER_1_113
*1019 FILLER_1_125
*1020 FILLER_1_127
*1021 FILLER_1_169
*1022 FILLER_1_196
*1023 FILLER_1_208
*1024 FILLER_1_220
*1025 FILLER_1_225
*1026 FILLER_1_36
*1027 FILLER_1_38
*1028 FILLER_1_52
*1029 FILLER_1_57
*1030 FILLER_1_61
*1031 FILLER_1_67
*1032 FILLER_1_73
*1033 FILLER_1_77
*1034 FILLER_20_104
*1035 FILLER_20_112
*1036 FILLER_20_114
*1037 FILLER_20_138
*1038 FILLER_20_144
*1039 FILLER_20_148
*1040 FILLER_20_158
*1041 FILLER_20_17
*1042 FILLER_20_175
*1043 FILLER_20_183
*1044 FILLER_20_185
*1045 FILLER_20_191
*1046 FILLER_20_195
*1047 FILLER_20_197
*1048 FILLER_20_209
*1049 FILLER_20_217
*1050 FILLER_20_25
*1051 FILLER_20_27
*1052 FILLER_20_29
*1053 FILLER_20_41
*1054 FILLER_20_53
*1055 FILLER_20_65
*1056 FILLER_20_79
*1057 FILLER_20_83
*1058 FILLER_20_92
*1059 FILLER_21_107
*1060 FILLER_21_111
*1061 FILLER_21_113
*1062 FILLER_21_125
*1063 FILLER_21_137
*1064 FILLER_21_149
*1065 FILLER_21_161
*1066 FILLER_21_165
*1067 FILLER_21_167
*1068 FILLER_21_172
*1069 FILLER_21_184
*1070 FILLER_21_186
*1071 FILLER_21_203
*1072 FILLER_21_205
*1073 FILLER_21_222
*1074 FILLER_21_225
*1075 FILLER_21_23
*1076 FILLER_21_27
*1077 FILLER_21_49
*1078 FILLER_21_53
*1079 FILLER_21_55
*1080 FILLER_21_60
*1081 FILLER_21_72
*1082 FILLER_21_76
*1083 FILLER_21_83
*1084 FILLER_21_95
*1085 FILLER_22_100
*1086 FILLER_22_118
*1087 FILLER_22_130
*1088 FILLER_22_134
*1089 FILLER_22_14
*1090 FILLER_22_141
*1091 FILLER_22_145
*1092 FILLER_22_147
*1093 FILLER_22_153
*1094 FILLER_22_157
*1095 FILLER_22_162
*1096 FILLER_22_169
*1097 FILLER_22_193
*1098 FILLER_22_195
*1099 FILLER_22_197
*1100 FILLER_22_209
*1101 FILLER_22_221
*1102 FILLER_22_229
*1103 FILLER_22_231
*1104 FILLER_22_26
*1105 FILLER_22_29
*1106 FILLER_22_44
*1107 FILLER_22_65
*1108 FILLER_22_7
*1109 FILLER_22_76
*1110 FILLER_22_96
*1111 FILLER_23_109
*1112 FILLER_23_111
*1113 FILLER_23_121
*1114 FILLER_23_125
*1115 FILLER_23_127
*1116 FILLER_23_151
*1117 FILLER_23_158
*1118 FILLER_23_182
*1119 FILLER_23_194
*1120 FILLER_23_206
*1121 FILLER_23_218
*1122 FILLER_23_222
*1123 FILLER_23_3
*1124 FILLER_23_31
*1125 FILLER_23_41
*1126 FILLER_23_45
*1127 FILLER_23_55
*1128 FILLER_23_77
*1129 FILLER_23_92
*1130 FILLER_24_113
*1131 FILLER_24_13
*1132 FILLER_24_131
*1133 FILLER_24_139
*1134 FILLER_24_141
*1135 FILLER_24_146
*1136 FILLER_24_167
*1137 FILLER_24_175
*1138 FILLER_24_183
*1139 FILLER_24_191
*1140 FILLER_24_195
*1141 FILLER_24_206
*1142 FILLER_24_208
*1143 FILLER_24_214
*1144 FILLER_24_216
*1145 FILLER_24_25
*1146 FILLER_24_27
*1147 FILLER_24_29
*1148 FILLER_24_34
*1149 FILLER_24_42
*1150 FILLER_24_44
*1151 FILLER_24_58
*1152 FILLER_24_7
*1153 FILLER_24_70
*1154 FILLER_24_78
*1155 FILLER_24_82
*1156 FILLER_24_85
*1157 FILLER_24_87
*1158 FILLER_24_90
*1159 FILLER_24_94
*1160 FILLER_25_103
*1161 FILLER_25_111
*1162 FILLER_25_113
*1163 FILLER_25_12
*1164 FILLER_25_137
*1165 FILLER_25_14
*1166 FILLER_25_149
*1167 FILLER_25_153
*1168 FILLER_25_160
*1169 FILLER_25_164
*1170 FILLER_25_189
*1171 FILLER_25_206
*1172 FILLER_25_218
*1173 FILLER_25_222
*1174 FILLER_25_230
*1175 FILLER_25_232
*1176 FILLER_25_37
*1177 FILLER_25_39
*1178 FILLER_25_48
*1179 FILLER_25_57
*1180 FILLER_25_69
*1181 FILLER_25_71
*1182 FILLER_25_79
*1183 FILLER_25_8
*1184 FILLER_25_91
*1185 FILLER_26_110
*1186 FILLER_26_122
*1187 FILLER_26_13
*1188 FILLER_26_139
*1189 FILLER_26_141
*1190 FILLER_26_153
*1191 FILLER_26_165
*1192 FILLER_26_173
*1193 FILLER_26_175
*1194 FILLER_26_181
*1195 FILLER_26_191
*1196 FILLER_26_195
*1197 FILLER_26_197
*1198 FILLER_26_20
*1199 FILLER_26_205
*1200 FILLER_26_207
*1201 FILLER_26_213
*1202 FILLER_26_235
*1203 FILLER_26_29
*1204 FILLER_26_60
*1205 FILLER_26_64
*1206 FILLER_26_66
*1207 FILLER_26_7
*1208 FILLER_26_73
*1209 FILLER_26_82
*1210 FILLER_26_90
*1211 FILLER_26_94
*1212 FILLER_26_98
*1213 FILLER_27_121
*1214 FILLER_27_129
*1215 FILLER_27_131
*1216 FILLER_27_137
*1217 FILLER_27_149
*1218 FILLER_27_160
*1219 FILLER_27_169
*1220 FILLER_27_195
*1221 FILLER_27_207
*1222 FILLER_27_219
*1223 FILLER_27_223
*1224 FILLER_27_225
*1225 FILLER_27_27
*1226 FILLER_27_31
*1227 FILLER_27_6
*1228 FILLER_27_62
*1229 FILLER_27_66
*1230 FILLER_27_83
*1231 FILLER_27_88
*1232 FILLER_28_101
*1233 FILLER_28_105
*1234 FILLER_28_120
*1235 FILLER_28_124
*1236 FILLER_28_138
*1237 FILLER_28_141
*1238 FILLER_28_17
*1239 FILLER_28_189
*1240 FILLER_28_193
*1241 FILLER_28_195
*1242 FILLER_28_197
*1243 FILLER_28_224
*1244 FILLER_28_236
*1245 FILLER_28_25
*1246 FILLER_28_27
*1247 FILLER_28_29
*1248 FILLER_28_37
*1249 FILLER_28_39
*1250 FILLER_28_5
*1251 FILLER_28_60
*1252 FILLER_28_72
*1253 FILLER_28_85
*1254 FILLER_29_111
*1255 FILLER_29_113
*1256 FILLER_29_125
*1257 FILLER_29_127
*1258 FILLER_29_13
*1259 FILLER_29_135
*1260 FILLER_29_147
*1261 FILLER_29_15
*1262 FILLER_29_151
*1263 FILLER_29_155
*1264 FILLER_29_167
*1265 FILLER_29_169
*1266 FILLER_29_181
*1267 FILLER_29_193
*1268 FILLER_29_205
*1269 FILLER_29_217
*1270 FILLER_29_221
*1271 FILLER_29_223
*1272 FILLER_29_225
*1273 FILLER_29_231
*1274 FILLER_29_39
*1275 FILLER_29_51
*1276 FILLER_29_55
*1277 FILLER_29_57
*1278 FILLER_29_69
*1279 FILLER_29_7
*1280 FILLER_29_75
*1281 FILLER_29_87
*1282 FILLER_29_99
*1283 FILLER_2_117
*1284 FILLER_2_14
*1285 FILLER_2_149
*1286 FILLER_2_151
*1287 FILLER_2_157
*1288 FILLER_2_174
*1289 FILLER_2_178
*1290 FILLER_2_180
*1291 FILLER_2_191
*1292 FILLER_2_195
*1293 FILLER_2_197
*1294 FILLER_2_209
*1295 FILLER_2_221
*1296 FILLER_2_233
*1297 FILLER_2_26
*1298 FILLER_2_29
*1299 FILLER_2_31
*1300 FILLER_2_53
*1301 FILLER_2_77
*1302 FILLER_2_81
*1303 FILLER_2_83
*1304 FILLER_2_90
*1305 FILLER_2_94
*1306 FILLER_30_101
*1307 FILLER_30_103
*1308 FILLER_30_120
*1309 FILLER_30_124
*1310 FILLER_30_126
*1311 FILLER_30_137
*1312 FILLER_30_139
*1313 FILLER_30_141
*1314 FILLER_30_15
*1315 FILLER_30_153
*1316 FILLER_30_165
*1317 FILLER_30_169
*1318 FILLER_30_184
*1319 FILLER_30_194
*1320 FILLER_30_197
*1321 FILLER_30_209
*1322 FILLER_30_213
*1323 FILLER_30_215
*1324 FILLER_30_236
*1325 FILLER_30_27
*1326 FILLER_30_29
*1327 FILLER_30_37
*1328 FILLER_30_39
*1329 FILLER_30_48
*1330 FILLER_30_85
*1331 FILLER_30_97
*1332 FILLER_31_102
*1333 FILLER_31_110
*1334 FILLER_31_113
*1335 FILLER_31_148
*1336 FILLER_31_185
*1337 FILLER_31_207
*1338 FILLER_31_219
*1339 FILLER_31_221
*1340 FILLER_31_228
*1341 FILLER_31_23
*1342 FILLER_31_35
*1343 FILLER_31_57
*1344 FILLER_31_61
*1345 FILLER_31_63
*1346 FILLER_31_79
*1347 FILLER_31_96
*1348 FILLER_32_100
*1349 FILLER_32_102
*1350 FILLER_32_117
*1351 FILLER_32_134
*1352 FILLER_32_138
*1353 FILLER_32_141
*1354 FILLER_32_169
*1355 FILLER_32_194
*1356 FILLER_32_214
*1357 FILLER_32_235
*1358 FILLER_32_32
*1359 FILLER_32_36
*1360 FILLER_32_38
*1361 FILLER_32_60
*1362 FILLER_32_68
*1363 FILLER_32_7
*1364 FILLER_32_72
*1365 FILLER_32_75
*1366 FILLER_32_83
*1367 FILLER_32_96
*1368 FILLER_33_107
*1369 FILLER_33_111
*1370 FILLER_33_113
*1371 FILLER_33_125
*1372 FILLER_33_137
*1373 FILLER_33_149
*1374 FILLER_33_15
*1375 FILLER_33_161
*1376 FILLER_33_165
*1377 FILLER_33_167
*1378 FILLER_33_169
*1379 FILLER_33_180
*1380 FILLER_33_203
*1381 FILLER_33_218
*1382 FILLER_33_222
*1383 FILLER_33_230
*1384 FILLER_33_232
*1385 FILLER_33_27
*1386 FILLER_33_3
*1387 FILLER_33_39
*1388 FILLER_33_47
*1389 FILLER_33_49
*1390 FILLER_33_54
*1391 FILLER_33_57
*1392 FILLER_33_64
*1393 FILLER_33_66
*1394 FILLER_33_71
*1395 FILLER_33_83
*1396 FILLER_33_95
*1397 FILLER_34_107
*1398 FILLER_34_115
*1399 FILLER_34_117
*1400 FILLER_34_125
*1401 FILLER_34_137
*1402 FILLER_34_139
*1403 FILLER_34_14
*1404 FILLER_34_141
*1405 FILLER_34_149
*1406 FILLER_34_161
*1407 FILLER_34_173
*1408 FILLER_34_185
*1409 FILLER_34_193
*1410 FILLER_34_195
*1411 FILLER_34_197
*1412 FILLER_34_209
*1413 FILLER_34_213
*1414 FILLER_34_235
*1415 FILLER_34_26
*1416 FILLER_34_29
*1417 FILLER_34_41
*1418 FILLER_34_53
*1419 FILLER_34_61
*1420 FILLER_34_8
*1421 FILLER_34_83
*1422 FILLER_34_85
*1423 FILLER_34_97
*1424 FILLER_35_107
*1425 FILLER_35_111
*1426 FILLER_35_113
*1427 FILLER_35_121
*1428 FILLER_35_14
*1429 FILLER_35_145
*1430 FILLER_35_163
*1431 FILLER_35_167
*1432 FILLER_35_169
*1433 FILLER_35_181
*1434 FILLER_35_185
*1435 FILLER_35_187
*1436 FILLER_35_193
*1437 FILLER_35_205
*1438 FILLER_35_209
*1439 FILLER_35_211
*1440 FILLER_35_220
*1441 FILLER_35_225
*1442 FILLER_35_41
*1443 FILLER_35_53
*1444 FILLER_35_55
*1445 FILLER_35_57
*1446 FILLER_35_6
*1447 FILLER_35_69
*1448 FILLER_35_77
*1449 FILLER_35_79
*1450 FILLER_36_114
*1451 FILLER_36_122
*1452 FILLER_36_128
*1453 FILLER_36_141
*1454 FILLER_36_153
*1455 FILLER_36_165
*1456 FILLER_36_171
*1457 FILLER_36_175
*1458 FILLER_36_195
*1459 FILLER_36_221
*1460 FILLER_36_23
*1461 FILLER_36_233
*1462 FILLER_36_27
*1463 FILLER_36_29
*1464 FILLER_36_41
*1465 FILLER_36_58
*1466 FILLER_36_70
*1467 FILLER_36_82
*1468 FILLER_36_85
*1469 FILLER_36_93
*1470 FILLER_37_103
*1471 FILLER_37_111
*1472 FILLER_37_113
*1473 FILLER_37_118
*1474 FILLER_37_12
*1475 FILLER_37_130
*1476 FILLER_37_146
*1477 FILLER_37_158
*1478 FILLER_37_160
*1479 FILLER_37_185
*1480 FILLER_37_189
*1481 FILLER_37_214
*1482 FILLER_37_222
*1483 FILLER_37_225
*1484 FILLER_37_26
*1485 FILLER_37_38
*1486 FILLER_37_6
*1487 FILLER_37_69
*1488 FILLER_37_80
*1489 FILLER_37_82
*1490 FILLER_38_169
*1491 FILLER_38_181
*1492 FILLER_38_193
*1493 FILLER_38_195
*1494 FILLER_38_205
*1495 FILLER_38_217
*1496 FILLER_38_229
*1497 FILLER_38_32
*1498 FILLER_38_44
*1499 FILLER_38_56
*1500 FILLER_38_90
*1501 FILLER_38_97
*1502 FILLER_38_99
*1503 FILLER_39_100
*1504 FILLER_39_105
*1505 FILLER_39_109
*1506 FILLER_39_111
*1507 FILLER_39_113
*1508 FILLER_39_121
*1509 FILLER_39_126
*1510 FILLER_39_128
*1511 FILLER_39_135
*1512 FILLER_39_151
*1513 FILLER_39_163
*1514 FILLER_39_169
*1515 FILLER_39_18
*1516 FILLER_39_181
*1517 FILLER_39_193
*1518 FILLER_39_195
*1519 FILLER_39_197
*1520 FILLER_39_209
*1521 FILLER_39_221
*1522 FILLER_39_223
*1523 FILLER_39_225
*1524 FILLER_39_27
*1525 FILLER_39_35
*1526 FILLER_39_47
*1527 FILLER_39_55
*1528 FILLER_39_57
*1529 FILLER_39_69
*1530 FILLER_39_83
*1531 FILLER_39_91
*1532 FILLER_39_98
*1533 FILLER_3_107
*1534 FILLER_3_111
*1535 FILLER_3_113
*1536 FILLER_3_129
*1537 FILLER_3_151
*1538 FILLER_3_163
*1539 FILLER_3_167
*1540 FILLER_3_185
*1541 FILLER_3_19
*1542 FILLER_3_202
*1543 FILLER_3_214
*1544 FILLER_3_222
*1545 FILLER_3_225
*1546 FILLER_3_31
*1547 FILLER_3_35
*1548 FILLER_3_44
*1549 FILLER_3_57
*1550 FILLER_3_61
*1551 FILLER_3_67
*1552 FILLER_3_7
*1553 FILLER_3_74
*1554 FILLER_3_86
*1555 FILLER_4_112
*1556 FILLER_4_123
*1557 FILLER_4_135
*1558 FILLER_4_139
*1559 FILLER_4_141
*1560 FILLER_4_143
*1561 FILLER_4_155
*1562 FILLER_4_181
*1563 FILLER_4_188
*1564 FILLER_4_197
*1565 FILLER_4_209
*1566 FILLER_4_221
*1567 FILLER_4_233
*1568 FILLER_4_27
*1569 FILLER_4_29
*1570 FILLER_4_3
*1571 FILLER_4_41
*1572 FILLER_4_47
*1573 FILLER_4_59
*1574 FILLER_4_63
*1575 FILLER_4_85
*1576 FILLER_4_89
*1577 FILLER_5_109
*1578 FILLER_5_111
*1579 FILLER_5_113
*1580 FILLER_5_125
*1581 FILLER_5_137
*1582 FILLER_5_141
*1583 FILLER_5_164
*1584 FILLER_5_176
*1585 FILLER_5_188
*1586 FILLER_5_19
*1587 FILLER_5_200
*1588 FILLER_5_212
*1589 FILLER_5_225
*1590 FILLER_5_31
*1591 FILLER_5_33
*1592 FILLER_5_55
*1593 FILLER_5_57
*1594 FILLER_5_7
*1595 FILLER_5_74
*1596 FILLER_5_86
*1597 FILLER_5_90
*1598 FILLER_5_92
*1599 FILLER_5_97
*1600 FILLER_6_109
*1601 FILLER_6_123
*1602 FILLER_6_136
*1603 FILLER_6_14
*1604 FILLER_6_141
*1605 FILLER_6_145
*1606 FILLER_6_147
*1607 FILLER_6_167
*1608 FILLER_6_171
*1609 FILLER_6_190
*1610 FILLER_6_194
*1611 FILLER_6_197
*1612 FILLER_6_209
*1613 FILLER_6_221
*1614 FILLER_6_233
*1615 FILLER_6_26
*1616 FILLER_6_29
*1617 FILLER_6_72
*1618 FILLER_6_85
*1619 FILLER_6_97
*1620 FILLER_7_105
*1621 FILLER_7_109
*1622 FILLER_7_111
*1623 FILLER_7_118
*1624 FILLER_7_122
*1625 FILLER_7_131
*1626 FILLER_7_143
*1627 FILLER_7_155
*1628 FILLER_7_167
*1629 FILLER_7_169
*1630 FILLER_7_173
*1631 FILLER_7_214
*1632 FILLER_7_222
*1633 FILLER_7_225
*1634 FILLER_7_23
*1635 FILLER_7_57
*1636 FILLER_7_69
*1637 FILLER_7_81
*1638 FILLER_7_93
*1639 FILLER_8_101
*1640 FILLER_8_103
*1641 FILLER_8_119
*1642 FILLER_8_123
*1643 FILLER_8_125
*1644 FILLER_8_131
*1645 FILLER_8_139
*1646 FILLER_8_141
*1647 FILLER_8_145
*1648 FILLER_8_147
*1649 FILLER_8_166
*1650 FILLER_8_178
*1651 FILLER_8_190
*1652 FILLER_8_194
*1653 FILLER_8_197
*1654 FILLER_8_209
*1655 FILLER_8_221
*1656 FILLER_8_233
*1657 FILLER_8_3
*1658 FILLER_8_32
*1659 FILLER_8_67
*1660 FILLER_8_7
*1661 FILLER_8_71
*1662 FILLER_8_73
*1663 FILLER_9_104
*1664 FILLER_9_11
*1665 FILLER_9_113
*1666 FILLER_9_120
*1667 FILLER_9_122
*1668 FILLER_9_13
*1669 FILLER_9_139
*1670 FILLER_9_146
*1671 FILLER_9_151
*1672 FILLER_9_172
*1673 FILLER_9_184
*1674 FILLER_9_196
*1675 FILLER_9_208
*1676 FILLER_9_220
*1677 FILLER_9_225
*1678 FILLER_9_34
*1679 FILLER_9_42
*1680 FILLER_9_57
*1681 FILLER_9_7
*1682 FILLER_9_79
*1683 PHY_EDGE_ROW_0_Left_40
*1684 PHY_EDGE_ROW_0_Right_0
*1685 PHY_EDGE_ROW_10_Left_50
*1686 PHY_EDGE_ROW_10_Right_10
*1687 PHY_EDGE_ROW_11_Left_51
*1688 PHY_EDGE_ROW_11_Right_11
*1689 PHY_EDGE_ROW_12_Left_52
*1690 PHY_EDGE_ROW_12_Right_12
*1691 PHY_EDGE_ROW_13_Left_53
*1692 PHY_EDGE_ROW_13_Right_13
*1693 PHY_EDGE_ROW_14_Left_54
*1694 PHY_EDGE_ROW_14_Right_14
*1695 PHY_EDGE_ROW_15_Left_55
*1696 PHY_EDGE_ROW_15_Right_15
*1697 PHY_EDGE_ROW_16_Left_56
*1698 PHY_EDGE_ROW_16_Right_16
*1699 PHY_EDGE_ROW_17_Left_57
*1700 PHY_EDGE_ROW_17_Right_17
*1701 PHY_EDGE_ROW_18_Left_58
*1702 PHY_EDGE_ROW_18_Right_18
*1703 PHY_EDGE_ROW_19_Left_59
*1704 PHY_EDGE_ROW_19_Right_19
*1705 PHY_EDGE_ROW_1_Left_41
*1706 PHY_EDGE_ROW_1_Right_1
*1707 PHY_EDGE_ROW_20_Left_60
*1708 PHY_EDGE_ROW_20_Right_20
*1709 PHY_EDGE_ROW_21_Left_61
*1710 PHY_EDGE_ROW_21_Right_21
*1711 PHY_EDGE_ROW_22_Left_62
*1712 PHY_EDGE_ROW_22_Right_22
*1713 PHY_EDGE_ROW_23_Left_63
*1714 PHY_EDGE_ROW_23_Right_23
*1715 PHY_EDGE_ROW_24_Left_64
*1716 PHY_EDGE_ROW_24_Right_24
*1717 PHY_EDGE_ROW_25_Left_65
*1718 PHY_EDGE_ROW_25_Right_25
*1719 PHY_EDGE_ROW_26_Left_66
*1720 PHY_EDGE_ROW_26_Right_26
*1721 PHY_EDGE_ROW_27_Left_67
*1722 PHY_EDGE_ROW_27_Right_27
*1723 PHY_EDGE_ROW_28_Left_68
*1724 PHY_EDGE_ROW_28_Right_28
*1725 PHY_EDGE_ROW_29_Left_69
*1726 PHY_EDGE_ROW_29_Right_29
*1727 PHY_EDGE_ROW_2_Left_42
*1728 PHY_EDGE_ROW_2_Right_2
*1729 PHY_EDGE_ROW_30_Left_70
*1730 PHY_EDGE_ROW_30_Right_30
*1731 PHY_EDGE_ROW_31_Left_71
*1732 PHY_EDGE_ROW_31_Right_31
*1733 PHY_EDGE_ROW_32_Left_72
*1734 PHY_EDGE_ROW_32_Right_32
*1735 PHY_EDGE_ROW_33_Left_73
*1736 PHY_EDGE_ROW_33_Right_33
*1737 PHY_EDGE_ROW_34_Left_74
*1738 PHY_EDGE_ROW_34_Right_34
*1739 PHY_EDGE_ROW_35_Left_75
*1740 PHY_EDGE_ROW_35_Right_35
*1741 PHY_EDGE_ROW_36_Left_76
*1742 PHY_EDGE_ROW_36_Right_36
*1743 PHY_EDGE_ROW_37_Left_77
*1744 PHY_EDGE_ROW_37_Right_37
*1745 PHY_EDGE_ROW_38_Left_78
*1746 PHY_EDGE_ROW_38_Right_38
*1747 PHY_EDGE_ROW_39_Left_79
*1748 PHY_EDGE_ROW_39_Right_39
*1749 PHY_EDGE_ROW_3_Left_43
*1750 PHY_EDGE_ROW_3_Right_3
*1751 PHY_EDGE_ROW_4_Left_44
*1752 PHY_EDGE_ROW_4_Right_4
*1753 PHY_EDGE_ROW_5_Left_45
*1754 PHY_EDGE_ROW_5_Right_5
*1755 PHY_EDGE_ROW_6_Left_46
*1756 PHY_EDGE_ROW_6_Right_6
*1757 PHY_EDGE_ROW_7_Left_47
*1758 PHY_EDGE_ROW_7_Right_7
*1759 PHY_EDGE_ROW_8_Left_48
*1760 PHY_EDGE_ROW_8_Right_8
*1761 PHY_EDGE_ROW_9_Left_49
*1762 PHY_EDGE_ROW_9_Right_9
*1763 TAP_TAPCELL_ROW_0_80
*1764 TAP_TAPCELL_ROW_0_81
*1765 TAP_TAPCELL_ROW_0_82
*1766 TAP_TAPCELL_ROW_0_83
*1767 TAP_TAPCELL_ROW_0_84
*1768 TAP_TAPCELL_ROW_0_85
*1769 TAP_TAPCELL_ROW_0_86
*1770 TAP_TAPCELL_ROW_0_87
*1771 TAP_TAPCELL_ROW_10_124
*1772 TAP_TAPCELL_ROW_10_125
*1773 TAP_TAPCELL_ROW_10_126
*1774 TAP_TAPCELL_ROW_10_127
*1775 TAP_TAPCELL_ROW_11_128
*1776 TAP_TAPCELL_ROW_11_129
*1777 TAP_TAPCELL_ROW_11_130
*1778 TAP_TAPCELL_ROW_11_131
*1779 TAP_TAPCELL_ROW_12_132
*1780 TAP_TAPCELL_ROW_12_133
*1781 TAP_TAPCELL_ROW_12_134
*1782 TAP_TAPCELL_ROW_12_135
*1783 TAP_TAPCELL_ROW_13_136
*1784 TAP_TAPCELL_ROW_13_137
*1785 TAP_TAPCELL_ROW_13_138
*1786 TAP_TAPCELL_ROW_13_139
*1787 TAP_TAPCELL_ROW_14_140
*1788 TAP_TAPCELL_ROW_14_141
*1789 TAP_TAPCELL_ROW_14_142
*1790 TAP_TAPCELL_ROW_14_143
*1791 TAP_TAPCELL_ROW_15_144
*1792 TAP_TAPCELL_ROW_15_145
*1793 TAP_TAPCELL_ROW_15_146
*1794 TAP_TAPCELL_ROW_15_147
*1795 TAP_TAPCELL_ROW_16_148
*1796 TAP_TAPCELL_ROW_16_149
*1797 TAP_TAPCELL_ROW_16_150
*1798 TAP_TAPCELL_ROW_16_151
*1799 TAP_TAPCELL_ROW_17_152
*1800 TAP_TAPCELL_ROW_17_153
*1801 TAP_TAPCELL_ROW_17_154
*1802 TAP_TAPCELL_ROW_17_155
*1803 TAP_TAPCELL_ROW_18_156
*1804 TAP_TAPCELL_ROW_18_157
*1805 TAP_TAPCELL_ROW_18_158
*1806 TAP_TAPCELL_ROW_18_159
*1807 TAP_TAPCELL_ROW_19_160
*1808 TAP_TAPCELL_ROW_19_161
*1809 TAP_TAPCELL_ROW_19_162
*1810 TAP_TAPCELL_ROW_19_163
*1811 TAP_TAPCELL_ROW_1_88
*1812 TAP_TAPCELL_ROW_1_89
*1813 TAP_TAPCELL_ROW_1_90
*1814 TAP_TAPCELL_ROW_1_91
*1815 TAP_TAPCELL_ROW_20_164
*1816 TAP_TAPCELL_ROW_20_165
*1817 TAP_TAPCELL_ROW_20_166
*1818 TAP_TAPCELL_ROW_20_167
*1819 TAP_TAPCELL_ROW_21_168
*1820 TAP_TAPCELL_ROW_21_169
*1821 TAP_TAPCELL_ROW_21_170
*1822 TAP_TAPCELL_ROW_21_171
*1823 TAP_TAPCELL_ROW_22_172
*1824 TAP_TAPCELL_ROW_22_173
*1825 TAP_TAPCELL_ROW_22_174
*1826 TAP_TAPCELL_ROW_22_175
*1827 TAP_TAPCELL_ROW_23_176
*1828 TAP_TAPCELL_ROW_23_177
*1829 TAP_TAPCELL_ROW_23_178
*1830 TAP_TAPCELL_ROW_23_179
*1831 TAP_TAPCELL_ROW_24_180
*1832 TAP_TAPCELL_ROW_24_181
*1833 TAP_TAPCELL_ROW_24_182
*1834 TAP_TAPCELL_ROW_24_183
*1835 TAP_TAPCELL_ROW_25_184
*1836 TAP_TAPCELL_ROW_25_185
*1837 TAP_TAPCELL_ROW_25_186
*1838 TAP_TAPCELL_ROW_25_187
*1839 TAP_TAPCELL_ROW_26_188
*1840 TAP_TAPCELL_ROW_26_189
*1841 TAP_TAPCELL_ROW_26_190
*1842 TAP_TAPCELL_ROW_26_191
*1843 TAP_TAPCELL_ROW_27_192
*1844 TAP_TAPCELL_ROW_27_193
*1845 TAP_TAPCELL_ROW_27_194
*1846 TAP_TAPCELL_ROW_27_195
*1847 TAP_TAPCELL_ROW_28_196
*1848 TAP_TAPCELL_ROW_28_197
*1849 TAP_TAPCELL_ROW_28_198
*1850 TAP_TAPCELL_ROW_28_199
*1851 TAP_TAPCELL_ROW_29_200
*1852 TAP_TAPCELL_ROW_29_201
*1853 TAP_TAPCELL_ROW_29_202
*1854 TAP_TAPCELL_ROW_29_203
*1855 TAP_TAPCELL_ROW_2_92
*1856 TAP_TAPCELL_ROW_2_93
*1857 TAP_TAPCELL_ROW_2_94
*1858 TAP_TAPCELL_ROW_2_95
*1859 TAP_TAPCELL_ROW_30_204
*1860 TAP_TAPCELL_ROW_30_205
*1861 TAP_TAPCELL_ROW_30_206
*1862 TAP_TAPCELL_ROW_30_207
*1863 TAP_TAPCELL_ROW_31_208
*1864 TAP_TAPCELL_ROW_31_209
*1865 TAP_TAPCELL_ROW_31_210
*1866 TAP_TAPCELL_ROW_31_211
*1867 TAP_TAPCELL_ROW_32_212
*1868 TAP_TAPCELL_ROW_32_213
*1869 TAP_TAPCELL_ROW_32_214
*1870 TAP_TAPCELL_ROW_32_215
*1871 TAP_TAPCELL_ROW_33_216
*1872 TAP_TAPCELL_ROW_33_217
*1873 TAP_TAPCELL_ROW_33_218
*1874 TAP_TAPCELL_ROW_33_219
*1875 TAP_TAPCELL_ROW_34_220
*1876 TAP_TAPCELL_ROW_34_221
*1877 TAP_TAPCELL_ROW_34_222
*1878 TAP_TAPCELL_ROW_34_223
*1879 TAP_TAPCELL_ROW_35_224
*1880 TAP_TAPCELL_ROW_35_225
*1881 TAP_TAPCELL_ROW_35_226
*1882 TAP_TAPCELL_ROW_35_227
*1883 TAP_TAPCELL_ROW_36_228
*1884 TAP_TAPCELL_ROW_36_229
*1885 TAP_TAPCELL_ROW_36_230
*1886 TAP_TAPCELL_ROW_36_231
*1887 TAP_TAPCELL_ROW_37_232
*1888 TAP_TAPCELL_ROW_37_233
*1889 TAP_TAPCELL_ROW_37_234
*1890 TAP_TAPCELL_ROW_37_235
*1891 TAP_TAPCELL_ROW_38_236
*1892 TAP_TAPCELL_ROW_38_237
*1893 TAP_TAPCELL_ROW_38_238
*1894 TAP_TAPCELL_ROW_38_239
*1895 TAP_TAPCELL_ROW_39_240
*1896 TAP_TAPCELL_ROW_39_241
*1897 TAP_TAPCELL_ROW_39_242
*1898 TAP_TAPCELL_ROW_39_243
*1899 TAP_TAPCELL_ROW_39_244
*1900 TAP_TAPCELL_ROW_39_245
*1901 TAP_TAPCELL_ROW_39_246
*1902 TAP_TAPCELL_ROW_39_247
*1903 TAP_TAPCELL_ROW_3_96
*1904 TAP_TAPCELL_ROW_3_97
*1905 TAP_TAPCELL_ROW_3_98
*1906 TAP_TAPCELL_ROW_3_99
*1907 TAP_TAPCELL_ROW_4_100
*1908 TAP_TAPCELL_ROW_4_101
*1909 TAP_TAPCELL_ROW_4_102
*1910 TAP_TAPCELL_ROW_4_103
*1911 TAP_TAPCELL_ROW_5_104
*1912 TAP_TAPCELL_ROW_5_105
*1913 TAP_TAPCELL_ROW_5_106
*1914 TAP_TAPCELL_ROW_5_107
*1915 TAP_TAPCELL_ROW_6_108
*1916 TAP_TAPCELL_ROW_6_109
*1917 TAP_TAPCELL_ROW_6_110
*1918 TAP_TAPCELL_ROW_6_111
*1919 TAP_TAPCELL_ROW_7_112
*1920 TAP_TAPCELL_ROW_7_113
*1921 TAP_TAPCELL_ROW_7_114
*1922 TAP_TAPCELL_ROW_7_115
*1923 TAP_TAPCELL_ROW_8_116
*1924 TAP_TAPCELL_ROW_8_117
*1925 TAP_TAPCELL_ROW_8_118
*1926 TAP_TAPCELL_ROW_8_119
*1927 TAP_TAPCELL_ROW_9_120
*1928 TAP_TAPCELL_ROW_9_121
*1929 TAP_TAPCELL_ROW_9_122
*1930 TAP_TAPCELL_ROW_9_123
*1931 _333_
*1932 _334_
*1933 _335_
*1934 _336_
*1935 _337_
*1936 _338_
*1937 _339_
*1938 _340_
*1939 _341_
*1940 _342_
*1941 _343_
*1942 _344_
*1943 _345_
*1944 _346_
*1945 _347_
*1946 _348_
*1947 _349_
*1948 _350_
*1949 _351_
*1950 _352_
*1951 _353_
*1952 _354_
*1953 _355_
*1954 _356_
*1955 _357_
*1956 _358_
*1957 _359_
*1958 _360_
*1959 _361_
*1960 _362_
*1961 _363_
*1962 _364_
*1963 _365_
*1964 _366_
*1965 _367_
*1966 _368_
*1967 _369_
*1968 _370_
*1969 _371_
*1970 _372_
*1971 _373_
*1972 _374_
*1973 _375_
*1974 _376_
*1975 _377_
*1976 _378_
*1977 _379_
*1978 _380_
*1979 _381_
*1980 _382_
*1981 _383_
*1982 _384_
*1983 _385_
*1984 _386_
*1985 _387_
*1986 _388_
*1987 _389_
*1988 _390_
*1989 _391_
*1990 _392_
*1991 _393_
*1992 _394_
*1993 _395_
*1994 _396_
*1995 _397_
*1996 _398_
*1997 _399_
*1998 _400_
*1999 _401_
*2000 _402_
*2001 _403_
*2002 _404_
*2003 _405_
*2004 _406_
*2005 _407_
*2006 _408_
*2007 _409_
*2008 _410_
*2009 _411_
*2010 _412_
*2011 _413_
*2012 _414_
*2013 _415_
*2014 _416_
*2015 _417_
*2016 _418_
*2017 _419_
*2018 _420_
*2019 _421_
*2020 _422_
*2021 _423_
*2022 _424_
*2023 _425_
*2024 _426_
*2025 _427_
*2026 _428_
*2027 _429_
*2028 _430_
*2029 _431_
*2030 _432_
*2031 _433_
*2032 _434_
*2033 _435_
*2034 _436_
*2035 _437_
*2036 _438_
*2037 _439_
*2038 _440_
*2039 _441_
*2040 _442_
*2041 _443_
*2042 _444_
*2043 _445_
*2044 _446_
*2045 _447_
*2046 _448_
*2047 _449_
*2048 _450_
*2049 _451_
*2050 _452_
*2051 _453_
*2052 _454_
*2053 _455_
*2054 _456_
*2055 _457_
*2056 _458_
*2057 _459_
*2058 _460_
*2059 _461_
*2060 _462_
*2061 _463_
*2062 _464_
*2063 _465_
*2064 _466_
*2065 _467_
*2066 _468_
*2067 _469_
*2068 _470_
*2069 _471_
*2070 _472_
*2071 _473_
*2072 _474_
*2073 _475_
*2074 _476_
*2075 _477_
*2076 _478_
*2077 _479_
*2078 _480_
*2079 _481_
*2080 _482_
*2081 _483_
*2082 _484_
*2083 _485_
*2084 _486_
*2085 _487_
*2086 _488_
*2087 _489_
*2088 _490_
*2089 _491_
*2090 _492_
*2091 _493_
*2092 _494_
*2093 _495_
*2094 _496_
*2095 _497_
*2096 _498_
*2097 _499_
*2098 _500_
*2099 _501_
*2100 _502_
*2101 _503_
*2102 _504_
*2103 _505_
*2104 _506_
*2105 _507_
*2106 _508_
*2107 _509_
*2108 _510_
*2109 _511_
*2110 _512_
*2111 _513_
*2112 _514_
*2113 _515_
*2114 _516_
*2115 _517_
*2116 _518_
*2117 _519_
*2118 _520_
*2119 _521_
*2120 _522_
*2121 _523_
*2122 _524_
*2123 _525_
*2124 _526_
*2125 _527_
*2126 _528_
*2127 _529_
*2128 _530_
*2129 _531_
*2130 _532_
*2131 _533_
*2132 _534_
*2133 _535_
*2134 _536_
*2135 _537_
*2136 _538_
*2137 _539_
*2138 _540_
*2139 _541_
*2140 _542_
*2141 _543_
*2142 _544_
*2143 _545_
*2144 _546_
*2145 _547_
*2146 _548_
*2147 _549_
*2148 _550_
*2149 _551_
*2150 _552_
*2151 _553_
*2152 _554_
*2153 _555_
*2154 _556_
*2155 _557_
*2156 _558_
*2157 _559_
*2158 _560_
*2159 _561_
*2160 _562_
*2161 _563_
*2162 _564_
*2163 _565_
*2164 _566_
*2165 _567_
*2166 _568_
*2167 _569_
*2168 _570_
*2169 _571_
*2170 _572_
*2171 _573_
*2172 _574_
*2173 _575_
*2174 _576_
*2175 _577_
*2176 _578_
*2177 _579_
*2178 _580_
*2179 _581_
*2180 _582_
*2181 _583_
*2182 _584_
*2183 _585_
*2184 _586_
*2185 _587_
*2186 _588_
*2187 _589_
*2188 _590_
*2189 _591_
*2190 _592_
*2191 _593_
*2192 _594_
*2193 _595_
*2194 _596_
*2195 _597_
*2196 _598_
*2197 _599_
*2198 _600_
*2199 _601_
*2200 _602_
*2201 _603_
*2202 _604_
*2203 _605_
*2204 _606_
*2205 _607_
*2206 _608_
*2207 _609_
*2208 _610_
*2209 _611_
*2210 _612_
*2211 _613_
*2212 _614_
*2213 _615_
*2214 _616_
*2215 _617_
*2216 _618_
*2217 _619_
*2218 _620_
*2219 _621_
*2220 _622_
*2221 _623_
*2222 _624_
*2223 _625_
*2224 _626_
*2225 _627_
*2226 _628_
*2227 _629_
*2228 _630_
*2229 _631_
*2230 _632_
*2231 _633_
*2232 _634_
*2233 _635_
*2234 _636_
*2235 _637_
*2236 _638_
*2237 _639_
*2238 _640_
*2239 _641_
*2240 _642_
*2241 _643_
*2242 _644_
*2243 _645_
*2244 _646_
*2245 _647_
*2246 _648_
*2247 _649_
*2248 _650_
*2249 _651_
*2250 _652_
*2251 _653_
*2252 _654_
*2253 _655_
*2254 _656_
*2255 _657_
*2256 _658_
*2257 _659_
*2258 _660_
*2259 _661_
*2260 _662_
*2261 _663_
*2262 _664_
*2263 _665_
*2264 _666_
*2265 _667_
*2266 _668_
*2267 _669_
*2268 _670_
*2269 _671_
*2270 _672_
*2271 _673_
*2272 _674_
*2273 _675_
*2274 _676_
*2275 _677_
*2276 _678_
*2277 _679_
*2278 _680_
*2279 _681_
*2280 _682_
*2281 _683_
*2282 _684_
*2283 _685_
*2284 _686_
*2285 _687_
*2286 _688_
*2287 _689_
*2288 _690_
*2289 _691_
*2290 _692_
*2291 _693_
*2292 _694_
*2293 _695_
*2294 _696_
*2295 _697_
*2296 _698_
*2297 _699_
*2298 _700_
*2299 _701_
*2300 _702_
*2301 _703_
*2302 _704_
*2303 _705_
*2304 _706_
*2305 _707_
*2306 _708_
*2307 _709_
*2308 _710_
*2309 _711_
*2310 _712_
*2311 _713_
*2312 _714_
*2313 _715_
*2314 _716_
*2315 _717_
*2316 _718_
*2317 _719_
*2318 _720_
*2319 _721_
*2320 _722_
*2321 _723_
*2322 _724_
*2323 _725_
*2324 _726_
*2325 _727_
*2326 _728_
*2327 _729_
*2328 _730_
*2329 _731_
*2330 _732_
*2331 _733_
*2332 _734_
*2333 _735_
*2334 _736_
*2335 _737_
*2336 _738_
*2337 _739_
*2338 _740_
*2339 _741_
*2340 _742_
*2341 _743_
*2342 _744_
*2343 _745_
*2344 _746_
*2345 _747_
*2346 _748_
*2347 _749_
*2348 _750_
*2349 _751_
*2350 _752_
*2351 _753_
*2352 _754_
*2353 _755_
*2354 _756_
*2355 _757_
*2356 _758_
*2357 _759_
*2358 _760_
*2359 _761_
*2360 _762_
*2361 _763_
*2362 _764_
*2363 _765_
*2364 _766_
*2365 _767_
*2366 clkbuf_0_wb_clk_i
*2367 clkbuf_3_0__f_wb_clk_i
*2368 clkbuf_3_1__f_wb_clk_i
*2369 clkbuf_3_2__f_wb_clk_i
*2370 clkbuf_3_3__f_wb_clk_i
*2371 clkbuf_3_4__f_wb_clk_i
*2372 clkbuf_3_5__f_wb_clk_i
*2373 clkbuf_3_6__f_wb_clk_i
*2374 clkbuf_3_7__f_wb_clk_i
*2375 clkload0
*2376 clkload1
*2377 clkload2
*2378 clkload3
*2379 clkload4
*2380 clkload5
*2381 clkload6
*2382 fanout69
*2383 fanout70
*2384 fanout71
*2385 fanout72
*2386 fanout73
*2387 fanout74
*2388 fanout75
*2389 fanout76
*2390 fanout77
*2391 fanout78
*2392 fanout79
*2393 fanout80
*2394 fanout81
*2395 fanout82
*2396 fanout83
*2397 fanout84
*2398 fanout85
*2399 fanout86
*2400 fanout87
*2401 fanout88
*2402 fanout89
*2403 hold1
*2404 hold10
*2405 hold11
*2406 hold12
*2407 hold13
*2408 hold14
*2409 hold15
*2410 hold16
*2411 hold17
*2412 hold18
*2413 hold19
*2414 hold2
*2415 hold20
*2416 hold21
*2417 hold22
*2418 hold23
*2419 hold24
*2420 hold25
*2421 hold26
*2422 hold27
*2423 hold28
*2424 hold29
*2425 hold3
*2426 hold30
*2427 hold4
*2428 hold5
*2429 hold6
*2430 hold7
*2431 hold8
*2432 hold9
*2433 input1
*2434 input10
*2435 input11
*2436 input12
*2437 input13
*2438 input14
*2439 input15
*2440 input16
*2441 input17
*2442 input18
*2443 input19
*2444 input2
*2445 input20
*2446 input21
*2447 input22
*2448 input23
*2449 input24
*2450 input25
*2451 input26
*2452 input3
*2453 input4
*2454 input5
*2455 input6
*2456 input7
*2457 input8
*2458 input9
*2459 output27
*2460 output28
*2461 output29
*2462 output30
*2463 output31
*2464 output32
*2465 output33
*2466 output34
*2467 output35
*2468 output36
*2469 output37
*2470 output38
*2471 output39
*2472 output40
*2473 output41
*2474 output42
*2475 output43
*2476 output44
*2477 output45
*2478 output46
*2479 output47
*2480 output48
*2481 output49
*2482 output50
*2483 output51
*2484 output52
*2485 output53
*2486 output54
*2487 output55
*2488 output56
*2489 output57
*2490 output58
*2491 output59
*2492 output60
*2493 output61
*2494 output62
*2495 output63
*2496 output64
*2497 output65
*2498 output66
*2499 output67
*2500 output68

*PORTS
clock_glitch I
cold_reset_req I
debug_enable O
file_denied I
fsm_error O
fw_fail I
fw_ok I
global_pin_ok I
group_autolock I
group_error O
group_suspended O
group_unlocked O
hdr_parse_fail I
illegal_in I
power_glitch I
safe_led O
security_breach O
size_mismatch I
tamper_in I
unlock_enable O
unlock_req I
user_irq O
warm_reset_req I
wb_ack_o O
wb_adr_i[0] I
wb_adr_i[10] I
wb_adr_i[11] I
wb_adr_i[12] I
wb_adr_i[13] I
wb_adr_i[14] I
wb_adr_i[15] I
wb_adr_i[16] I
wb_adr_i[17] I
wb_adr_i[18] I
wb_adr_i[19] I
wb_adr_i[1] I
wb_adr_i[20] I
wb_adr_i[21] I
wb_adr_i[22] I
wb_adr_i[23] I
wb_adr_i[24] I
wb_adr_i[25] I
wb_adr_i[26] I
wb_adr_i[27] I
wb_adr_i[28] I
wb_adr_i[29] I
wb_adr_i[2] I
wb_adr_i[30] I
wb_adr_i[31] I
wb_adr_i[3] I
wb_adr_i[4] I
wb_adr_i[5] I
wb_adr_i[6] I
wb_adr_i[7] I
wb_adr_i[8] I
wb_adr_i[9] I
wb_clk_i I
wb_cyc_i I
wb_dat_i[0] I
wb_dat_i[10] I
wb_dat_i[11] I
wb_dat_i[12] I
wb_dat_i[13] I
wb_dat_i[14] I
wb_dat_i[15] I
wb_dat_i[16] I
wb_dat_i[17] I
wb_dat_i[18] I
wb_dat_i[19] I
wb_dat_i[1] I
wb_dat_i[20] I
wb_dat_i[21] I
wb_dat_i[22] I
wb_dat_i[23] I
wb_dat_i[24] I
wb_dat_i[25] I
wb_dat_i[26] I
wb_dat_i[27] I
wb_dat_i[28] I
wb_dat_i[29] I
wb_dat_i[2] I
wb_dat_i[30] I
wb_dat_i[31] I
wb_dat_i[3] I
wb_dat_i[4] I
wb_dat_i[5] I
wb_dat_i[6] I
wb_dat_i[7] I
wb_dat_i[8] I
wb_dat_i[9] I
wb_dat_o[0] O
wb_dat_o[10] O
wb_dat_o[11] O
wb_dat_o[12] O
wb_dat_o[13] O
wb_dat_o[14] O
wb_dat_o[15] O
wb_dat_o[16] O
wb_dat_o[17] O
wb_dat_o[18] O
wb_dat_o[19] O
wb_dat_o[1] O
wb_dat_o[20] O
wb_dat_o[21] O
wb_dat_o[22] O
wb_dat_o[23] O
wb_dat_o[24] O
wb_dat_o[25] O
wb_dat_o[26] O
wb_dat_o[27] O
wb_dat_o[28] O
wb_dat_o[29] O
wb_dat_o[2] O
wb_dat_o[30] O
wb_dat_o[31] O
wb_dat_o[3] O
wb_dat_o[4] O
wb_dat_o[5] O
wb_dat_o[6] O
wb_dat_o[7] O
wb_dat_o[8] O
wb_dat_o[9] O
wb_rst_i I
wb_sel_i[0] I
wb_sel_i[1] I
wb_sel_i[2] I
wb_sel_i[3] I
wb_stb_i I
wb_we_i I

*D_NET *1 0.000730075
*CONN
*P clock_glitch I
*I *2433:A I *D sky130_fd_sc_hd__clkbuf_1
*I *733:DIODE I *D sky130_fd_sc_hd__diode_2
*CAP
1 clock_glitch 0.000240021
2 *2433:A 0
3 *733:DIODE 7.09235e-05
4 *1:11 0.000310944
5 *733:DIODE *2067:A 3.18676e-05
6 *1:11 *8:11 7.63188e-05
*RES
1 clock_glitch *1:11 9.73357 
2 *1:11 *733:DIODE 10.6571 
3 *1:11 *2433:A 9.3 
*END

*D_NET *2 0.00104907
*CONN
*P cold_reset_req I
*I *2444:A I *D sky130_fd_sc_hd__buf_1
*I *741:DIODE I *D sky130_fd_sc_hd__diode_2
*CAP
1 cold_reset_req 0.000188219
2 *2444:A 0
3 *741:DIODE 6.59997e-05
4 *2:11 0.000254219
5 *741:DIODE *727:DIODE 2.95726e-05
6 *741:DIODE *546:23 0.00014285
7 *741:DIODE *601:16 0.00014285
8 *2:11 *9:7 8.57347e-05
9 *2:11 *25:7 8.57347e-05
10 *2:11 *601:16 5.38962e-05
*RES
1 cold_reset_req *2:11 10.0371 
2 *2:11 *741:DIODE 11.4786 
3 *2:11 *2444:A 9.3 
*END

*D_NET *3 0.000516413
*CONN
*P debug_enable O
*I *2459:X O *D sky130_fd_sc_hd__buf_2
*CAP
1 debug_enable 0.000168901
2 *2459:X 0.000168901
3 debug_enable unlock_enable 9.54485e-05
4 debug_enable *2279:RESET_B 0
5 debug_enable *7:11 8.31618e-05
*RES
1 *2459:X debug_enable 18.4985 
*END

*D_NET *4 0.00130571
*CONN
*P file_denied I
*I *742:DIODE I *D sky130_fd_sc_hd__diode_2
*I *2452:A I *D sky130_fd_sc_hd__buf_1
*CAP
1 file_denied 0.00042852
2 *742:DIODE 5.85119e-05
3 *2452:A 2.06112e-05
4 *4:9 0.000507643
5 *742:DIODE *2245:A 5.62995e-05
6 *742:DIODE *621:66 2.44318e-05
7 *2452:A *2245:A 3.99614e-06
8 *4:9 group_unlocked 0
9 *4:9 *2245:A 8.07313e-05
10 *4:9 *557:10 0.000110983
11 *4:9 *582:12 1.39841e-05
*RES
1 file_denied *4:9 13.4643 
2 *4:9 *2452:A 9.72857 
3 *4:9 *742:DIODE 10.6571 
*END

*D_NET *5 0.000638041
*CONN
*P fsm_error O
*I *2460:X O *D sky130_fd_sc_hd__buf_2
*CAP
1 fsm_error 0.000293339
2 *2460:X 0.000293339
3 fsm_error user_irq 2.87684e-05
4 fsm_error wb_dat_o[7] 2.25951e-05
5 fsm_error *59:19 0
*RES
1 *2460:X fsm_error 20.891 
*END

*D_NET *6 0.000654663
*CONN
*P fw_fail I
*I *2453:A I *D sky130_fd_sc_hd__clkbuf_1
*I *743:DIODE I *D sky130_fd_sc_hd__diode_2
*CAP
1 fw_fail 0.000162415
2 *2453:A 0
3 *743:DIODE 7.38051e-05
4 *6:11 0.000236221
5 *743:DIODE *2088:B 2.27416e-05
6 *6:11 *2155:A2 0
7 *6:11 *9:7 8.31618e-05
8 *6:11 *13:11 7.63188e-05
*RES
1 fw_fail *6:11 9.12642 
2 *6:11 *743:DIODE 10.6571 
3 *6:11 *2453:A 9.3 
*END

*D_NET *7 0.000663852
*CONN
*P fw_ok I
*I *2454:A I *D sky130_fd_sc_hd__buf_1
*I *744:DIODE I *D sky130_fd_sc_hd__diode_2
*CAP
1 fw_ok 0.000154051
2 *2454:A 0
3 *744:DIODE 6.99052e-05
4 *7:11 0.000223956
5 *744:DIODE *579:16 5.71472e-05
6 *7:11 *25:7 7.56301e-05
7 debug_enable *7:11 8.31618e-05
*RES
1 fw_ok *7:11 8.82285 
2 *7:11 *744:DIODE 10.6571 
3 *7:11 *2454:A 9.3 
*END

*D_NET *8 0.00063131
*CONN
*P global_pin_ok I
*I *2455:A I *D sky130_fd_sc_hd__clkbuf_1
*I *745:DIODE I *D sky130_fd_sc_hd__diode_2
*CAP
1 global_pin_ok 0.000146808
2 *2455:A 0
3 *745:DIODE 7.31726e-05
4 *8:11 0.000219981
5 *745:DIODE *2077:A 3.18676e-05
6 *8:11 *2067:A 0
7 *8:11 *15:11 8.31618e-05
8 *1:11 *8:11 7.63188e-05
*RES
1 global_pin_ok *8:11 8.82285 
2 *8:11 *745:DIODE 10.6571 
3 *8:11 *2455:A 9.3 
*END

*D_NET *9 0.000673362
*CONN
*P group_autolock I
*I *746:DIODE I *D sky130_fd_sc_hd__diode_2
*I *2456:A I *D sky130_fd_sc_hd__buf_1
*CAP
1 group_autolock 0.000115148
2 *746:DIODE 0
3 *2456:A 0.000135019
4 *9:7 0.000250166
5 *2456:A *1944:A 4.1331e-06
6 *2456:A *540:21 0
7 *2456:A *540:27 0
8 *2:11 *9:7 8.57347e-05
9 *6:11 *9:7 8.31618e-05
*RES
1 group_autolock *9:7 4.04607 
2 *9:7 *2456:A 16.2018 
3 *9:7 *746:DIODE 13.8 
*END

*D_NET *10 0.000626725
*CONN
*P group_error O
*I *2461:X O *D sky130_fd_sc_hd__buf_2
*CAP
1 group_error 0.000217758
2 *2461:X 0.000217758
3 group_error *2306:CLK 3.91668e-05
4 group_error *86:13 7.60209e-05
5 group_error *87:9 7.60209e-05
*RES
1 *2461:X group_error 19.4092 
*END

*D_NET *11 0.000719914
*CONN
*P group_suspended O
*I *2462:X O *D sky130_fd_sc_hd__buf_2
*CAP
1 group_suspended 0.000292786
2 *2462:X 0.000292786
3 group_suspended security_breach 0
4 group_suspended *2468:A 3.91668e-05
5 group_suspended *59:15 1.73465e-05
6 group_suspended *72:11 7.78274e-05
7 group_suspended *125:9 0
*RES
1 *2462:X group_suspended 19.4092 
*END

*D_NET *12 0.000940345
*CONN
*P group_unlocked O
*I *2463:X O *D sky130_fd_sc_hd__buf_2
*CAP
1 group_unlocked 0.000420651
2 *2463:X 0.000420651
3 group_unlocked *581:16 9.90431e-05
4 *4:9 group_unlocked 0
*RES
1 *2463:X group_unlocked 21.6393 
*END

*D_NET *13 0.000686827
*CONN
*P hdr_parse_fail I
*I *2457:A I *D sky130_fd_sc_hd__clkbuf_1
*I *747:DIODE I *D sky130_fd_sc_hd__diode_2
*CAP
1 hdr_parse_fail 0.000175172
2 *2457:A 0
3 *747:DIODE 7.12814e-05
4 *13:11 0.000246453
5 *747:DIODE *2088:C 3.18676e-05
6 *13:11 *2088:B 0
7 *13:11 *18:11 8.57347e-05
8 *6:11 *13:11 7.63188e-05
*RES
1 hdr_parse_fail *13:11 9.43 
2 *13:11 *747:DIODE 10.6571 
3 *13:11 *2457:A 9.3 
*END

*D_NET *14 0.000671814
*CONN
*P illegal_in I
*I *748:DIODE I *D sky130_fd_sc_hd__diode_2
*I *2458:A I *D sky130_fd_sc_hd__clkbuf_1
*CAP
1 illegal_in 0.000193464
2 *748:DIODE 6.63489e-05
3 *2458:A 0
4 *14:13 0.000259813
5 *748:DIODE *2225:A2 3.18676e-05
6 *14:13 wb_dat_o[6] 4.68796e-05
7 *14:13 wb_dat_o[7] 0
8 *14:13 *2029:B 0
9 *14:13 *61:13 7.34412e-05
*RES
1 illegal_in *14:13 9.59007 
2 *14:13 *2458:A 9.3 
3 *14:13 *748:DIODE 10.6571 
*END

*D_NET *15 0.000854017
*CONN
*P power_glitch I
*I *2434:A I *D sky130_fd_sc_hd__clkbuf_1
*I *723:DIODE I *D sky130_fd_sc_hd__diode_2
*CAP
1 power_glitch 0.000227114
2 *2434:A 0
3 *723:DIODE 9.00335e-05
4 *15:11 0.000317148
5 *15:11 *2067:B 5.33978e-05
6 *15:11 *18:11 8.31618e-05
7 *8:11 *15:11 8.31618e-05
*RES
1 power_glitch *15:11 10.6443 
2 *15:11 *723:DIODE 10.6571 
3 *15:11 *2434:A 9.3 
*END

*D_NET *16 0.000975663
*CONN
*P safe_led O
*I *2464:X O *D sky130_fd_sc_hd__buf_2
*CAP
1 safe_led 0.000487832
2 *2464:X 0.000487832
3 safe_led wb_dat_o[4] 0
4 safe_led wb_dat_o[8] 0
*RES
1 *2464:X safe_led 23.4607 
*END

*D_NET *17 0.00142814
*CONN
*P security_breach O
*I *2465:X O *D sky130_fd_sc_hd__buf_2
*CAP
1 security_breach 0.000465742
2 *2465:X 0.000465742
3 security_breach wb_ack_o 0.000378353
4 security_breach *2462:A 0.00010096
5 security_breach *59:15 1.73465e-05
6 security_breach *131:11 0
7 group_suspended security_breach 0
*RES
1 *2465:X security_breach 23.6758 
*END

*D_NET *18 0.000844867
*CONN
*P size_mismatch I
*I *2435:A I *D sky130_fd_sc_hd__clkbuf_1
*I *724:DIODE I *D sky130_fd_sc_hd__diode_2
*CAP
1 size_mismatch 0.000235089
2 *2435:A 0
3 *724:DIODE 7.43225e-05
4 *18:11 0.000309412
5 *724:DIODE *2088:A 5.71472e-05
6 *18:11 *2088:B 0
7 *18:11 *2088:C 0
8 *13:11 *18:11 8.57347e-05
9 *15:11 *18:11 8.31618e-05
*RES
1 size_mismatch *18:11 10.3407 
2 *18:11 *724:DIODE 10.6571 
3 *18:11 *2435:A 9.3 
*END

*D_NET *19 0.000701926
*CONN
*P tamper_in I
*I *725:DIODE I *D sky130_fd_sc_hd__diode_2
*I *2436:A I *D sky130_fd_sc_hd__clkbuf_1
*CAP
1 tamper_in 0.000211258
2 *725:DIODE 7.3163e-05
3 *2436:A 0
4 *19:11 0.000284421
5 *725:DIODE *2226:A2 3.18676e-05
6 *19:11 wb_dat_o[26] 3.19385e-05
7 *19:11 *61:13 6.92776e-05
*RES
1 tamper_in *19:11 9.43 
2 *19:11 *2436:A 9.3 
3 *19:11 *725:DIODE 10.6571 
*END

*D_NET *20 0.000594495
*CONN
*P unlock_enable O
*I *2466:X O *D sky130_fd_sc_hd__buf_2
*CAP
1 unlock_enable 0.000170506
2 *2466:X 0.000170506
3 unlock_enable wb_dat_o[10] 9.23325e-05
4 unlock_enable *2466:A 0
5 unlock_enable *2470:A 6.57026e-05
6 debug_enable unlock_enable 9.54485e-05
*RES
1 *2466:X unlock_enable 18.8021 
*END

*D_NET *21 0.00291231
*CONN
*P unlock_req I
*I *726:DIODE I *D sky130_fd_sc_hd__diode_2
*I *2437:A I *D sky130_fd_sc_hd__clkbuf_1
*CAP
1 unlock_req 0.000204344
2 *726:DIODE 0.000812473
3 *2437:A 0
4 *21:11 0.00101682
5 *726:DIODE *730:DIODE 6.44513e-05
6 *726:DIODE *732:DIODE 0.000312215
7 *726:DIODE *1963:A_N 5.03772e-05
8 *726:DIODE *1963:B 0.00017687
9 *726:DIODE *2030:A 2.14757e-05
10 *726:DIODE *2301:D 1.52978e-05
11 *726:DIODE *291:17 1.03968e-05
12 *726:DIODE *618:24 0
13 *21:11 *730:DIODE 4.33002e-05
14 *21:11 *1934:A 9.60337e-06
15 *21:11 *1962:A_N 0
16 *21:11 *59:15 5.5865e-05
17 *21:11 *60:9 5.08461e-05
18 *21:11 *72:11 6.7973e-05
19 *21:11 *130:11 0
*RES
1 unlock_req *21:11 9.43 
2 *21:11 *2437:A 9.3 
3 *21:11 *726:DIODE 29.55 
*END

*D_NET *22 0.000636921
*CONN
*P user_irq O
*I *2467:X O *D sky130_fd_sc_hd__buf_2
*CAP
1 user_irq 0.000266066
2 *2467:X 0.000266066
3 user_irq wb_dat_o[7] 0
4 user_irq *2029:B 0
5 user_irq *83:13 7.60209e-05
6 fsm_error user_irq 2.87684e-05
*RES
1 *2467:X user_irq 19.4092 
*END

*D_NET *25 0.000892028
*CONN
*P warm_reset_req I
*I *2438:A I *D sky130_fd_sc_hd__dlymetal6s2s_1
*I *727:DIODE I *D sky130_fd_sc_hd__diode_2
*CAP
1 warm_reset_req 0.000124694
2 *2438:A 4.55019e-05
3 *727:DIODE 0.000165898
4 *25:7 0.000336094
5 *727:DIODE *540:10 0
6 *727:DIODE *601:16 2.89016e-05
7 *2438:A *540:10 0
8 *741:DIODE *727:DIODE 2.95726e-05
9 *2:11 *25:7 8.57347e-05
10 *7:11 *25:7 7.56301e-05
*RES
1 warm_reset_req *25:7 4.04607 
2 *25:7 *727:DIODE 16.0411 
3 *25:7 *2438:A 14.6839 
*END

*D_NET *26 0.00246283
*CONN
*P wb_ack_o O
*I *2468:X O *D sky130_fd_sc_hd__buf_2
*CAP
1 wb_ack_o 0.000576019
2 *2468:X 0.000576019
3 wb_ack_o *2462:A 2.77173e-05
4 wb_ack_o *2465:A 0
5 wb_ack_o *2468:A 0.000183726
6 wb_ack_o *125:9 0.000663847
7 wb_ack_o *131:11 5.71472e-05
8 security_breach wb_ack_o 0.000378353
*RES
1 *2468:X wb_ack_o 30.318 
*END

*D_NET *49 0.00118241
*CONN
*P wb_adr_i[2] I
*I *2439:A I *D sky130_fd_sc_hd__clkbuf_2
*I *728:DIODE I *D sky130_fd_sc_hd__diode_2
*CAP
1 wb_adr_i[2] 0.00047215
2 *2439:A 6.00311e-05
3 *728:DIODE 3.89379e-05
4 *49:9 0.000571119
5 *728:DIODE *541:10 2.27416e-05
6 *2439:A *541:10 1.74352e-05
7 *49:9 wb_dat_o[3] 0
8 *49:9 wb_dat_o[5] 0
*RES
1 wb_adr_i[2] *49:9 13.75 
2 *49:9 *728:DIODE 9.83571 
3 *49:9 *2439:A 10.2643 
*END

*D_NET *52 0.00123098
*CONN
*P wb_adr_i[3] I
*I *729:DIODE I *D sky130_fd_sc_hd__diode_2
*I *2440:A I *D sky130_fd_sc_hd__buf_2
*CAP
1 wb_adr_i[3] 0.00047089
2 *729:DIODE 0
3 *2440:A 6.79744e-05
4 *52:9 0.000538864
5 *2440:A *558:20 9.80173e-05
6 *2440:A *619:51 5.52302e-05
7 *52:9 *126:9 0
*RES
1 wb_adr_i[3] *52:9 13.75 
2 *52:9 *2440:A 10.9786 
3 *52:9 *729:DIODE 9.3 
*END

*D_NET *59 0.0151088
*CONN
*P wb_clk_i I
*I *2366:A I *D sky130_fd_sc_hd__clkbuf_16
*I *699:DIODE I *D sky130_fd_sc_hd__diode_2
*CAP
1 wb_clk_i 0.00092027
2 *2366:A 0.000117348
3 *699:DIODE 0
4 *59:21 0.00416937
5 *59:19 0.00594654
6 *59:15 0.00281478
7 *2366:A *2058:A 3.97657e-05
8 *59:15 *60:9 4.2137e-05
9 *59:19 wb_dat_o[1] 0
10 *59:19 wb_dat_o[6] 0
11 *59:21 wb_dat_o[6] 0
12 *59:21 *1986:B 6.87673e-05
13 *59:21 *1988:A1 9.71197e-05
14 *59:21 *1991:A1 5.52238e-05
15 *59:21 *2058:A 4.55324e-05
16 *59:21 *2275:RESET_B 0.000217916
17 *59:21 *2425:A 8.35608e-05
18 *59:21 *2497:A 1.92789e-05
19 *59:21 *295:49 6.73733e-05
20 *59:21 *334:8 3.67142e-05
21 *59:21 *467:108 0.00011513
22 *59:21 *634:48 2.14658e-05
23 *59:21 *634:63 0.000139907
24 fsm_error *59:19 0
25 group_suspended *59:15 1.73465e-05
26 security_breach *59:15 1.73465e-05
27 *21:11 *59:15 5.5865e-05
*RES
1 wb_clk_i *59:15 12.8432 
2 *59:15 *59:19 43.0268 
3 *59:19 *59:21 49.8214 
4 *59:21 *699:DIODE 9.3 
5 *59:21 *2366:A 11.0857 
*END

*D_NET *60 0.00124015
*CONN
*P wb_cyc_i I
*I *730:DIODE I *D sky130_fd_sc_hd__diode_2
*I *2441:A I *D sky130_fd_sc_hd__clkbuf_1
*CAP
1 wb_cyc_i 0.00018627
2 *730:DIODE 0.000200569
3 *2441:A 3.72704e-05
4 *60:9 0.000424109
5 *730:DIODE *1934:A 3.54587e-05
6 *730:DIODE *2030:A 3.18676e-05
7 *60:9 *1934:A 4.78466e-05
8 *60:9 *130:11 7.60209e-05
9 *726:DIODE *730:DIODE 6.44513e-05
10 *21:11 *730:DIODE 4.33002e-05
11 *21:11 *60:9 5.08461e-05
12 *59:15 *60:9 4.2137e-05
*RES
1 wb_cyc_i *60:9 5.76864 
2 *60:9 *2441:A 14.3357 
3 *60:9 *730:DIODE 17.5143 
*END

*D_NET *61 0.000675252
*CONN
*P wb_dat_i[0] I
*I *731:DIODE I *D sky130_fd_sc_hd__diode_2
*I *2442:A I *D sky130_fd_sc_hd__clkbuf_1
*CAP
1 wb_dat_i[0] 0.000183543
2 *731:DIODE 6.67901e-05
3 *2442:A 0
4 *61:13 0.000250333
5 *731:DIODE *2029:A 3.18676e-05
6 *14:13 *61:13 7.34412e-05
7 *19:11 *61:13 6.92776e-05
*RES
1 wb_dat_i[0] *61:13 9.59007 
2 *61:13 *2442:A 9.3 
3 *61:13 *731:DIODE 10.6571 
*END

*D_NET *72 0.00177793
*CONN
*P wb_dat_i[1] I
*I *732:DIODE I *D sky130_fd_sc_hd__diode_2
*I *2443:A I *D sky130_fd_sc_hd__clkbuf_1
*CAP
1 wb_dat_i[1] 0.000182762
2 *732:DIODE 0.000219547
3 *2443:A 0
4 *72:11 0.000402309
5 *732:DIODE *737:DIODE 0.000140933
6 *732:DIODE *1962:A_N 0.000173797
7 *732:DIODE *2030:A 0.000200563
8 group_suspended *72:11 7.78274e-05
9 *726:DIODE *732:DIODE 0.000312215
10 *21:11 *72:11 6.7973e-05
*RES
1 wb_dat_i[1] *72:11 9.12642 
2 *72:11 *2443:A 9.3 
3 *72:11 *732:DIODE 24.9071 
*END

*D_NET *83 0.00080685
*CONN
*P wb_dat_i[2] I
*I *734:DIODE I *D sky130_fd_sc_hd__diode_2
*I *2445:A I *D sky130_fd_sc_hd__clkbuf_1
*CAP
1 wb_dat_i[2] 0.000234911
2 *734:DIODE 7.87883e-05
3 *2445:A 0
4 *83:13 0.000313699
5 *734:DIODE *2469:A 7.43578e-06
6 *83:13 wb_dat_o[0] 7.60209e-05
7 *83:13 *2031:A 1.99737e-05
8 *83:13 *324:24 0
9 user_irq *83:13 7.60209e-05
*RES
1 wb_dat_i[2] *83:13 10.8044 
2 *83:13 *2445:A 9.3 
3 *83:13 *734:DIODE 10.6571 
*END

*D_NET *86 0.00125363
*CONN
*P wb_dat_i[3] I
*I *735:DIODE I *D sky130_fd_sc_hd__diode_2
*I *2446:A I *D sky130_fd_sc_hd__clkbuf_1
*CAP
1 wb_dat_i[3] 0.000310585
2 *735:DIODE 0.000171224
3 *2446:A 2.23854e-05
4 *86:13 0.000504195
5 *735:DIODE *2228:A 5.52302e-05
6 *86:13 wb_dat_o[2] 0.000113993
7 *86:13 *2032:A 0
8 *86:13 *324:16 0
9 group_error *86:13 7.60209e-05
*RES
1 wb_dat_i[3] *86:13 11.8401 
2 *86:13 *2446:A 9.72857 
3 *86:13 *735:DIODE 11.8893 
*END

*D_NET *87 0.000812764
*CONN
*P wb_dat_i[4] I
*I *736:DIODE I *D sky130_fd_sc_hd__diode_2
*I *2447:A I *D sky130_fd_sc_hd__clkbuf_1
*CAP
1 wb_dat_i[4] 0.000146752
2 *736:DIODE 0.00015293
3 *2447:A 3.4396e-05
4 *87:9 0.000334078
5 *736:DIODE *2306:CLK 0
6 *87:9 wb_dat_o[0] 6.8587e-05
7 *87:9 *324:22 0
8 group_error *87:9 7.60209e-05
*RES
1 wb_dat_i[4] *87:9 4.55436 
2 *87:9 *2447:A 14.3357 
3 *87:9 *736:DIODE 15.9786 
*END

*D_NET *93 0.000580364
*CONN
*P wb_dat_o[0] O
*I *2469:X O *D sky130_fd_sc_hd__buf_2
*CAP
1 wb_dat_o[0] 0.000217878
2 *2469:X 0.000217878
3 *83:13 wb_dat_o[0] 7.60209e-05
4 *87:9 wb_dat_o[0] 6.8587e-05
*RES
1 *2469:X wb_dat_o[0] 18.9972 
*END

*D_NET *94 0.000889602
*CONN
*P wb_dat_o[10] O
*I *2470:X O *D sky130_fd_sc_hd__buf_2
*CAP
1 wb_dat_o[10] 0.000278267
2 *2470:X 0.000278267
3 wb_dat_o[10] wb_dat_o[11] 8.96658e-05
4 wb_dat_o[10] *2280:RESET_B 0
5 wb_dat_o[10] *2470:A 0.000111783
6 wb_dat_o[10] *2471:A 3.92854e-05
7 wb_dat_o[10] *373:10 0
8 unlock_enable wb_dat_o[10] 9.23325e-05
*RES
1 *2470:X wb_dat_o[10] 20.6956 
*END

*D_NET *95 0.000820459
*CONN
*P wb_dat_o[11] O
*I *2471:X O *D sky130_fd_sc_hd__buf_2
*CAP
1 wb_dat_o[11] 0.000314135
2 *2471:X 0.000314135
3 wb_dat_o[11] wb_dat_o[15] 9.23325e-05
4 wb_dat_o[11] *2471:A 1.01912e-05
5 wb_dat_o[11] *620:84 0
6 wb_dat_o[10] wb_dat_o[11] 8.96658e-05
*RES
1 *2471:X wb_dat_o[11] 18.5553 
*END

*D_NET *96 0.00118623
*CONN
*P wb_dat_o[12] O
*I *2472:X O *D sky130_fd_sc_hd__buf_2
*CAP
1 wb_dat_o[12] 0.000320734
2 *2472:X 0.000320734
3 wb_dat_o[12] wb_dat_o[13] 9.28756e-05
4 wb_dat_o[12] wb_dat_o[15] 9.54485e-05
5 wb_dat_o[12] *2472:A 0.000329185
6 wb_dat_o[12] *2475:A 2.72545e-05
*RES
1 *2472:X wb_dat_o[12] 22.7485 
*END

*D_NET *97 0.000983695
*CONN
*P wb_dat_o[13] O
*I *2473:X O *D sky130_fd_sc_hd__buf_2
*CAP
1 wb_dat_o[13] 0.00036831
2 *2473:X 0.00036831
3 wb_dat_o[13] wb_dat_o[14] 8.30631e-05
4 wb_dat_o[13] *2284:RESET_B 0
5 wb_dat_o[13] *2473:A 5.10602e-05
6 wb_dat_o[13] *2475:A 2.00751e-05
7 wb_dat_o[13] *620:122 0
8 wb_dat_o[12] wb_dat_o[13] 9.28756e-05
*RES
1 *2473:X wb_dat_o[13] 20.0731 
*END

*D_NET *98 0.000692906
*CONN
*P wb_dat_o[14] O
*I *2474:X O *D sky130_fd_sc_hd__buf_2
*CAP
1 wb_dat_o[14] 0.000304921
2 *2474:X 0.000304921
3 wb_dat_o[13] wb_dat_o[14] 8.30631e-05
*RES
1 *2474:X wb_dat_o[14] 20.0163 
*END

*D_NET *99 0.00068356
*CONN
*P wb_dat_o[15] O
*I *2475:X O *D sky130_fd_sc_hd__buf_2
*CAP
1 wb_dat_o[15] 0.000189179
2 *2475:X 0.000189179
3 wb_dat_o[15] *2472:A 0.000117421
4 wb_dat_o[11] wb_dat_o[15] 9.23325e-05
5 wb_dat_o[12] wb_dat_o[15] 9.54485e-05
*RES
1 *2475:X wb_dat_o[15] 19.4092 
*END

*D_NET *100 0.000612167
*CONN
*P wb_dat_o[16] O
*I *2476:X O *D sky130_fd_sc_hd__buf_2
*CAP
1 wb_dat_o[16] 0.000277122
2 *2476:X 0.000277122
3 wb_dat_o[16] wb_dat_o[18] 3.53288e-05
4 wb_dat_o[16] wb_dat_o[25] 2.25951e-05
5 wb_dat_o[16] wb_dat_o[30] 0
6 wb_dat_o[16] wb_dat_o[31] 0
*RES
1 *2476:X wb_dat_o[16] 20.6203 
*END

*D_NET *101 0.00102776
*CONN
*P wb_dat_o[17] O
*I *2477:X O *D sky130_fd_sc_hd__buf_2
*CAP
1 wb_dat_o[17] 0.000389088
2 *2477:X 0.000389088
3 wb_dat_o[17] wb_dat_o[19] 0.000196851
4 wb_dat_o[17] wb_dat_o[23] 0
5 wb_dat_o[17] wb_dat_o[31] 4.24805e-05
6 wb_dat_o[17] *2300:RESET_B 0
7 wb_dat_o[17] *575:14 1.02504e-05
*RES
1 *2477:X wb_dat_o[17] 21.5189 
*END

*D_NET *102 0.000638087
*CONN
*P wb_dat_o[18] O
*I *2478:X O *D sky130_fd_sc_hd__buf_2
*CAP
1 wb_dat_o[18] 0.000289369
2 *2478:X 0.000289369
3 wb_dat_o[18] wb_dat_o[31] 2.40201e-05
4 wb_dat_o[16] wb_dat_o[18] 3.53288e-05
*RES
1 *2478:X wb_dat_o[18] 20.891 
*END

*D_NET *103 0.00175833
*CONN
*P wb_dat_o[19] O
*I *2479:X O *D sky130_fd_sc_hd__buf_2
*CAP
1 wb_dat_o[19] 0.000659694
2 *2479:X 0.000659694
3 wb_dat_o[19] wb_dat_o[23] 0.000105162
4 wb_dat_o[19] *2478:A 5.62995e-05
5 wb_dat_o[19] *2493:A 8.06331e-05
6 wb_dat_o[19] *575:14 0
7 wb_dat_o[17] wb_dat_o[19] 0.000196851
*RES
1 *2479:X wb_dat_o[19] 28.1241 
*END

*D_NET *104 0.000629713
*CONN
*P wb_dat_o[1] O
*I *2480:X O *D sky130_fd_sc_hd__buf_2
*CAP
1 wb_dat_o[1] 0.00028759
2 *2480:X 0.00028759
3 wb_dat_o[1] wb_dat_o[2] 2.25951e-05
4 wb_dat_o[1] *130:11 3.19385e-05
5 *59:19 wb_dat_o[1] 0
*RES
1 *2480:X wb_dat_o[1] 20.891 
*END

*D_NET *105 0.000864928
*CONN
*P wb_dat_o[20] O
*I *2481:X O *D sky130_fd_sc_hd__buf_2
*CAP
1 wb_dat_o[20] 0.000299677
2 *2481:X 0.000299677
3 wb_dat_o[20] wb_dat_o[24] 0
4 wb_dat_o[20] wb_dat_o[28] 2.25951e-05
5 wb_dat_o[20] wb_dat_o[29] 0.000178996
6 wb_dat_o[20] *2481:A 6.39829e-05
*RES
1 *2481:X wb_dat_o[20] 20.0151 
*END

*D_NET *106 0.000828588
*CONN
*P wb_dat_o[21] O
*I *2482:X O *D sky130_fd_sc_hd__buf_2
*CAP
1 wb_dat_o[21] 0.000331865
2 *2482:X 0.000331865
3 wb_dat_o[21] wb_dat_o[24] 6.37275e-05
4 wb_dat_o[21] wb_dat_o[30] 6.18446e-05
5 wb_dat_o[21] *2482:A 3.92854e-05
*RES
1 *2482:X wb_dat_o[21] 20.9609 
*END

*D_NET *107 0.00265316
*CONN
*P wb_dat_o[22] O
*I *2483:X O *D sky130_fd_sc_hd__buf_2
*CAP
1 wb_dat_o[22] 0.000901277
2 *2483:X 0.000901277
3 wb_dat_o[22] wb_dat_o[23] 0.000850602
*RES
1 *2483:X wb_dat_o[22] 29.3505 
*END

*D_NET *108 0.00289768
*CONN
*P wb_dat_o[23] O
*I *2484:X O *D sky130_fd_sc_hd__buf_2
*CAP
1 wb_dat_o[23] 0.000871662
2 *2484:X 0.000871662
3 wb_dat_o[23] *2300:CLK 1.00073e-05
4 wb_dat_o[23] *581:16 0.000188586
5 wb_dat_o[17] wb_dat_o[23] 0
6 wb_dat_o[19] wb_dat_o[23] 0.000105162
7 wb_dat_o[22] wb_dat_o[23] 0.000850602
*RES
1 *2484:X wb_dat_o[23] 28.5655 
*END

*D_NET *109 0.000639177
*CONN
*P wb_dat_o[24] O
*I *2485:X O *D sky130_fd_sc_hd__buf_2
*CAP
1 wb_dat_o[24] 0.000269142
2 *2485:X 0.000269142
3 wb_dat_o[24] wb_dat_o[29] 3.71658e-05
4 wb_dat_o[24] *2485:A 0
5 wb_dat_o[20] wb_dat_o[24] 0
6 wb_dat_o[21] wb_dat_o[24] 6.37275e-05
*RES
1 *2485:X wb_dat_o[24] 19.4092 
*END

*D_NET *110 0.000724456
*CONN
*P wb_dat_o[25] O
*I *2486:X O *D sky130_fd_sc_hd__buf_2
*CAP
1 wb_dat_o[25] 0.000336546
2 *2486:X 0.000336546
3 wb_dat_o[25] wb_dat_o[30] 2.87684e-05
4 wb_dat_o[16] wb_dat_o[25] 2.25951e-05
*RES
1 *2486:X wb_dat_o[25] 20.891 
*END

*D_NET *111 0.000806651
*CONN
*P wb_dat_o[26] O
*I *2487:X O *D sky130_fd_sc_hd__buf_2
*CAP
1 wb_dat_o[26] 0.000376059
2 *2487:X 0.000376059
3 wb_dat_o[26] wb_dat_o[27] 2.25951e-05
4 *19:11 wb_dat_o[26] 3.19385e-05
*RES
1 *2487:X wb_dat_o[26] 21.3017 
*END

*D_NET *112 0.000650598
*CONN
*P wb_dat_o[27] O
*I *2488:X O *D sky130_fd_sc_hd__buf_2
*CAP
1 wb_dat_o[27] 0.000289234
2 *2488:X 0.000289234
3 wb_dat_o[27] wb_dat_o[28] 4.95345e-05
4 wb_dat_o[26] wb_dat_o[27] 2.25951e-05
*RES
1 *2488:X wb_dat_o[27] 20.891 
*END

*D_NET *113 0.000642175
*CONN
*P wb_dat_o[28] O
*I *2489:X O *D sky130_fd_sc_hd__buf_2
*CAP
1 wb_dat_o[28] 0.000285023
2 *2489:X 0.000285023
3 wb_dat_o[20] wb_dat_o[28] 2.25951e-05
4 wb_dat_o[27] wb_dat_o[28] 4.95345e-05
*RES
1 *2489:X wb_dat_o[28] 20.891 
*END

*D_NET *114 0.000999814
*CONN
*P wb_dat_o[29] O
*I *2490:X O *D sky130_fd_sc_hd__buf_2
*CAP
1 wb_dat_o[29] 0.000391826
2 *2490:X 0.000391826
3 wb_dat_o[29] *2481:A 0
4 wb_dat_o[20] wb_dat_o[29] 0.000178996
5 wb_dat_o[24] wb_dat_o[29] 3.71658e-05
*RES
1 *2490:X wb_dat_o[29] 23.8161 
*END

*D_NET *115 0.000780214
*CONN
*P wb_dat_o[2] O
*I *2491:X O *D sky130_fd_sc_hd__buf_2
*CAP
1 wb_dat_o[2] 0.000289821
2 *2491:X 0.000289821
3 wb_dat_o[2] *2491:A 6.39829e-05
4 wb_dat_o[2] *130:11 0
5 wb_dat_o[1] wb_dat_o[2] 2.25951e-05
6 *86:13 wb_dat_o[2] 0.000113993
*RES
1 *2491:X wb_dat_o[2] 20.0151 
*END

*D_NET *116 0.000816892
*CONN
*P wb_dat_o[30] O
*I *2492:X O *D sky130_fd_sc_hd__buf_2
*CAP
1 wb_dat_o[30] 0.000358338
2 *2492:X 0.000358338
3 wb_dat_o[30] *2492:A 9.60337e-06
4 wb_dat_o[16] wb_dat_o[30] 0
5 wb_dat_o[21] wb_dat_o[30] 6.18446e-05
6 wb_dat_o[25] wb_dat_o[30] 2.87684e-05
*RES
1 *2492:X wb_dat_o[30] 18.5553 
*END

*D_NET *117 0.000769329
*CONN
*P wb_dat_o[31] O
*I *2493:X O *D sky130_fd_sc_hd__buf_2
*CAP
1 wb_dat_o[31] 0.000351414
2 *2493:X 0.000351414
3 wb_dat_o[16] wb_dat_o[31] 0
4 wb_dat_o[17] wb_dat_o[31] 4.24805e-05
5 wb_dat_o[18] wb_dat_o[31] 2.40201e-05
*RES
1 *2493:X wb_dat_o[31] 20.6651 
*END

*D_NET *118 0.00101585
*CONN
*P wb_dat_o[3] O
*I *2494:X O *D sky130_fd_sc_hd__buf_2
*CAP
1 wb_dat_o[3] 0.000507927
2 *2494:X 0.000507927
3 wb_dat_o[3] *126:9 0
4 *49:9 wb_dat_o[3] 0
*RES
1 *2494:X wb_dat_o[3] 23.8714 
*END

*D_NET *119 0.000971115
*CONN
*P wb_dat_o[4] O
*I *2495:X O *D sky130_fd_sc_hd__buf_2
*CAP
1 wb_dat_o[4] 0.000485557
2 *2495:X 0.000485557
3 safe_led wb_dat_o[4] 0
*RES
1 *2495:X wb_dat_o[4] 23.4607 
*END

*D_NET *120 0.000975663
*CONN
*P wb_dat_o[5] O
*I *2496:X O *D sky130_fd_sc_hd__buf_2
*CAP
1 wb_dat_o[5] 0.000487832
2 *2496:X 0.000487832
3 *49:9 wb_dat_o[5] 0
*RES
1 *2496:X wb_dat_o[5] 23.4607 
*END

*D_NET *121 0.00112575
*CONN
*P wb_dat_o[6] O
*I *2497:X O *D sky130_fd_sc_hd__buf_2
*CAP
1 wb_dat_o[6] 0.000406191
2 *2497:X 0.000406191
3 wb_dat_o[6] wb_dat_o[7] 0.00018871
4 wb_dat_o[6] *2497:A 7.77751e-05
5 wb_dat_o[6] *2498:A 0
6 *14:13 wb_dat_o[6] 4.68796e-05
7 *59:19 wb_dat_o[6] 0
8 *59:21 wb_dat_o[6] 0
*RES
1 *2497:X wb_dat_o[6] 23.8882 
*END

*D_NET *122 0.0008666
*CONN
*P wb_dat_o[7] O
*I *2498:X O *D sky130_fd_sc_hd__buf_2
*CAP
1 wb_dat_o[7] 0.000295656
2 *2498:X 0.000295656
3 wb_dat_o[7] *2498:A 6.39829e-05
4 fsm_error wb_dat_o[7] 2.25951e-05
5 user_irq wb_dat_o[7] 0
6 wb_dat_o[6] wb_dat_o[7] 0.00018871
7 *14:13 wb_dat_o[7] 0
*RES
1 *2498:X wb_dat_o[7] 20.0151 
*END

*D_NET *123 0.00111102
*CONN
*P wb_dat_o[8] O
*I *2499:X O *D sky130_fd_sc_hd__buf_2
*CAP
1 wb_dat_o[8] 0.000538538
2 *2499:X 0.000538538
3 wb_dat_o[8] *2499:A 7.43578e-06
4 wb_dat_o[8] *622:121 2.65105e-05
5 safe_led wb_dat_o[8] 0
*RES
1 *2499:X wb_dat_o[8] 23.9964 
*END

*D_NET *124 0.00101131
*CONN
*P wb_dat_o[9] O
*I *2500:X O *D sky130_fd_sc_hd__buf_2
*CAP
1 wb_dat_o[9] 0.000505653
2 *2500:X 0.000505653
*RES
1 *2500:X wb_dat_o[9] 23.8714 
*END

*D_NET *125 0.00470533
*CONN
*P wb_rst_i I
*I *2448:A I *D sky130_fd_sc_hd__clkbuf_1
*I *737:DIODE I *D sky130_fd_sc_hd__diode_2
*CAP
1 wb_rst_i 0.000650933
2 *2448:A 8.61506e-05
3 *737:DIODE 0.000666913
4 *125:9 0.001404
5 *737:DIODE *698:DIODE 0.000144773
6 *737:DIODE *1962:A_N 0
7 *737:DIODE *2028:C 0.000341852
8 *737:DIODE *2398:A 3.0285e-05
9 *737:DIODE *2465:A 5.71472e-05
10 *737:DIODE *2468:A 0
11 *737:DIODE *560:76 0.000518497
12 *737:DIODE *618:24 0
13 *125:9 *2468:A 0
14 group_suspended *125:9 0
15 wb_ack_o *125:9 0.000663847
16 *732:DIODE *737:DIODE 0.000140933
*RES
1 wb_rst_i *125:9 16.5531 
2 *125:9 *737:DIODE 37.9964 
3 *125:9 *2448:A 15.1571 
*END

*D_NET *126 0.00148988
*CONN
*P wb_sel_i[0] I
*I *738:DIODE I *D sky130_fd_sc_hd__diode_2
*I *2449:A I *D sky130_fd_sc_hd__clkbuf_1
*CAP
1 wb_sel_i[0] 0.000510331
2 *738:DIODE 4.29081e-05
3 *2449:A 0
4 *126:9 0.000553239
5 *738:DIODE *2027:C 2.28499e-05
6 *738:DIODE *2494:A 9.71197e-05
7 *738:DIODE *619:64 0.000228558
8 *738:DIODE *622:121 3.48705e-05
9 wb_dat_o[3] *126:9 0
10 *52:9 *126:9 0
*RES
1 wb_sel_i[0] *126:9 14.3571 
2 *126:9 *2449:A 9.3 
3 *126:9 *738:DIODE 11.4786 
*END

*D_NET *130 0.000859935
*CONN
*P wb_stb_i I
*I *739:DIODE I *D sky130_fd_sc_hd__diode_2
*I *2450:A I *D sky130_fd_sc_hd__clkbuf_1
*CAP
1 wb_stb_i 0.00027311
2 *739:DIODE 7.43044e-05
3 *2450:A 0
4 *130:11 0.000347414
5 *739:DIODE *1934:A 5.71472e-05
6 *130:11 *324:16 0
7 wb_dat_o[1] *130:11 3.19385e-05
8 wb_dat_o[2] *130:11 0
9 *21:11 *130:11 0
10 *60:9 *130:11 7.60209e-05
*RES
1 wb_stb_i *130:11 10.6443 
2 *130:11 *2450:A 9.3 
3 *130:11 *739:DIODE 10.6571 
*END

*D_NET *131 0.00256676
*CONN
*P wb_we_i I
*I *740:DIODE I *D sky130_fd_sc_hd__diode_2
*I *2451:A I *D sky130_fd_sc_hd__clkbuf_1
*CAP
1 wb_we_i 0.000631364
2 *740:DIODE 0.000116613
3 *2451:A 2.23854e-05
4 *131:11 0.000770363
5 *740:DIODE *2402:A 0.000142856
6 *740:DIODE *2462:A 0.000213757
7 *740:DIODE *619:6 9.90367e-05
8 *740:DIODE *619:19 0.000274294
9 *740:DIODE *622:8 4.13595e-05
10 *2451:A *2468:A 0
11 *131:11 *2399:A 0
12 *131:11 *2462:A 0.000126639
13 *131:11 *2465:A 1.76135e-05
14 *131:11 *553:10 5.33334e-05
15 security_breach *131:11 0
16 wb_ack_o *131:11 5.71472e-05
*RES
1 wb_we_i *131:11 17.6607 
2 *131:11 *2451:A 9.72857 
3 *131:11 *740:DIODE 14.3536 
*END

*D_NET *132 0.000463614
*CONN
*I *2302:D I *D sky130_fd_sc_hd__dfrtp_1
*I *2029:X O *D sky130_fd_sc_hd__and2_1
*CAP
1 *2302:D 0.000141485
2 *2029:X 0.000141485
3 *2302:D *2302:CLK 3.88139e-05
4 *2302:D *617:20 0.00014183
*RES
1 *2029:X *2302:D 21.6 
*END

*D_NET *133 0.000774692
*CONN
*I *2303:D I *D sky130_fd_sc_hd__dfrtp_1
*I *2030:X O *D sky130_fd_sc_hd__and2_1
*CAP
1 *2303:D 0.000255438
2 *2030:X 0.000255438
3 *2303:D *1962:C 1.02504e-05
4 *2303:D *2301:CLK 0
5 *2303:D *137:12 0.000128869
6 *2303:D *324:16 4.98872e-05
7 *2303:D *471:63 7.48091e-05
*RES
1 *2030:X *2303:D 32.7607 
*END

*D_NET *134 0.000432746
*CONN
*I *2304:D I *D sky130_fd_sc_hd__dfrtp_1
*I *2031:X O *D sky130_fd_sc_hd__and2_1
*CAP
1 *2304:D 0.00014391
2 *2031:X 0.00014391
3 *2304:D *273:16 4.78056e-05
4 *2304:D *563:14 9.71197e-05
5 *2304:D *622:14 0
*RES
1 *2031:X *2304:D 29.8857 
*END

*D_NET *135 0.000436123
*CONN
*I *2305:D I *D sky130_fd_sc_hd__dfrtp_1
*I *2032:X O *D sky130_fd_sc_hd__and2_1
*CAP
1 *2305:D 0.00016401
2 *2032:X 0.00016401
3 *2305:D *2306:CLK 7.15962e-05
4 *2305:D *2461:A 3.65069e-05
*RES
1 *2032:X *2305:D 21.6 
*END

*D_NET *136 0.000462346
*CONN
*I *2306:D I *D sky130_fd_sc_hd__dfrtp_1
*I *2033:X O *D sky130_fd_sc_hd__and2_1
*CAP
1 *2306:D 0.000147458
2 *2033:X 0.000147458
3 *2306:D *2033:A 3.92757e-05
4 *2306:D *324:22 0.000128154
*RES
1 *2033:X *2306:D 30.1893 
*END

*D_NET *137 0.00246322
*CONN
*I *2301:D I *D sky130_fd_sc_hd__dfrtp_1
*I *1963:B I *D sky130_fd_sc_hd__and2b_1
*I *2028:B I *D sky130_fd_sc_hd__and3_1
*I *1962:X O *D sky130_fd_sc_hd__and3b_1
*CAP
1 *2301:D 0.000130997
2 *1963:B 9.97896e-05
3 *2028:B 0
4 *1962:X 0.00022301
5 *137:21 0.000468706
6 *137:12 0.000460928
7 *1963:B *291:6 2.55587e-05
8 *1963:B *291:17 4.0342e-06
9 *1963:B *622:14 9.91086e-05
10 *2301:D *2398:A 0.000144556
11 *2301:D *622:14 0.000207572
12 *137:12 *1963:A_N 6.19181e-05
13 *137:12 *2301:CLK 5.07157e-05
14 *137:12 *324:10 0
15 *137:12 *324:16 0
16 *137:21 *560:76 0.000165288
17 *726:DIODE *1963:B 0.00017687
18 *726:DIODE *2301:D 1.52978e-05
19 *2303:D *137:12 0.000128869
*RES
1 *1962:X *137:12 22.7107 
2 *137:12 *2028:B 9.3 
3 *137:12 *137:21 7.5 
4 *137:21 *1963:B 16.4964 
5 *137:21 *2301:D 16.6571 
*END

*D_NET *138 0.00345648
*CONN
*I *2269:D I *D sky130_fd_sc_hd__dfrtp_1
*I *1970:X O *D sky130_fd_sc_hd__o21a_1
*CAP
1 *2269:D 0.00123499
2 *1970:X 0.00123499
3 *2269:D *697:DIODE 0.000139478
4 *2269:D *1970:B1 1.92905e-05
5 *2269:D *1981:A1 4.4199e-05
6 *2269:D *2267:A 2.59355e-05
7 *2269:D *2269:CLK 4.85049e-06
8 *2269:D *470:18 9.98518e-06
9 *2269:D *470:22 4.43604e-05
10 *2269:D *618:66 0.000170575
11 *2269:D *618:122 0.000527817
*RES
1 *1970:X *2269:D 45.4929 
*END

*D_NET *139 0.000409318
*CONN
*I *2279:D I *D sky130_fd_sc_hd__dfrtp_1
*I *2004:X O *D sky130_fd_sc_hd__and2_1
*CAP
1 *2279:D 0.000178625
2 *2004:X 0.000178625
3 *2279:D *2279:CLK 2.65105e-05
4 *2279:D *472:114 2.55587e-05
*RES
1 *2004:X *2279:D 21.6 
*END

*D_NET *140 0.000367211
*CONN
*I *2280:D I *D sky130_fd_sc_hd__dfrtp_1
*I *2006:X O *D sky130_fd_sc_hd__and2_1
*CAP
1 *2280:D 0.000108861
2 *2006:X 0.000108861
3 *2280:D *373:10 0.000149489
*RES
1 *2006:X *2280:D 21.1893 
*END

*D_NET *141 0.00211713
*CONN
*I *2281:D I *D sky130_fd_sc_hd__dfrtp_1
*I *2007:X O *D sky130_fd_sc_hd__o221a_1
*CAP
1 *2281:D 0.000488969
2 *2007:X 0.000488969
3 *2281:D *2008:A1 5.71472e-05
4 *2281:D *2071:A 0.000537165
5 *2281:D *2079:A1 9.31893e-05
6 *2281:D *2079:A4 5.71472e-05
7 *2281:D *2080:A3 4.01511e-05
8 *2281:D *2281:CLK 8.07313e-05
9 *2281:D *142:12 0.000218439
10 *2281:D *357:10 5.52238e-05
*RES
1 *2007:X *2281:D 30.6714 
*END

*D_NET *142 0.00494492
*CONN
*I *2282:D I *D sky130_fd_sc_hd__dfrtp_1
*I *2008:X O *D sky130_fd_sc_hd__o221a_1
*CAP
1 *2282:D 0
2 *2008:X 0.00173865
3 *142:12 0.00173865
4 *142:12 *2008:A1 0.000443648
5 *142:12 *2071:A 0.000211066
6 *142:12 *2281:CLK 0.000381755
7 *142:12 *2281:RESET_B 5.30209e-05
8 *142:12 *620:100 8.15939e-05
9 *142:12 *620:122 7.80929e-05
10 *2281:D *142:12 0.000218439
*RES
1 *2008:X *142:12 43.9607 
2 *142:12 *2282:D 9.3 
*END

*D_NET *143 0.000446699
*CONN
*I *2283:D I *D sky130_fd_sc_hd__dfrtp_1
*I *2009:X O *D sky130_fd_sc_hd__and3_1
*CAP
1 *2283:D 0.000177881
2 *2009:X 0.000177881
3 *2283:D *663:DIODE 5.52302e-05
4 *2283:D *2283:CLK 3.5707e-05
5 *2283:D *2283:RESET_B 0
*RES
1 *2009:X *2283:D 30.2964 
*END

*D_NET *144 0.000795321
*CONN
*I *2284:D I *D sky130_fd_sc_hd__dfrtp_1
*I *2010:X O *D sky130_fd_sc_hd__and3_1
*CAP
1 *2284:D 0.000222486
2 *2010:X 0.000222486
3 *2284:D *2283:CLK 0
4 *2284:D *473:119 0.000230475
5 *2284:D *480:10 5.33433e-05
6 *2284:D *609:53 6.65302e-05
*RES
1 *2010:X *2284:D 32.6536 
*END

*D_NET *145 0.000738627
*CONN
*I *2285:D I *D sky130_fd_sc_hd__dfrtp_1
*I *2011:X O *D sky130_fd_sc_hd__and3_1
*CAP
1 *2285:D 0.000142319
2 *2011:X 0.000142319
3 *2285:D *2012:A 0.000127439
4 *2285:D *2013:B 4.88637e-05
5 *2285:D *2103:B 1.02504e-05
6 *2285:D *2144:A 3.84478e-05
7 *2285:D *606:31 0.000117553
8 *2285:D *610:34 0.000111436
*RES
1 *2011:X *2285:D 32.2429 
*END

*D_NET *146 0.00290326
*CONN
*I *2286:D I *D sky130_fd_sc_hd__dfrtp_1
*I *2012:X O *D sky130_fd_sc_hd__and3_1
*CAP
1 *2286:D 0.000239985
2 *2012:X 0.000239985
3 *2286:D *2026:A 0.00010678
4 *2286:D *2144:A 0.000686402
5 *2286:D *2144:B 0.000100261
6 *2286:D *2243:A 9.99853e-05
7 *2286:D *2286:RESET_B 9.29223e-05
8 *2286:D *575:14 0.00119217
9 *2286:D *576:18 0.000144773
*RES
1 *2012:X *2286:D 32.8321 
*END

*D_NET *147 0.000629787
*CONN
*I *2287:D I *D sky130_fd_sc_hd__dfrtp_1
*I *2013:X O *D sky130_fd_sc_hd__and3_1
*CAP
1 *2287:D 0.000235317
2 *2013:X 0.000235317
3 *2287:D *2013:A 0.000126629
4 *2287:D *2287:CLK 3.25247e-05
*RES
1 *2013:X *2287:D 31.1179 
*END

*D_NET *148 0.000898156
*CONN
*I *2288:D I *D sky130_fd_sc_hd__dfrtp_1
*I *2014:X O *D sky130_fd_sc_hd__and3_1
*CAP
1 *2288:D 0.000428663
2 *2014:X 0.000428663
3 *2288:D *2288:CLK 3.99614e-06
4 *2288:D *468:33 9.7049e-06
5 *2288:D *557:10 0
6 *2288:D *581:12 2.71291e-05
*RES
1 *2014:X *2288:D 32.8857 
*END

*D_NET *149 0.00361492
*CONN
*I *2270:D I *D sky130_fd_sc_hd__dfrtp_1
*I *1973:X O *D sky130_fd_sc_hd__o21a_1
*CAP
1 *2270:D 0.00103652
2 *1973:X 0.00103652
3 *2270:D *2184:B1 6.05161e-06
4 *2270:D *2186:A1 0.000487467
5 *2270:D *2270:CLK 0.000258027
6 *2270:D *2270:RESET_B 0.000276211
7 *2270:D *2345:CLK 5.33005e-05
8 *2270:D *2345:D 0.000270569
9 *2270:D *291:63 4.37731e-05
10 *2270:D *475:12 0
11 *2270:D *560:76 0.000146474
*RES
1 *1973:X *2270:D 46.7786 
*END

*D_NET *150 0.00676571
*CONN
*I *2289:D I *D sky130_fd_sc_hd__dfrtp_1
*I *2015:X O *D sky130_fd_sc_hd__and3_1
*CAP
1 *2289:D 0.00102473
2 *2015:X 0.0010939
3 *150:14 0.00211863
4 *2289:D *2021:C 0.000120519
5 *2289:D *2023:A 0.000197094
6 *150:14 *2021:C 1.21289e-05
7 *150:14 *2022:A 3.30352e-05
8 *150:14 *2022:B 0.0001399
9 *150:14 *2040:B 0
10 *150:14 *2059:A2 2.74584e-05
11 *150:14 *2406:A 0.000356022
12 *150:14 *2418:A 0.000271339
13 *150:14 *328:10 0
14 *150:14 *337:8 0
15 *150:14 *500:70 0.000101545
16 *150:14 *501:31 0.00118066
17 *150:14 *610:95 8.87524e-05
*RES
1 *2015:X *150:14 43.5679 
2 *150:14 *2289:D 27.9071 
*END

*D_NET *151 0.00827144
*CONN
*I *2290:D I *D sky130_fd_sc_hd__dfrtp_1
*I *2016:X O *D sky130_fd_sc_hd__and3_1
*CAP
1 *2290:D 0
2 *2016:X 0.000874199
3 *151:8 0.000874199
4 *151:8 *2039:A 8.66063e-05
5 *151:8 *2048:A1 0
6 *151:8 *2140:B 0.000271345
7 *151:8 *2290:CLK 0.000789094
8 *151:8 *329:20 0.000504655
9 *151:8 *408:12 9.83442e-05
10 *151:8 *408:21 0.000525519
11 *151:8 *410:14 1.5424e-05
12 *151:8 *466:44 0.00024141
13 *151:8 *466:46 4.60235e-05
14 *151:8 *504:36 5.33005e-05
15 *151:8 *610:18 0.000175764
16 *151:8 *610:22 0.000928544
17 *151:8 *611:20 0.00278701
*RES
1 *2016:X *151:8 48.4607 
2 *151:8 *2290:D 9.3 
*END

*D_NET *152 0.00122902
*CONN
*I *2291:D I *D sky130_fd_sc_hd__dfrtp_1
*I *2017:X O *D sky130_fd_sc_hd__and3_1
*CAP
1 *2291:D 0.000265464
2 *2017:X 0.000265464
3 *2291:D *2017:A 0
4 *2291:D *2018:A 0
5 *2291:D *2018:B 0.000433262
6 *2291:D *2018:C 0.000135633
7 *2291:D *2292:D 0
8 *2291:D *607:70 0.00010096
9 *2291:D *611:83 2.82394e-05
*RES
1 *2017:X *2291:D 35.2071 
*END

*D_NET *153 0.00027357
*CONN
*I *2292:D I *D sky130_fd_sc_hd__dfrtp_1
*I *2018:X O *D sky130_fd_sc_hd__and3_1
*CAP
1 *2292:D 0.000136785
2 *2018:X 0.000136785
3 *2291:D *2292:D 0
*RES
1 *2018:X *2292:D 29.475 
*END

*D_NET *154 0.00653288
*CONN
*I *2293:D I *D sky130_fd_sc_hd__dfrtp_1
*I *2019:X O *D sky130_fd_sc_hd__and3_1
*CAP
1 *2293:D 0
2 *2019:X 0.00225309
3 *154:14 0.00225309
4 *154:14 *2039:C 9.71197e-05
5 *154:14 *2039:D 0.000455097
6 *154:14 *2130:B 5.71472e-05
7 *154:14 *2134:B 0.000123147
8 *154:14 *2137:B 2.90384e-05
9 *154:14 *2250:A 3.4902e-05
10 *154:14 *2293:CLK 0.000267812
11 *154:14 *2327:CLK 6.97494e-05
12 *154:14 *2327:D 9.56621e-05
13 *154:14 *2330:D 1.64696e-05
14 *154:14 *2392:A 3.05446e-05
15 *154:14 *406:10 6.30282e-05
16 *154:14 *466:128 1.39726e-05
17 *154:14 *500:16 0.000307773
18 *154:14 *502:12 0.000312209
19 *154:14 *613:57 5.30209e-05
*RES
1 *2019:X *154:14 44.1304 
2 *154:14 *2293:D 9.3 
*END

*D_NET *155 0.00206679
*CONN
*I *2294:D I *D sky130_fd_sc_hd__dfrtp_1
*I *2020:X O *D sky130_fd_sc_hd__and3_1
*CAP
1 *2294:D 0.000679482
2 *2020:X 0.000679482
3 *2294:D *2020:A 9.90431e-05
4 *2294:D *2038:C1 1.69961e-05
5 *2294:D *2047:D 0.000396892
6 *2294:D *2294:RESET_B 0
7 *2294:D *2463:A 0
8 *2294:D *465:135 0
9 *2294:D *468:10 9.56872e-05
10 *2294:D *468:12 9.47456e-05
11 *2294:D *509:36 4.46186e-06
12 *2294:D *621:52 0
13 *2294:D *621:54 0
14 *2294:D *621:56 0
15 *2294:D *621:64 0
*RES
1 *2020:X *2294:D 39.4571 
*END

*D_NET *156 0.00250433
*CONN
*I *2295:D I *D sky130_fd_sc_hd__dfrtp_1
*I *2021:X O *D sky130_fd_sc_hd__and3_1
*CAP
1 *2295:D 0.00104522
2 *2021:X 0.00104522
3 *2295:D *2226:A2 0.000185138
4 *2295:D *2226:B1 0.000228758
5 *2295:D *465:33 0
*RES
1 *2021:X *2295:D 44.6714 
*END

*D_NET *157 0.0006233
*CONN
*I *2296:D I *D sky130_fd_sc_hd__dfrtp_1
*I *2022:X O *D sky130_fd_sc_hd__and3_1
*CAP
1 *2296:D 0.000145961
2 *2022:X 0.000145961
3 *2296:D *2296:CLK 7.3237e-05
4 *2296:D *465:33 3.25247e-05
5 *2296:D *617:54 0.000225616
6 *2296:D *622:32 0
*RES
1 *2022:X *2296:D 31.1179 
*END

*D_NET *158 0.00035372
*CONN
*I *2297:D I *D sky130_fd_sc_hd__dfrtp_1
*I *2023:X O *D sky130_fd_sc_hd__and3_1
*CAP
1 *2297:D 0.000101849
2 *2023:X 0.000101849
3 *2297:D *2253:A 6.05161e-06
4 *2297:D *467:36 1.58163e-05
5 *2297:D *617:33 4.80729e-05
6 *2297:D *617:37 8.00806e-05
*RES
1 *2023:X *2297:D 29.7786 
*END

*D_NET *159 0.000759753
*CONN
*I *2298:D I *D sky130_fd_sc_hd__dfrtp_1
*I *2024:X O *D sky130_fd_sc_hd__and3_1
*CAP
1 *2298:D 0.000379877
2 *2024:X 0.000379877
3 *2298:D *2298:RESET_B 0
*RES
1 *2024:X *2298:D 32.35 
*END

*D_NET *160 0.0050812
*CONN
*I *2271:D I *D sky130_fd_sc_hd__dfrtp_1
*I *1976:X O *D sky130_fd_sc_hd__o21a_1
*CAP
1 *2271:D 0
2 *1976:X 0.00168729
3 *160:12 0.00168729
4 *160:12 *1974:A 6.45518e-05
5 *160:12 *2228:A 3.69047e-06
6 *160:12 *2428:A 4.40153e-05
7 *160:12 *470:6 0.000794157
8 *160:12 *470:10 0.000482404
9 *160:12 *470:115 4.79842e-05
10 *160:12 *618:30 0.000202317
11 *160:12 *622:14 6.74911e-05
*RES
1 *1976:X *160:12 42.2464 
2 *160:12 *2271:D 9.3 
*END

*D_NET *161 0.00135313
*CONN
*I *2299:D I *D sky130_fd_sc_hd__dfrtp_1
*I *2025:X O *D sky130_fd_sc_hd__and3_1
*CAP
1 *2299:D 0.0005222
2 *2025:X 0.0005222
3 *2299:D *2025:B 5.62136e-05
4 *2299:D *2486:A 0.000206781
5 *2299:D *616:45 4.57352e-05
*RES
1 *2025:X *2299:D 35.1179 
*END

*D_NET *162 0.00155829
*CONN
*I *2300:D I *D sky130_fd_sc_hd__dfrtp_1
*I *2026:X O *D sky130_fd_sc_hd__and3_1
*CAP
1 *2300:D 0.000626409
2 *2026:X 0.000626409
3 *2300:D *2026:C 5.52238e-05
4 *2300:D *2243:A 2.56601e-05
5 *2300:D *2257:A 7.48091e-05
6 *2300:D *2300:RESET_B 0
7 *2300:D *2479:A 0.000149775
*RES
1 *2026:X *2300:D 37.1357 
*END

*D_NET *163 0.00497968
*CONN
*I *2272:D I *D sky130_fd_sc_hd__dfrtp_1
*I *1979:X O *D sky130_fd_sc_hd__o21a_1
*CAP
1 *2272:D 0
2 *1979:X 0.0010147
3 *163:18 0.0010147
4 *163:18 *1964:B 0
5 *163:18 *1966:A 0.000136366
6 *163:18 *1966:B 0.000144773
7 *163:18 *1971:C 0
8 *163:18 *1973:A2 0.000800217
9 *163:18 *2181:A2 0.000154241
10 *163:18 *2181:B1 0.000145483
11 *163:18 *2189:A2 0.000123288
12 *163:18 *2194:A1 2.0517e-05
13 *163:18 *2346:D 4.89264e-05
14 *163:18 *2389:A 0
15 *163:18 *291:95 0
16 *163:18 *323:22 5.33005e-05
17 *163:18 *432:12 4.21584e-05
18 *163:18 *479:40 0.000171375
19 *163:18 *603:83 0.000139697
20 *163:18 *603:96 0.000100128
21 *163:18 *604:67 0.000489436
22 *163:18 *604:78 0.000237521
23 *163:18 *608:65 0.000142856
24 *163:18 *614:50 0
25 *163:18 *614:79 0
*RES
1 *1979:X *163:18 47.3893 
2 *163:18 *2272:D 9.3 
*END

*D_NET *164 0.00413254
*CONN
*I *2273:D I *D sky130_fd_sc_hd__dfrtp_1
*I *1982:X O *D sky130_fd_sc_hd__o211a_1
*CAP
1 *2273:D 0
2 *1982:X 0.00170846
3 *164:16 0.00170846
4 *164:16 *1993:A1 0
5 *164:16 *1993:B1 0
6 *164:16 *1993:C1 4.94455e-05
7 *164:16 *1999:A1 0
8 *164:16 *2202:A2 0.000320024
9 *164:16 *2205:A1 6.60111e-05
10 *164:16 *2205:A2 0.000122697
11 *164:16 *2350:CLK 0
12 *164:16 *2350:D 0
13 *164:16 *2351:D 7.17603e-05
14 *164:16 *280:51 0
15 *164:16 *471:123 0
16 *164:16 *471:125 0
17 *164:16 *493:23 0
18 *164:16 *493:25 0
19 *164:16 *493:33 0
20 *164:16 *494:20 0
21 *164:16 *560:20 0
22 *164:16 *560:100 0
23 *164:16 *604:12 8.56812e-05
24 *164:16 *620:18 0
*RES
1 *1982:X *164:16 49.0679 
2 *164:16 *2273:D 9.3 
*END

*D_NET *165 0.00373721
*CONN
*I *2274:D I *D sky130_fd_sc_hd__dfrtp_1
*I *1985:X O *D sky130_fd_sc_hd__o21a_1
*CAP
1 *2274:D 0.000555539
2 *1985:X 0.000555539
3 *2274:D *2195:A 0.000125731
4 *2274:D *541:12 0.000823322
5 *2274:D *542:12 0.00120401
6 *2274:D *542:14 7.83659e-05
7 *2274:D *542:16 0.000394705
*RES
1 *1985:X *2274:D 48.6714 
*END

*D_NET *166 0.00460822
*CONN
*I *2275:D I *D sky130_fd_sc_hd__dfrtp_1
*I *1988:X O *D sky130_fd_sc_hd__o21a_1
*CAP
1 *2275:D 0
2 *1988:X 0.00192887
3 *166:14 0.00192887
4 *166:14 *2275:RESET_B 8.25512e-05
5 *166:14 *2313:D 5.52579e-06
6 *166:14 *2396:A 7.73662e-05
7 *166:14 *616:12 0.000140463
8 *166:14 *635:40 0.000444575
*RES
1 *1988:X *166:14 43.4964 
2 *166:14 *2275:D 9.3 
*END

*D_NET *167 0.00406224
*CONN
*I *2276:D I *D sky130_fd_sc_hd__dfrtp_1
*I *1991:X O *D sky130_fd_sc_hd__o21a_1
*CAP
1 *2276:D 0.00164892
2 *1991:X 0.00164892
3 *2276:D *1953:A2 3.98427e-05
4 *2276:D *1991:B1 4.72917e-05
5 *2276:D *2265:A 0.000269189
6 *2276:D *2312:RESET_B 1.72894e-05
7 *2276:D *2313:CLK 0.000170964
8 *2276:D *608:71 0.000219818
*RES
1 *1991:X *2276:D 43.0196 
*END

*D_NET *168 0.00337214
*CONN
*I *2277:D I *D sky130_fd_sc_hd__dfrtp_1
*I *1994:X O *D sky130_fd_sc_hd__o21a_1
*CAP
1 *2277:D 0
2 *1994:X 0.00106636
3 *168:12 0.00106636
4 *168:12 *1980:A 0.000100481
5 *168:12 *1990:B2 9.56968e-05
6 *168:12 *2193:B 7.38748e-05
7 *168:12 *2194:A2 0
8 *168:12 *2197:A 0.000100969
9 *168:12 *2201:B 0.000179863
10 *168:12 *2203:A2 0.000206307
11 *168:12 *2277:RESET_B 0
12 *168:12 *2496:A 5.10822e-05
13 *168:12 *281:35 1.02504e-05
14 *168:12 *448:8 3.81e-05
15 *168:12 *465:81 0
16 *168:12 *471:115 7.32272e-05
17 *168:12 *490:10 4.16021e-05
18 *168:12 *490:14 2.03438e-05
19 *168:12 *490:55 4.53834e-05
20 *168:12 *492:8 5.33978e-05
21 *168:12 *492:45 0.000148851
22 *168:12 *603:39 0
*RES
1 *1994:X *168:12 42.8536 
2 *168:12 *2277:D 9.3 
*END

*D_NET *169 0.00477801
*CONN
*I *2278:D I *D sky130_fd_sc_hd__dfrtp_1
*I *2000:X O *D sky130_fd_sc_hd__o211a_1
*CAP
1 *2278:D 0
2 *2000:X 0.000670379
3 *169:12 0.000670379
4 *169:12 *2190:B 0
5 *169:12 *2191:A2 4.66203e-05
6 *169:12 *2278:CLK 4.57538e-05
7 *169:12 *280:85 0.000229456
8 *169:12 *281:35 0.000227532
9 *169:12 *430:10 2.84009e-05
10 *169:12 *473:44 0.000141763
11 *169:12 *489:14 0
12 *169:12 *490:55 0.000653834
13 *169:12 *490:65 0.000415476
14 *169:12 *621:34 0.00164842
*RES
1 *2000:X *169:12 43.9786 
2 *169:12 *2278:D 9.3 
*END

*D_NET *170 0.0162316
*CONN
*I *714:DIODE I *D sky130_fd_sc_hd__diode_2
*I *2153:C1 I *D sky130_fd_sc_hd__o211a_1
*I *678:DIODE I *D sky130_fd_sc_hd__diode_2
*I *2219:B1 I *D sky130_fd_sc_hd__o21a_1
*I *680:DIODE I *D sky130_fd_sc_hd__diode_2
*I *2395:A I *D sky130_fd_sc_hd__clkbuf_4
*I *654:DIODE I *D sky130_fd_sc_hd__diode_2
*I *1937:Y O *D sky130_fd_sc_hd__inv_2
*CAP
1 *714:DIODE 0
2 *2153:C1 4.34677e-05
3 *678:DIODE 0
4 *2219:B1 0.00018218
5 *680:DIODE 0
6 *2395:A 4.73728e-05
7 *654:DIODE 2.57515e-05
8 *1937:Y 2.22847e-05
9 *170:70 0.000869771
10 *170:48 0.00106717
11 *170:42 0.00449457
12 *170:32 0.00286629
13 *170:21 0.000552458
14 *170:6 0.00047011
15 *654:DIODE *1937:A 5.71472e-05
16 *654:DIODE *2226:A2 9.90367e-05
17 *2153:C1 *2153:A2 0
18 *2153:C1 *379:10 5.14325e-05
19 *2219:B1 *2219:A2 9.60939e-05
20 *2219:B1 *554:59 4.88637e-05
21 *2395:A *1955:A2 0.000227526
22 *2395:A *2264:A 0.000122081
23 *170:21 *2226:A2 1.24368e-05
24 *170:21 *2264:A 0
25 *170:21 *2376:A 9.63826e-05
26 *170:21 *465:18 0.000148189
27 *170:21 *465:20 5.59013e-05
28 *170:21 *467:6 2.12087e-05
29 *170:21 *467:148 0.000963473
30 *170:21 *622:30 0.000765221
31 *170:21 *622:32 0
32 *170:32 *1955:A2 5.52302e-05
33 *170:32 *2264:A 7.17235e-05
34 *170:42 *1955:A2 1.21859e-05
35 *170:42 *2264:A 2.06112e-05
36 *170:42 *2307:D 0.000100221
37 *170:42 *289:27 0
38 *170:42 *465:16 0.00104261
39 *170:48 *1938:A 8.25512e-05
40 *170:48 *2093:A2 0.000218246
41 *170:48 *2093:B1 5.23057e-05
42 *170:48 *2166:B 0
43 *170:48 *276:12 0.000401678
44 *170:48 *469:76 0
45 *170:48 *621:158 1.90936e-05
46 *170:70 *2166:B 0
47 *170:70 *2167:B1 2.4088e-05
48 *170:70 *2168:A2 1.95625e-05
49 *170:70 *276:12 0.000127223
50 *170:70 *285:12 8.71047e-05
51 *170:70 *286:12 0
52 *170:70 *286:46 5.77102e-05
53 *170:70 *335:14 7.37227e-05
54 *170:70 *379:10 1.58163e-06
55 *170:70 *465:171 0
56 *170:70 *621:158 6.35864e-05
57 *170:70 *648:40 0
58 *170:70 *649:45 0
59 *170:70 *650:10 0.000168781
60 *170:70 *650:42 0.000125371
*RES
1 *1937:Y *170:6 9.72857 
2 *170:6 *654:DIODE 10.2464 
3 *170:6 *170:21 24.4107 
4 *170:21 *2395:A 11.4786 
5 *170:21 *170:32 2.08929 
6 *170:32 *170:42 18.346 
7 *170:42 *170:48 21.6518 
8 *170:48 *680:DIODE 9.3 
9 *170:48 *2219:B1 12.9429 
10 *170:42 *170:70 20.4911 
11 *170:70 *678:DIODE 9.3 
12 *170:70 *2153:C1 10.5143 
13 *170:32 *714:DIODE 9.3 
*END

*D_NET *171 0.000950843
*CONN
*I *2270:RESET_B I *D sky130_fd_sc_hd__dfrtp_1
*I *2227:Y O *D sky130_fd_sc_hd__inv_2
*CAP
1 *2270:RESET_B 0.000337316
2 *2227:Y 0.000337316
3 *2270:D *2270:RESET_B 0.000276211
*RES
1 *2227:Y *2270:RESET_B 14.4339 
*END

*D_NET *172 0.000437827
*CONN
*I *2271:RESET_B I *D sky130_fd_sc_hd__dfrtp_1
*I *2228:Y O *D sky130_fd_sc_hd__inv_2
*CAP
1 *2271:RESET_B 3.92578e-05
2 *2228:Y 3.92578e-05
3 *2271:RESET_B *273:16 0.000179656
4 *2271:RESET_B *324:16 0.000179656
*RES
1 *2228:Y *2271:RESET_B 20.55 
*END

*D_NET *173 0.000346422
*CONN
*I *2272:RESET_B I *D sky130_fd_sc_hd__dfrtp_1
*I *2229:Y O *D sky130_fd_sc_hd__inv_2
*CAP
1 *2272:RESET_B 8.3383e-05
2 *2229:Y 8.3383e-05
3 *2272:RESET_B *2181:B1 0
4 *2272:RESET_B *558:20 0.000179656
*RES
1 *2229:Y *2272:RESET_B 20.55 
*END

*D_NET *174 0.000490937
*CONN
*I *2273:RESET_B I *D sky130_fd_sc_hd__dfrtp_1
*I *2230:Y O *D sky130_fd_sc_hd__inv_2
*CAP
1 *2273:RESET_B 0.000131189
2 *2230:Y 0.000131189
3 *2273:RESET_B *620:188 0.000228558
*RES
1 *2230:Y *2273:RESET_B 11.8268 
*END

*D_NET *175 0.000283926
*CONN
*I *2274:RESET_B I *D sky130_fd_sc_hd__dfrtp_1
*I *2231:Y O *D sky130_fd_sc_hd__inv_2
*CAP
1 *2274:RESET_B 0.00010329
2 *2231:Y 0.00010329
3 *2274:RESET_B *2231:A 6.05161e-06
4 *2274:RESET_B *2234:A 5.56943e-05
5 *2274:RESET_B *2496:A 0
6 *2274:RESET_B *471:108 1.56e-05
*RES
1 *2231:Y *2274:RESET_B 20.175 
*END

*D_NET *176 0.000805543
*CONN
*I *2275:RESET_B I *D sky130_fd_sc_hd__dfrtp_1
*I *2232:Y O *D sky130_fd_sc_hd__inv_2
*CAP
1 *2275:RESET_B 0.000140786
2 *2232:Y 0.000140786
3 *2275:RESET_B *2396:A 4.38511e-05
4 *2275:RESET_B *616:12 0.000175519
5 *2275:RESET_B *617:20 4.1331e-06
6 *59:21 *2275:RESET_B 0.000217916
7 *166:14 *2275:RESET_B 8.25512e-05
*RES
1 *2232:Y *2275:RESET_B 22.6661 
*END

*D_NET *177 0.000172318
*CONN
*I *2276:RESET_B I *D sky130_fd_sc_hd__dfrtp_1
*I *2233:Y O *D sky130_fd_sc_hd__inv_2
*CAP
1 *2276:RESET_B 5.83118e-05
2 *2233:Y 5.83118e-05
3 *2276:RESET_B *2029:B 5.56943e-05
4 *2276:RESET_B *622:14 0
*RES
1 *2233:Y *2276:RESET_B 19.6393 
*END

*D_NET *178 0.000291771
*CONN
*I *2277:RESET_B I *D sky130_fd_sc_hd__dfrtp_1
*I *2234:Y O *D sky130_fd_sc_hd__inv_2
*CAP
1 *2277:RESET_B 0.000143233
2 *2234:Y 0.000143233
3 *2277:RESET_B *2234:A 5.30637e-06
4 *2277:RESET_B *471:123 0
5 *168:12 *2277:RESET_B 0
*RES
1 *2234:Y *2277:RESET_B 20.4786 
*END

*D_NET *179 0.000323227
*CONN
*I *2278:RESET_B I *D sky130_fd_sc_hd__dfrtp_1
*I *2235:Y O *D sky130_fd_sc_hd__inv_2
*CAP
1 *2278:RESET_B 9.86751e-05
2 *2235:Y 9.86751e-05
3 *2278:RESET_B *620:199 0.000125877
*RES
1 *2235:Y *2278:RESET_B 11.4161 
*END

*D_NET *180 0.000172318
*CONN
*I *2279:RESET_B I *D sky130_fd_sc_hd__dfrtp_1
*I *2236:Y O *D sky130_fd_sc_hd__inv_2
*CAP
1 *2279:RESET_B 5.83118e-05
2 *2236:Y 5.83118e-05
3 *2279:RESET_B *2466:A 5.56943e-05
4 debug_enable *2279:RESET_B 0
*RES
1 *2236:Y *2279:RESET_B 19.6393 
*END

*D_NET *181 0.000172318
*CONN
*I *2280:RESET_B I *D sky130_fd_sc_hd__dfrtp_1
*I *2237:Y O *D sky130_fd_sc_hd__inv_2
*CAP
1 *2280:RESET_B 5.83118e-05
2 *2237:Y 5.83118e-05
3 *2280:RESET_B *2470:A 0
4 *2280:RESET_B *373:10 5.56943e-05
5 wb_dat_o[10] *2280:RESET_B 0
*RES
1 *2237:Y *2280:RESET_B 19.6393 
*END

*D_NET *182 0.000320001
*CONN
*I *2281:RESET_B I *D sky130_fd_sc_hd__dfrtp_1
*I *2238:Y O *D sky130_fd_sc_hd__inv_2
*CAP
1 *2281:RESET_B 8.11508e-05
2 *2238:Y 8.11508e-05
3 *2281:RESET_B *2281:CLK 3.71789e-06
4 *2281:RESET_B *2472:A 0.00010096
5 *142:12 *2281:RESET_B 5.30209e-05
*RES
1 *2238:Y *2281:RESET_B 11.4161 
*END

*D_NET *183 0.000156798
*CONN
*I *2282:RESET_B I *D sky130_fd_sc_hd__dfrtp_1
*I *2239:Y O *D sky130_fd_sc_hd__inv_2
*CAP
1 *2282:RESET_B 7.83991e-05
2 *2239:Y 7.83991e-05
3 *2282:RESET_B *2475:A 0
4 *2282:RESET_B *620:122 0
*RES
1 *2239:Y *2282:RESET_B 19.6393 
*END

*D_NET *184 0.000161347
*CONN
*I *2283:RESET_B I *D sky130_fd_sc_hd__dfrtp_1
*I *2240:Y O *D sky130_fd_sc_hd__inv_2
*CAP
1 *2283:RESET_B 8.06735e-05
2 *2240:Y 8.06735e-05
3 *2283:RESET_B *2474:A 0
4 *2283:D *2283:RESET_B 0
*RES
1 *2240:Y *2283:RESET_B 19.6393 
*END

*D_NET *185 0.000156798
*CONN
*I *2284:RESET_B I *D sky130_fd_sc_hd__dfrtp_1
*I *2241:Y O *D sky130_fd_sc_hd__inv_2
*CAP
1 *2284:RESET_B 7.83991e-05
2 *2241:Y 7.83991e-05
3 *2284:RESET_B *2475:A 0
4 *2284:RESET_B *620:122 0
5 wb_dat_o[13] *2284:RESET_B 0
*RES
1 *2241:Y *2284:RESET_B 19.6393 
*END

*D_NET *186 0.000343434
*CONN
*I *2285:RESET_B I *D sky130_fd_sc_hd__dfrtp_1
*I *2242:Y O *D sky130_fd_sc_hd__inv_2
*CAP
1 *2285:RESET_B 8.94641e-05
2 *2242:Y 8.94641e-05
3 *2285:RESET_B *2012:A 3.47737e-05
4 *2285:RESET_B *2144:A 0.000129732
*RES
1 *2242:Y *2285:RESET_B 20.175 
*END

*D_NET *187 0.000807656
*CONN
*I *2286:RESET_B I *D sky130_fd_sc_hd__dfrtp_1
*I *2243:Y O *D sky130_fd_sc_hd__inv_2
*CAP
1 *2286:RESET_B 7.63624e-05
2 *2243:Y 7.63624e-05
3 *2286:RESET_B *2243:A 0.00049775
4 *2286:RESET_B *575:14 6.4259e-05
5 *2286:D *2286:RESET_B 9.29223e-05
*RES
1 *2243:Y *2286:RESET_B 13.4696 
*END

*D_NET *188 0.000822841
*CONN
*I *2287:RESET_B I *D sky130_fd_sc_hd__dfrtp_1
*I *2244:Y O *D sky130_fd_sc_hd__inv_2
*CAP
1 *2287:RESET_B 0.000298186
2 *2244:Y 0.000298186
3 *2287:RESET_B *576:18 0.000226469
*RES
1 *2244:Y *2287:RESET_B 14.0232 
*END

*D_NET *189 0.000861991
*CONN
*I *2288:RESET_B I *D sky130_fd_sc_hd__dfrtp_1
*I *2245:Y O *D sky130_fd_sc_hd__inv_2
*CAP
1 *2288:RESET_B 0.000251828
2 *2245:Y 0.000251828
3 *2288:RESET_B *557:10 5.64115e-05
4 *2288:RESET_B *581:12 7.83659e-05
5 *2288:RESET_B *582:12 0.000223558
*RES
1 *2245:Y *2288:RESET_B 22.7286 
*END

*D_NET *190 0.000156798
*CONN
*I *2289:RESET_B I *D sky130_fd_sc_hd__dfrtp_1
*I *2246:Y O *D sky130_fd_sc_hd__inv_2
*CAP
1 *2289:RESET_B 7.83991e-05
2 *2246:Y 7.83991e-05
*RES
1 *2246:Y *2289:RESET_B 19.6393 
*END

*D_NET *191 0.000250467
*CONN
*I *2290:RESET_B I *D sky130_fd_sc_hd__dfrtp_1
*I *2247:Y O *D sky130_fd_sc_hd__inv_2
*CAP
1 *2290:RESET_B 0.000125234
2 *2247:Y 0.000125234
3 *2290:RESET_B *2482:A 0
*RES
1 *2247:Y *2290:RESET_B 20.55 
*END

*D_NET *192 0.00130881
*CONN
*I *2291:RESET_B I *D sky130_fd_sc_hd__dfrtp_1
*I *2248:Y O *D sky130_fd_sc_hd__inv_2
*CAP
1 *2291:RESET_B 0.000351291
2 *2248:Y 0.000351291
3 *2291:RESET_B *582:12 0.000451463
4 *2291:RESET_B *621:64 0.000154762
*RES
1 *2248:Y *2291:RESET_B 24.4786 
*END

*D_NET *193 0.000283688
*CONN
*I *2292:RESET_B I *D sky130_fd_sc_hd__dfrtp_1
*I *2249:Y O *D sky130_fd_sc_hd__inv_2
*CAP
1 *2292:RESET_B 0.000141844
2 *2249:Y 0.000141844
*RES
1 *2249:Y *2292:RESET_B 11.4161 
*END

*D_NET *194 0.000962533
*CONN
*I *2293:RESET_B I *D sky130_fd_sc_hd__dfrtp_1
*I *2250:Y O *D sky130_fd_sc_hd__inv_2
*CAP
1 *2293:RESET_B 0.000343161
2 *2250:Y 0.000343161
3 *2293:RESET_B *2250:A 0.000276211
*RES
1 *2250:Y *2293:RESET_B 14.4339 
*END

*D_NET *195 0.000745362
*CONN
*I *2294:RESET_B I *D sky130_fd_sc_hd__dfrtp_1
*I *2251:Y O *D sky130_fd_sc_hd__inv_2
*CAP
1 *2294:RESET_B 0.000287516
2 *2251:Y 0.000287516
3 *2294:RESET_B *2294:CLK 6.70624e-05
4 *2294:RESET_B *621:56 9.40167e-05
5 *2294:RESET_B *621:64 9.25014e-06
6 *2294:D *2294:RESET_B 0
*RES
1 *2251:Y *2294:RESET_B 23.3982 
*END

*D_NET *196 0.000186505
*CONN
*I *2295:RESET_B I *D sky130_fd_sc_hd__dfrtp_1
*I *2252:Y O *D sky130_fd_sc_hd__inv_2
*CAP
1 *2295:RESET_B 9.32525e-05
2 *2252:Y 9.32525e-05
3 *2295:RESET_B *616:20 0
*RES
1 *2252:Y *2295:RESET_B 19.9429 
*END

*D_NET *197 0.000278513
*CONN
*I *2296:RESET_B I *D sky130_fd_sc_hd__dfrtp_1
*I *2253:Y O *D sky130_fd_sc_hd__inv_2
*CAP
1 *2296:RESET_B 0.000139256
2 *2253:Y 0.000139256
3 *2296:RESET_B *2021:C 0
4 *2296:RESET_B *2024:B 0
5 *2296:RESET_B *607:8 0
*RES
1 *2253:Y *2296:RESET_B 20.55 
*END

*D_NET *198 0.00058837
*CONN
*I *2297:RESET_B I *D sky130_fd_sc_hd__dfrtp_1
*I *2254:Y O *D sky130_fd_sc_hd__inv_2
*CAP
1 *2297:RESET_B 0.000222497
2 *2254:Y 0.000222497
3 *2297:RESET_B *2289:CLK 0
4 *2297:RESET_B *2488:A 0.000143375
*RES
1 *2254:Y *2297:RESET_B 21.9071 
*END

*D_NET *199 0.000328471
*CONN
*I *2298:RESET_B I *D sky130_fd_sc_hd__dfrtp_1
*I *2255:Y O *D sky130_fd_sc_hd__inv_2
*CAP
1 *2298:RESET_B 9.72924e-05
2 *2255:Y 9.72924e-05
3 *2298:RESET_B *2255:A 2.89114e-05
4 *2298:RESET_B *616:39 0.000104974
5 *2298:D *2298:RESET_B 0
*RES
1 *2255:Y *2298:RESET_B 20.175 
*END

*D_NET *200 0.000789313
*CONN
*I *2299:RESET_B I *D sky130_fd_sc_hd__dfrtp_1
*I *2256:Y O *D sky130_fd_sc_hd__inv_2
*CAP
1 *2299:RESET_B 0.000367985
2 *2256:Y 0.000367985
3 *2299:RESET_B *2256:A 5.33433e-05
*RES
1 *2256:Y *2299:RESET_B 14.0232 
*END

*D_NET *201 0.000565287
*CONN
*I *2300:RESET_B I *D sky130_fd_sc_hd__dfrtp_1
*I *2257:Y O *D sky130_fd_sc_hd__inv_2
*CAP
1 *2300:RESET_B 0.00024471
2 *2257:Y 0.00024471
3 *2300:RESET_B *575:14 7.58664e-05
4 wb_dat_o[17] *2300:RESET_B 0
5 *2300:D *2300:RESET_B 0
*RES
1 *2257:Y *2300:RESET_B 22.9786 
*END

*D_NET *202 0.00109404
*CONN
*I *2301:RESET_B I *D sky130_fd_sc_hd__dfrtp_1
*I *2258:Y O *D sky130_fd_sc_hd__inv_2
*CAP
1 *2301:RESET_B 0.000384769
2 *2258:Y 0.000384769
3 *2301:RESET_B *2301:CLK 0.000128914
4 *2301:RESET_B *2402:A 7.00171e-06
5 *2301:RESET_B *618:20 0.000188586
*RES
1 *2258:Y *2301:RESET_B 15.8089 
*END

*D_NET *203 0.000454692
*CONN
*I *2302:RESET_B I *D sky130_fd_sc_hd__dfrtp_1
*I *2259:Y O *D sky130_fd_sc_hd__inv_2
*CAP
1 *2302:RESET_B 5.04761e-05
2 *2259:Y 5.04761e-05
3 *2302:RESET_B *2425:A 9.99853e-05
4 *2302:RESET_B *467:76 2.02844e-05
5 *2302:RESET_B *617:20 0.00023347
*RES
1 *2259:Y *2302:RESET_B 11.4161 
*END

*D_NET *204 0.000335363
*CONN
*I *2303:RESET_B I *D sky130_fd_sc_hd__dfrtp_1
*I *2260:Y O *D sky130_fd_sc_hd__inv_2
*CAP
1 *2303:RESET_B 0.000107568
2 *2260:Y 0.000107568
3 *2303:RESET_B *471:63 0.000120226
*RES
1 *2260:Y *2303:RESET_B 11.4161 
*END

*D_NET *205 0.000641241
*CONN
*I *2304:RESET_B I *D sky130_fd_sc_hd__dfrtp_1
*I *2261:Y O *D sky130_fd_sc_hd__inv_2
*CAP
1 *2304:RESET_B 0.000117575
2 *2261:Y 0.000117575
3 *2304:RESET_B *2304:CLK 0.000220865
4 *2304:RESET_B *2403:A 5.33334e-05
5 *2304:RESET_B *273:16 3.27626e-05
6 *2304:RESET_B *615:60 0
7 *2304:RESET_B *618:72 9.9129e-05
*RES
1 *2261:Y *2304:RESET_B 21.7554 
*END

*D_NET *206 0.000286676
*CONN
*I *2305:RESET_B I *D sky130_fd_sc_hd__dfrtp_1
*I *2262:Y O *D sky130_fd_sc_hd__inv_2
*CAP
1 *2305:RESET_B 0.000116142
2 *2262:Y 0.000116142
3 *2305:RESET_B *2461:A 5.43918e-05
*RES
1 *2262:Y *2305:RESET_B 11.4161 
*END

*D_NET *207 0.000500577
*CONN
*I *2306:RESET_B I *D sky130_fd_sc_hd__dfrtp_1
*I *2263:Y O *D sky130_fd_sc_hd__inv_2
*CAP
1 *2306:RESET_B 0.000131868
2 *2263:Y 0.000131868
3 *2306:RESET_B *273:16 0
4 *2306:RESET_B *618:43 0.000227736
5 *2306:RESET_B *622:14 9.10431e-06
*RES
1 *2263:Y *2306:RESET_B 21.4607 
*END

*D_NET *208 0.000382505
*CONN
*I *2311:RESET_B I *D sky130_fd_sc_hd__dfrtp_1
*I *2264:Y O *D sky130_fd_sc_hd__inv_2
*CAP
1 *2311:RESET_B 8.10613e-05
2 *2264:Y 8.10613e-05
3 *2311:RESET_B *634:21 0.000121339
4 *2311:RESET_B *640:25 9.90431e-05
*RES
1 *2264:Y *2311:RESET_B 11.4161 
*END

*D_NET *209 0.000278527
*CONN
*I *2312:RESET_B I *D sky130_fd_sc_hd__dfrtp_1
*I *2265:Y O *D sky130_fd_sc_hd__inv_2
*CAP
1 *2312:RESET_B 0.000114352
2 *2265:Y 0.000114352
3 *2312:RESET_B *465:64 3.2534e-05
4 *2312:RESET_B *637:29 0
5 *2276:D *2312:RESET_B 1.72894e-05
*RES
1 *2265:Y *2312:RESET_B 20.175 
*END

*D_NET *210 0.000477054
*CONN
*I *2313:RESET_B I *D sky130_fd_sc_hd__dfrtp_1
*I *2266:Y O *D sky130_fd_sc_hd__inv_2
*CAP
1 *2313:RESET_B 0.00013926
2 *2266:Y 0.00013926
3 *2313:RESET_B *2414:A 0.000100823
4 *2313:RESET_B *2460:A 1.24368e-05
5 *2313:RESET_B *555:20 8.5275e-05
*RES
1 *2266:Y *2313:RESET_B 20.5857 
*END

*D_NET *211 0.000382854
*CONN
*I *2314:RESET_B I *D sky130_fd_sc_hd__dfrtp_1
*I *2267:Y O *D sky130_fd_sc_hd__inv_2
*CAP
1 *2314:RESET_B 0.00010079
2 *2267:Y 0.00010079
3 *2314:RESET_B *465:64 0
4 *2314:RESET_B *560:36 4.96155e-05
5 *2314:RESET_B *560:40 0
6 *2314:RESET_B *636:10 0.000131659
*RES
1 *2267:Y *2314:RESET_B 20.5232 
*END

*D_NET *212 0.000380878
*CONN
*I *2363:RESET_B I *D sky130_fd_sc_hd__dfrtp_1
*I *2268:Y O *D sky130_fd_sc_hd__inv_2
*CAP
1 *2363:RESET_B 8.17225e-05
2 *2268:Y 8.17225e-05
3 *2363:RESET_B *1981:A1 9.60939e-05
4 *2363:RESET_B *2267:A 2.28598e-05
5 *2363:RESET_B *618:122 9.84792e-05
*RES
1 *2268:Y *2363:RESET_B 11.4161 
*END

*D_NET *213 0.00318917
*CONN
*I *2307:D I *D sky130_fd_sc_hd__dfxtp_1
*I *2046:X O *D sky130_fd_sc_hd__a31o_1
*CAP
1 *2307:D 0.000875955
2 *2046:X 0.000875955
3 *2307:D *2057:C 1.94945e-05
4 *2307:D *2066:A2 1.89507e-06
5 *2307:D *289:27 0.000447314
6 *2307:D *326:8 0.000186487
7 *2307:D *335:16 9.60337e-06
8 *2307:D *338:21 2.09897e-05
9 *2307:D *615:102 0.000630265
10 *2307:D *622:30 2.09846e-05
11 *170:42 *2307:D 0.000100221
*RES
1 *2046:X *2307:D 49.747 
*END

*D_NET *214 0.000693065
*CONN
*I *2308:D I *D sky130_fd_sc_hd__dfxtp_1
*I *2060:Y O *D sky130_fd_sc_hd__nor2_1
*CAP
1 *2308:D 0.000207245
2 *2060:Y 0.000207245
3 *2308:D *2098:B 0
4 *2308:D *496:8 0
5 *2308:D *607:53 0.000278574
*RES
1 *2060:Y *2308:D 32.1759 
*END

*D_NET *215 0.00341587
*CONN
*I *2309:D I *D sky130_fd_sc_hd__dfxtp_1
*I *2064:Y O *D sky130_fd_sc_hd__a211oi_1
*CAP
1 *2309:D 0.000939052
2 *2064:Y 0.000939052
3 *2309:D *2043:A 0.000181796
4 *2309:D *326:16 0.000397911
5 *2309:D *335:22 0.000150618
6 *2309:D *338:31 0.00065682
7 *2309:D *347:10 0.000150618
*RES
1 *2064:Y *2309:D 48.1937 
*END

*D_NET *216 0.000387422
*CONN
*I *2310:D I *D sky130_fd_sc_hd__dfxtp_1
*I *2066:Y O *D sky130_fd_sc_hd__a31oi_1
*CAP
1 *2310:D 8.3768e-05
2 *2066:Y 8.3768e-05
3 *2310:D *2058:B 5.95099e-05
4 *2310:D *2310:CLK 5.95099e-05
5 *2310:D *334:10 9.80394e-05
6 *2310:D *613:57 0
7 *2310:D *634:48 2.8266e-06
*RES
1 *2066:Y *2310:D 29.5152 
*END

*D_NET *217 0.000658678
*CONN
*I *2427:A I *D sky130_fd_sc_hd__dlygate4sd3_1
*I *1955:X O *D sky130_fd_sc_hd__o21ba_1
*CAP
1 *2427:A 5.29364e-05
2 *1955:X 5.29364e-05
3 *2427:A *1955:A2 9.77274e-05
4 *2427:A *1955:B1_N 0.000139913
5 *2427:A *2264:A 0.000315165
*RES
1 *1955:X *2427:A 21.6 
*END

*D_NET *218 0.000477931
*CONN
*I *2405:A I *D sky130_fd_sc_hd__dlygate4sd3_1
*I *1954:X O *D sky130_fd_sc_hd__o21ba_1
*CAP
1 *2405:A 0.000135845
2 *1954:X 0.000135845
3 *2405:A *1954:A2 2.56601e-05
4 *2405:A *470:37 3.42301e-05
5 *2405:A *470:39 2.93215e-05
6 *2405:A *563:14 9.71197e-05
7 *2405:A *637:29 1.99099e-05
*RES
1 *1954:X *2405:A 30.1893 
*END

*D_NET *219 0.00134424
*CONN
*I *2414:A I *D sky130_fd_sc_hd__dlygate4sd3_1
*I *1953:X O *D sky130_fd_sc_hd__o21ba_1
*CAP
1 *2414:A 0.00032949
2 *1953:X 0.00032949
3 *2414:A *2265:A 0
4 *2414:A *2460:A 0.000266853
5 *2414:A *291:29 0.000317587
6 *2414:A *635:40 0
7 *2313:RESET_B *2414:A 0.000100823
*RES
1 *1953:X *2414:A 34.2607 
*END

*D_NET *220 0.000770461
*CONN
*I *2429:A I *D sky130_fd_sc_hd__dlygate4sd3_1
*I *1952:X O *D sky130_fd_sc_hd__o21ba_1
*CAP
1 *2429:A 0.000135956
2 *1952:X 0.000135956
3 *2429:A *1952:B1_N 0.000322453
4 *2429:A *475:12 0.000176096
*RES
1 *1952:X *2429:A 32.2071 
*END

*D_NET *221 0.000495099
*CONN
*I *2315:D I *D sky130_fd_sc_hd__dfxtp_2
*I *2093:X O *D sky130_fd_sc_hd__a21o_1
*CAP
1 *2315:D 0.000247549
2 *2093:X 0.000247549
3 *2315:D *1938:A 0
4 *2315:D *2416:A 0
5 *2315:D *648:19 0
*RES
1 *2093:X *2315:D 31.7652 
*END

*D_NET *222 0.000422955
*CONN
*I *2316:D I *D sky130_fd_sc_hd__dfxtp_1
*I *2095:Y O *D sky130_fd_sc_hd__a21oi_1
*CAP
1 *2316:D 0.000107119
2 *2095:Y 0.000107119
3 *2316:D *1978:B2 1.64343e-05
4 *2316:D *1999:A1 5.35423e-05
5 *2316:D *2152:A3 5.71472e-05
6 *2316:D *2316:CLK 8.15939e-05
*RES
1 *2095:Y *2316:D 30.2473 
*END

*D_NET *223 0.000363437
*CONN
*I *2317:D I *D sky130_fd_sc_hd__dfxtp_1
*I *2100:X O *D sky130_fd_sc_hd__and2b_1
*CAP
1 *2317:D 0.000117686
2 *2100:X 0.000117686
3 *2317:D *468:53 0.000110629
4 *2317:D *468:57 1.74352e-05
*RES
1 *2100:X *2317:D 20.783 
*END

*D_NET *224 0.000702704
*CONN
*I *2318:D I *D sky130_fd_sc_hd__dfxtp_1
*I *2103:X O *D sky130_fd_sc_hd__and3_1
*CAP
1 *2318:D 0.000135866
2 *2103:X 0.000135866
3 *2318:D *2103:C 9.91086e-05
4 *2318:D *2285:CLK 5.7298e-05
5 *2318:D *506:12 5.7298e-05
6 *2318:D *600:32 1.92905e-05
7 *2318:D *606:23 0.000197977
*RES
1 *2103:X *2318:D 31.2652 
*END

*D_NET *225 0.000382126
*CONN
*I *2319:D I *D sky130_fd_sc_hd__dfxtp_1
*I *2106:X O *D sky130_fd_sc_hd__and3_1
*CAP
1 *2319:D 0.000129321
2 *2106:X 0.000129321
3 *2319:D *2105:B1 1.64343e-05
4 *2319:D *468:72 3.34672e-05
5 *2319:D *506:69 1.64343e-05
6 *2319:D *600:65 5.71472e-05
*RES
1 *2106:X *2319:D 29.6402 
*END

*D_NET *226 0.00033796
*CONN
*I *2320:D I *D sky130_fd_sc_hd__dfxtp_1
*I *2109:X O *D sky130_fd_sc_hd__and3b_1
*CAP
1 *2320:D 0.000130075
2 *2109:X 0.000130075
3 *2320:D *468:49 1.64343e-05
4 *2320:D *499:10 2.88424e-05
5 *2320:D *499:92 3.2534e-05
*RES
1 *2109:X *2320:D 30.0152 
*END

*D_NET *227 0.00108854
*CONN
*I *2321:D I *D sky130_fd_sc_hd__dfxtp_1
*I *2112:X O *D sky130_fd_sc_hd__and3b_1
*CAP
1 *2321:D 0.000260107
2 *2112:X 0.000260107
3 *2321:D *468:148 0.000532623
4 *2321:D *509:10 1.58163e-05
5 *2321:D *602:33 1.98839e-05
*RES
1 *2112:X *2321:D 24.8366 
*END

*D_NET *228 0.00124302
*CONN
*I *2322:D I *D sky130_fd_sc_hd__dfxtp_1
*I *2115:X O *D sky130_fd_sc_hd__and3b_1
*CAP
1 *2322:D 0.000596705
2 *2115:X 0.000596705
3 *2322:D *2115:B 1.58213e-06
4 *2322:D *510:8 4.8032e-05
*RES
1 *2115:X *2322:D 36.1536 
*END

*D_NET *229 0.000882531
*CONN
*I *2323:D I *D sky130_fd_sc_hd__dfxtp_1
*I *2118:X O *D sky130_fd_sc_hd__and3_1
*CAP
1 *2323:D 0.000433048
2 *2118:X 0.000433048
3 *2323:D *2323:CLK 1.64343e-05
4 *2323:D *621:106 0
*RES
1 *2118:X *2323:D 33.1223 
*END

*D_NET *230 0.000764585
*CONN
*I *2324:D I *D sky130_fd_sc_hd__dfxtp_1
*I *2121:X O *D sky130_fd_sc_hd__and3b_1
*CAP
1 *2324:D 0.000119799
2 *2121:X 0.000119799
3 *2324:D *2119:B1 4.81734e-05
4 *2324:D *2121:C 8.9894e-05
5 *2324:D *468:130 0.000128086
6 *2324:D *468:138 9.25014e-06
7 *2324:D *511:35 8.06331e-05
8 *2324:D *512:12 0.00016895
*RES
1 *2121:X *2324:D 31.6045 
*END

*D_NET *231 0.00059257
*CONN
*I *2325:D I *D sky130_fd_sc_hd__dfxtp_1
*I *2124:X O *D sky130_fd_sc_hd__and3_1
*CAP
1 *2325:D 0.00012384
2 *2124:X 0.00012384
3 *2325:D *2122:A 7.33018e-05
4 *2325:D *2124:B 8.06331e-05
5 *2325:D *2325:CLK 0.000190955
*RES
1 *2124:X *2325:D 31.3545 
*END

*D_NET *232 0.000471779
*CONN
*I *2326:D I *D sky130_fd_sc_hd__dfxtp_1
*I *2127:X O *D sky130_fd_sc_hd__and3b_1
*CAP
1 *2326:D 7.82752e-05
2 *2127:X 7.82752e-05
3 *2326:D *2127:C 0.000172893
4 *2326:D *2326:CLK 0.00012908
5 *2326:D *514:10 1.32552e-05
*RES
1 *2127:X *2326:D 21.2652 
*END

*D_NET *233 0.00112649
*CONN
*I *2327:D I *D sky130_fd_sc_hd__dfxtp_1
*I *2130:X O *D sky130_fd_sc_hd__and3_1
*CAP
1 *2327:D 0.000370714
2 *2130:X 0.000370714
3 *2327:D *2134:B 0.000229456
4 *2327:D *2327:CLK 5.99424e-05
5 *2327:D *500:22 0
6 *154:14 *2327:D 9.56621e-05
*RES
1 *2130:X *2327:D 26.0509 
*END

*D_NET *234 0.00086975
*CONN
*I *2328:D I *D sky130_fd_sc_hd__dfxtp_1
*I *2133:X O *D sky130_fd_sc_hd__and3b_1
*CAP
1 *2328:D 0.000324922
2 *2133:X 0.000324922
3 *2328:D *606:118 0.000219905
*RES
1 *2133:X *2328:D 24.533 
*END

*D_NET *235 0.000500149
*CONN
*I *2329:D I *D sky130_fd_sc_hd__dfxtp_1
*I *2136:X O *D sky130_fd_sc_hd__and3b_1
*CAP
1 *2329:D 0.000226427
2 *2136:X 0.000226427
3 *2329:D *2329:CLK 1.15797e-05
4 *2329:D *465:33 3.57163e-05
5 *2329:D *622:32 0
*RES
1 *2136:X *2329:D 31.158 
*END

*D_NET *236 0.00109578
*CONN
*I *2330:D I *D sky130_fd_sc_hd__dfxtp_1
*I *2139:X O *D sky130_fd_sc_hd__and3b_1
*CAP
1 *2330:D 0.000298071
2 *2139:X 0.000298071
3 *2330:D *2137:B 0.0002121
4 *2330:D *2290:CLK 9.0331e-05
5 *2330:D *2293:CLK 4.51416e-05
6 *2330:D *408:12 2.34969e-05
7 *2330:D *466:46 5.49544e-05
8 *2330:D *466:128 5.71472e-05
9 *154:14 *2330:D 1.64696e-05
*RES
1 *2139:X *2330:D 33.158 
*END

*D_NET *237 0.000819804
*CONN
*I *2331:D I *D sky130_fd_sc_hd__dfxtp_1
*I *2142:X O *D sky130_fd_sc_hd__and3_1
*CAP
1 *2331:D 0.000245908
2 *2142:X 0.000245908
3 *2331:D *2025:A 0.00022146
4 *2331:D *2141:B 1.0033e-05
5 *2331:D *2367:A 4.74593e-05
6 *2331:D *584:22 3.8745e-05
7 *2331:D *600:93 1.02911e-05
*RES
1 *2142:X *2331:D 32.1045 
*END

*D_NET *238 0.000399808
*CONN
*I *2332:D I *D sky130_fd_sc_hd__dfxtp_1
*I *2144:X O *D sky130_fd_sc_hd__and2_1
*CAP
1 *2332:D 0.00011258
2 *2144:X 0.00011258
3 *2332:D *2026:A 5.49544e-05
4 *2332:D *2144:B 0.00010326
5 *2332:D *2479:A 1.64343e-05
*RES
1 *2144:X *2332:D 29.6402 
*END

*D_NET *239 0.000401726
*CONN
*I *2333:D I *D sky130_fd_sc_hd__dfxtp_1
*I *2145:X O *D sky130_fd_sc_hd__o21a_1
*CAP
1 *2333:D 0.000149979
2 *2145:X 0.000149979
3 *2333:D *1987:B2 0
4 *2333:D *2145:A2 5.03694e-05
5 *2333:D *273:42 4.87669e-06
6 *2333:D *556:16 2.89016e-05
7 *2333:D *650:58 1.76204e-05
*RES
1 *2145:X *2333:D 30.2473 
*END

*D_NET *240 0.00031379
*CONN
*I *2334:D I *D sky130_fd_sc_hd__dfxtp_1
*I *2146:X O *D sky130_fd_sc_hd__or2_1
*CAP
1 *2334:D 0.00011601
2 *2146:X 0.00011601
3 *2334:D *672:DIODE 3.18676e-05
4 *2334:D *2334:CLK 1.64343e-05
5 *2334:D *465:129 0
6 *2334:D *621:46 3.34672e-05
*RES
1 *2146:X *2334:D 29.6402 
*END

*D_NET *241 0.00021566
*CONN
*I *2335:D I *D sky130_fd_sc_hd__dfxtp_1
*I *2147:X O *D sky130_fd_sc_hd__and2_1
*CAP
1 *2335:D 8.15358e-05
2 *2147:X 8.15358e-05
3 *2335:D *649:58 5.25887e-05
*RES
1 *2147:X *2335:D 20.2295 
*END

*D_NET *242 0.00137399
*CONN
*I *2336:D I *D sky130_fd_sc_hd__dfxtp_1
*I *2148:Y O *D sky130_fd_sc_hd__nor2_1
*CAP
1 *2336:D 0.000347283
2 *2148:Y 0.000347283
3 *2336:D *361:18 0.00012401
4 *2336:D *472:39 7.99677e-06
5 *2336:D *613:89 0.000100823
6 *2336:D *649:23 0.00044659
*RES
1 *2148:Y *2336:D 33.6402 
*END

*D_NET *243 0.000311271
*CONN
*I *2337:D I *D sky130_fd_sc_hd__dfxtp_1
*I *2149:X O *D sky130_fd_sc_hd__and2_1
*CAP
1 *2337:D 8.37726e-05
2 *2149:X 8.37726e-05
3 *2337:D *2149:A 1.74352e-05
4 *2337:D *2149:B 0
5 *2337:D *469:93 0.000126291
*RES
1 *2149:X *2337:D 20.8321 
*END

*D_NET *244 0.000607747
*CONN
*I *2338:D I *D sky130_fd_sc_hd__dfxtp_1
*I *2150:Y O *D sky130_fd_sc_hd__nor2_1
*CAP
1 *2338:D 0.000227148
2 *2150:Y 0.000227148
3 *2338:D *2168:B1 0
4 *2338:D *273:42 0
5 *2338:D *472:55 0.000153451
6 *2338:D *620:26 0
*RES
1 *2150:Y *2338:D 32.1759 
*END

*D_NET *245 0.000424079
*CONN
*I *2339:D I *D sky130_fd_sc_hd__dfxtp_1
*I *2152:X O *D sky130_fd_sc_hd__o31a_1
*CAP
1 *2339:D 8.26945e-05
2 *2152:X 8.26945e-05
3 *2339:D *1985:A2 0
4 *2339:D *1990:B2 0.000105246
5 *2339:D *555:10 0.000103323
6 *2339:D *634:63 5.01213e-05
*RES
1 *2152:X *2339:D 29.9259 
*END

*D_NET *246 0.000671024
*CONN
*I *2340:D I *D sky130_fd_sc_hd__dfxtp_1
*I *2159:X O *D sky130_fd_sc_hd__o21a_1
*CAP
1 *2340:D 0.000306938
2 *2159:X 0.000306938
3 *2340:D *286:69 5.71472e-05
4 *2340:D *361:18 0
5 *2340:D *621:203 0
*RES
1 *2159:X *2340:D 32.6759 
*END

*D_NET *247 0.000755491
*CONN
*I *2341:D I *D sky130_fd_sc_hd__dfxtp_1
*I *2162:X O *D sky130_fd_sc_hd__and2b_1
*CAP
1 *2341:D 0.000153561
2 *2162:X 0.000153561
3 *2341:D *2341:CLK 6.75484e-05
4 *2341:D *286:46 5.7298e-05
5 *2341:D *414:10 9.0573e-05
6 *2341:D *414:16 0.00020455
7 *2341:D *465:171 2.84009e-05
*RES
1 *2162:X *2341:D 31.9438 
*END

*D_NET *248 0.00189544
*CONN
*I *2342:D I *D sky130_fd_sc_hd__dfxtp_1
*I *2166:X O *D sky130_fd_sc_hd__and3_1
*CAP
1 *2342:D 0.000430651
2 *2166:X 0.000430651
3 *2342:D *2093:A1 0.000609105
4 *2342:D *2093:A2 3.79197e-05
5 *2342:D *2162:A_N 8.00806e-05
6 *2342:D *2342:CLK 0.000129087
7 *2342:D *601:36 0.000177948
*RES
1 *2166:X *2342:D 38.4616 
*END

*D_NET *249 0.00102644
*CONN
*I *2343:D I *D sky130_fd_sc_hd__dfxtp_1
*I *2181:Y O *D sky130_fd_sc_hd__a21oi_1
*CAP
1 *2343:D 0.000334154
2 *2181:Y 0.000334154
3 *2343:D *2182:A 0
4 *2343:D *2182:B 0
5 *2343:D *2183:A2 0.000103267
6 *2343:D *471:42 0
7 *2343:D *471:46 0
8 *2343:D *479:21 0.000103034
9 *2343:D *486:25 0
10 *2343:D *560:76 0.000151834
*RES
1 *2181:Y *2343:D 34.4795 
*END

*D_NET *250 0.00137772
*CONN
*I *2344:D I *D sky130_fd_sc_hd__dfxtp_1
*I *2183:Y O *D sky130_fd_sc_hd__a21oi_1
*CAP
1 *2344:D 0.000472747
2 *2183:Y 0.000472747
3 *2344:D *2183:A2 0.000331122
4 *2344:D *2183:B1 3.69047e-06
5 *2344:D *2344:CLK 5.52238e-05
6 *2344:D *471:36 2.90075e-05
7 *2344:D *560:76 1.31802e-05
*RES
1 *2183:Y *2344:D 26.3679 
*END

*D_NET *251 0.000759704
*CONN
*I *2345:D I *D sky130_fd_sc_hd__dfxtp_1
*I *2186:Y O *D sky130_fd_sc_hd__a21oi_1
*CAP
1 *2345:D 0.00016091
2 *2186:Y 0.00016091
3 *2345:D *291:63 6.64907e-05
4 *2345:D *475:12 0.000100823
5 *2270:D *2345:D 0.000270569
*RES
1 *2186:Y *2345:D 31.7205 
*END

*D_NET *252 0.000440693
*CONN
*I *2346:D I *D sky130_fd_sc_hd__dfxtp_1
*I *2189:Y O *D sky130_fd_sc_hd__a21oi_1
*CAP
1 *2346:D 0.000136036
2 *2189:Y 0.000136036
3 *2346:D *432:25 1.64343e-05
4 *2346:D *604:67 0.00010326
5 *163:18 *2346:D 4.89264e-05
*RES
1 *2189:Y *2346:D 30.3188 
*END

*D_NET *253 0.0004619
*CONN
*I *2347:D I *D sky130_fd_sc_hd__dfxtp_2
*I *2191:Y O *D sky130_fd_sc_hd__a21oi_1
*CAP
1 *2347:D 0.000114052
2 *2191:Y 0.000114052
3 *2347:D *2191:B1 1.07719e-05
4 *2347:D *473:38 6.99766e-05
5 *2347:D *621:34 0.000153047
*RES
1 *2191:Y *2347:D 30.2473 
*END

*D_NET *254 0.000438198
*CONN
*I *2348:D I *D sky130_fd_sc_hd__dfxtp_1
*I *2194:Y O *D sky130_fd_sc_hd__a21oi_1
*CAP
1 *2348:D 0.000168363
2 *2194:Y 0.000168363
3 *2348:D *2194:A1 5.71472e-05
4 *2348:D *2348:CLK 4.43256e-05
*RES
1 *2194:Y *2348:D 21.6313 
*END

*D_NET *255 0.000626793
*CONN
*I *2349:D I *D sky130_fd_sc_hd__dfxtp_1
*I *2196:Y O *D sky130_fd_sc_hd__a21oi_1
*CAP
1 *2349:D 0.000182241
2 *2196:Y 0.000182241
3 *2349:D *1983:A 8.33751e-05
4 *2349:D *2195:B 1.92905e-05
5 *2349:D *2196:B1 5.83233e-05
6 *2349:D *491:21 4.80221e-05
7 *2349:D *541:12 0
8 *2349:D *603:47 5.33005e-05
*RES
1 *2196:Y *2349:D 31.85 
*END

*D_NET *256 0.000886305
*CONN
*I *2350:D I *D sky130_fd_sc_hd__dfxtp_1
*I *2200:Y O *D sky130_fd_sc_hd__a21oi_1
*CAP
1 *2350:D 0.000280806
2 *2200:Y 0.000280806
3 *2350:D *2197:B 0
4 *2350:D *2203:A2 1.76204e-05
5 *2350:D *2350:CLK 5.5782e-05
6 *2350:D *471:125 1.50181e-05
7 *2350:D *491:32 0
8 *2350:D *603:39 9.25014e-06
9 *2350:D *604:18 0.000177941
10 *2350:D *604:33 4.90803e-05
11 *164:16 *2350:D 0
*RES
1 *2200:Y *2350:D 33.3545 
*END

*D_NET *257 0.000470499
*CONN
*I *2351:D I *D sky130_fd_sc_hd__dfxtp_1
*I *2202:Y O *D sky130_fd_sc_hd__a21oi_1
*CAP
1 *2351:D 0.000153331
2 *2202:Y 0.000153331
3 *2351:D *620:18 9.20761e-05
4 *164:16 *2351:D 7.17603e-05
*RES
1 *2202:Y *2351:D 31.1402 
*END

*D_NET *258 0.000586086
*CONN
*I *2352:D I *D sky130_fd_sc_hd__dfxtp_1
*I *2205:Y O *D sky130_fd_sc_hd__a21oi_1
*CAP
1 *2352:D 0.000225824
2 *2205:Y 0.000225824
3 *2352:D *2205:A1 2.46387e-05
4 *2352:D *2205:A2 6.24566e-05
5 *2352:D *2352:CLK 2.69708e-05
6 *2352:D *493:23 2.03715e-05
*RES
1 *2205:Y *2352:D 31.0554 
*END

*D_NET *259 0.00135452
*CONN
*I *2353:D I *D sky130_fd_sc_hd__dfxtp_2
*I *2208:Y O *D sky130_fd_sc_hd__a21oi_1
*CAP
1 *2353:D 0.000596201
2 *2208:Y 0.000596201
3 *2353:D *2208:B1 1.33343e-05
4 *2353:D *2354:CLK 0
5 *2353:D *2384:A 1.32552e-05
6 *2353:D *473:119 1.64343e-05
7 *2353:D *481:10 2.94103e-05
8 *2353:D *481:12 7.92879e-05
9 *2353:D *603:6 1.03968e-05
10 *2353:D *613:135 0
*RES
1 *2208:Y *2353:D 36.1759 
*END

*D_NET *260 0.000463172
*CONN
*I *2354:D I *D sky130_fd_sc_hd__dfxtp_1
*I *2210:Y O *D sky130_fd_sc_hd__a21oi_1
*CAP
1 *2354:D 0.000151157
2 *2210:Y 0.000151157
3 *2354:D *481:52 0.000160857
*RES
1 *2210:Y *2354:D 21.225 
*END

*D_NET *261 0.000308156
*CONN
*I *2355:D I *D sky130_fd_sc_hd__dfxtp_1
*I *2213:Y O *D sky130_fd_sc_hd__nor2_1
*CAP
1 *2355:D 9.87129e-05
2 *2213:Y 9.87129e-05
3 *2355:D *291:99 5.12199e-05
4 *2355:D *473:24 5.95099e-05
5 *2355:D *605:25 0
*RES
1 *2213:Y *2355:D 29.5152 
*END

*D_NET *262 0.000423725
*CONN
*I *2356:D I *D sky130_fd_sc_hd__dfxtp_1
*I *2215:Y O *D sky130_fd_sc_hd__a21oi_1
*CAP
1 *2356:D 0.000118523
2 *2215:Y 0.000118523
3 *2356:D *2214:A 3.29354e-05
4 *2356:D *2214:B 6.42242e-05
5 *2356:D *473:59 8.95186e-05
6 *2356:D *483:19 0
7 *2356:D *483:21 0
*RES
1 *2215:Y *2356:D 30.4036 
*END

*D_NET *263 0.00118437
*CONN
*I *2357:D I *D sky130_fd_sc_hd__dfxtp_1
*I *2217:Y O *D sky130_fd_sc_hd__a211oi_1
*CAP
1 *2357:D 0.000231214
2 *2217:Y 0.000231214
3 *2357:D *1931:A 0.000261448
4 *2357:D *2217:A1 8.79904e-05
5 *2357:D *2217:B1 1.56e-05
6 *2357:D *2357:CLK 0.000161769
7 *2357:D *437:12 0.000139907
8 *2357:D *605:49 5.52238e-05
*RES
1 *2217:Y *2357:D 25.4438 
*END

*D_NET *264 0.00040463
*CONN
*I *2358:D I *D sky130_fd_sc_hd__dfxtp_1
*I *2218:X O *D sky130_fd_sc_hd__o21ba_1
*CAP
1 *2358:D 0.000202315
2 *2218:X 0.000202315
3 *2358:D *2218:A2 0
4 *2358:D *2218:B1_N 0
*RES
1 *2218:X *2358:D 30.7473 
*END

*D_NET *265 0.000850244
*CONN
*I *2359:D I *D sky130_fd_sc_hd__dfxtp_1
*I *2222:X O *D sky130_fd_sc_hd__o211a_1
*CAP
1 *2359:D 0.000255502
2 *2222:X 0.000255502
3 *2359:D *2221:A1 2.89016e-05
4 *2359:D *2221:A2 3.97677e-05
5 *2359:D *2222:C1 9.60875e-05
6 *2359:D *2359:CLK 7.60306e-05
7 *2359:D *2360:CLK 1.02936e-05
8 *2359:D *641:14 3.29354e-05
9 *2359:D *641:16 5.52238e-05
10 *2359:D *641:53 0
*RES
1 *2222:X *2359:D 32.8857 
*END

*D_NET *266 0.001992
*CONN
*I *2360:D I *D sky130_fd_sc_hd__dfxtp_1
*I *2224:X O *D sky130_fd_sc_hd__o211a_1
*CAP
1 *2360:D 0.000579878
2 *2224:X 0.000579878
3 *2360:D *2220:A1 7.83659e-05
4 *2360:D *2360:CLK 0.000150336
5 *2360:D *462:12 8.00806e-05
6 *2360:D *469:115 0.000523464
*RES
1 *2224:X *2360:D 36.5687 
*END

*D_NET *267 0.000434537
*CONN
*I *2361:D I *D sky130_fd_sc_hd__dfxtp_1
*I *2225:X O *D sky130_fd_sc_hd__o21a_1
*CAP
1 *2361:D 3.93287e-05
2 *2225:X 3.93287e-05
3 *2361:D *2225:A1 0.000214559
4 *2361:D *2225:B1 5.71472e-05
5 *2361:D *2361:CLK 5.52238e-05
6 *2361:D *615:36 2.89494e-05
*RES
1 *2225:X *2361:D 20.6402 
*END

*D_NET *268 0.000406755
*CONN
*I *2362:D I *D sky130_fd_sc_hd__dfxtp_1
*I *2226:X O *D sky130_fd_sc_hd__o21a_1
*CAP
1 *2362:D 0.000126335
2 *2226:X 0.000126335
3 *2362:D *2226:A2 5.65955e-05
4 *2362:D *291:33 4.51198e-05
5 *2362:D *467:17 1.19472e-05
6 *2362:D *467:19 4.04221e-05
*RES
1 *2226:X *2362:D 30.2473 
*END

*D_NET *269 0.00131964
*CONN
*I *2431:A I *D sky130_fd_sc_hd__dlygate4sd3_1
*I *1946:X O *D sky130_fd_sc_hd__o21ba_1
*CAP
1 *2431:A 0.000293578
2 *1946:X 0.000293578
3 *2431:A *1946:B1_N 5.20751e-05
4 *2431:A *2461:A 0.00031143
5 *2431:A *470:37 2.96143e-05
6 *2431:A *475:12 0.000317602
7 *2431:A *556:48 2.1768e-05
*RES
1 *1946:X *2431:A 34.2607 
*END

*D_NET *270 0.000286943
*CONN
*I *2217:A1 I *D sky130_fd_sc_hd__a211oi_1
*I *1931:Y O *D sky130_fd_sc_hd__inv_2
*CAP
1 *2217:A1 9.94764e-05
2 *1931:Y 9.94764e-05
3 *2357:D *2217:A1 8.79904e-05
*RES
1 *1931:Y *2217:A1 19.9571 
*END

*D_NET *271 0.00828758
*CONN
*I *1957:A I *D sky130_fd_sc_hd__nor3_4
*I *2148:A I *D sky130_fd_sc_hd__nor2_1
*I *2160:A I *D sky130_fd_sc_hd__or3_1
*I *2045:A I *D sky130_fd_sc_hd__or4_2
*I *2167:B2 I *D sky130_fd_sc_hd__a2bb2o_1
*I *2168:A1 I *D sky130_fd_sc_hd__o22ai_1
*I *1932:Y O *D sky130_fd_sc_hd__inv_2
*CAP
1 *1957:A 0.000224107
2 *2148:A 0
3 *2160:A 0.000128259
4 *2045:A 0.000198644
5 *2167:B2 1.99857e-05
6 *2168:A1 0.000206617
7 *1932:Y 0
8 *271:64 0.000295545
9 *271:53 0.00073789
10 *271:16 0.000742204
11 *271:6 0.000714246
12 *271:4 0.000538192
13 *1957:A *2094:A 0.000213364
14 *1957:A *316:28 3.34295e-05
15 *1957:A *554:6 6.42095e-05
16 *1957:A *554:10 0.000178847
17 *1957:A *613:89 0
18 *1957:A *620:44 2.34337e-05
19 *1957:A *620:62 6.8727e-05
20 *2045:A *1957:B 9.41642e-05
21 *2045:A *2045:B 7.43578e-06
22 *2045:A *2045:C 9.60875e-05
23 *2045:A *288:14 5.52238e-05
24 *2045:A *288:25 0.000125547
25 *2045:A *414:10 0.000329351
26 *2045:A *472:14 0.000320815
27 *2045:A *472:55 4.88637e-05
28 *2160:A *2094:A 0.000267814
29 *2160:A *2160:B 8.07951e-05
30 *2167:B2 *649:45 1.04232e-05
31 *2167:B2 *649:54 0
32 *2168:A1 *2168:A2 5.33005e-05
33 *2168:A1 *286:46 2.30116e-06
34 *2168:A1 *648:40 0.000325289
35 *2168:A1 *649:45 0.000119483
36 *2168:A1 *650:58 5.33005e-05
37 *2168:A1 *651:55 0.000335038
38 *271:16 *2341:CLK 0.000212258
39 *271:16 *286:46 1.18881e-05
40 *271:16 *414:10 0.000191246
41 *271:16 *472:14 1.02504e-05
42 *271:16 *649:45 0.000192766
43 *271:16 *650:10 5.52238e-05
44 *271:53 *472:39 0.000780443
45 *271:64 *2094:A 0.000114759
46 *271:64 *613:89 0
47 *271:64 *620:44 5.80706e-06
*RES
1 *1932:Y *271:4 9.3 
2 *271:4 *271:6 4.5 
3 *271:6 *271:16 13.4821 
4 *271:16 *2168:A1 24.5679 
5 *271:16 *2167:B2 9.72857 
6 *271:6 *2045:A 20.7643 
7 *271:4 *271:53 12.0179 
8 *271:53 *2160:A 17.2643 
9 *271:53 *271:64 1.64286 
10 *271:64 *2148:A 13.8 
11 *271:64 *1957:A 19.6571 
*END

*D_NET *272 0.00300843
*CONN
*I *2172:A1 I *D sky130_fd_sc_hd__a211o_1
*I *1949:B I *D sky130_fd_sc_hd__and3_1
*I *2168:B2 I *D sky130_fd_sc_hd__o22ai_1
*I *2150:A I *D sky130_fd_sc_hd__nor2_1
*I *1933:Y O *D sky130_fd_sc_hd__inv_2
*CAP
1 *2172:A1 0
2 *1949:B 0.000255786
3 *2168:B2 6.26257e-05
4 *2150:A 5.81442e-05
5 *1933:Y 0.000152531
6 *272:16 0.000200082
7 *272:12 0.000359117
8 *272:10 0.00017655
9 *1949:B *273:42 0.000348207
10 *2150:A *2168:B1 2.89016e-05
11 *2150:A *273:42 0.000154027
12 *2150:A *650:58 0.000363837
13 *2168:B2 *2168:B1 2.89114e-05
14 *2168:B2 *2172:B1 1.92905e-05
15 *2168:B2 *650:58 0.000128496
16 *272:10 *2153:B1 0.000140933
17 *272:10 *430:10 3.25247e-05
18 *272:10 *621:34 0.000125717
19 *272:12 *2168:B1 7.0048e-05
20 *272:12 *621:34 7.97314e-05
21 *272:16 *2168:B1 9.9407e-05
22 *272:16 *621:34 0.000108748
23 *272:16 *621:36 1.4811e-05
*RES
1 *1933:Y *272:10 16.8 
2 *272:10 *272:12 1.03571 
3 *272:12 *272:16 6.44643 
4 *272:16 *2150:A 12.7107 
5 *272:16 *2168:B2 11.0857 
6 *272:12 *1949:B 17.2107 
7 *272:10 *2172:A1 13.8 
*END

*D_NET *273 0.0167814
*CONN
*I *653:DIODE I *D sky130_fd_sc_hd__diode_2
*I *2045:B I *D sky130_fd_sc_hd__or4_2
*I *665:DIODE I *D sky130_fd_sc_hd__diode_2
*I *1934:Y O *D sky130_fd_sc_hd__inv_2
*CAP
1 *653:DIODE 0
2 *2045:B 0.000144356
3 *665:DIODE 0
4 *1934:Y 8.79895e-05
5 *273:42 0.00270407
6 *273:28 0.00301676
7 *273:16 0.00244954
8 *273:6 0.00208048
9 *2045:B *285:12 3.32631e-05
10 *2045:B *472:55 3.40043e-05
11 *273:6 *1962:C 5.39629e-06
12 *273:16 *2029:B 0.000137054
13 *273:16 *2304:CLK 9.46168e-05
14 *273:16 *2403:A 7.56943e-05
15 *273:16 *324:16 0.000488383
16 *273:16 *324:22 0.000608722
17 *273:16 *324:24 0.000209745
18 *273:16 *470:115 0
19 *273:16 *618:43 0
20 *273:16 *622:14 0
21 *273:28 *1953:B1_N 2.84109e-05
22 *273:28 *1972:A1 0.00014183
23 *273:28 *1973:A2 0.000180948
24 *273:28 *2304:CLK 0.000112953
25 *273:28 *2339:CLK 0.000961593
26 *273:28 *608:71 0.000150618
27 *273:28 *637:29 0.000427653
28 *273:28 *640:25 1.18064e-05
29 *273:42 *1949:A 2.89114e-05
30 *273:42 *1950:C 2.35082e-05
31 *273:42 *1972:A1 4.43256e-05
32 *273:42 *1972:B1 1.92789e-05
33 *273:42 *1972:B2 0.000696543
34 *273:42 *2168:B1 0.000122089
35 *273:42 *2172:C1 2.89016e-05
36 *273:42 *2333:CLK 7.49615e-05
37 *273:42 *285:12 6.02138e-05
38 *273:42 *286:8 5.52302e-05
39 *273:42 *295:43 9.22103e-06
40 *273:42 *472:55 4.72352e-05
41 *273:42 *555:20 3.61629e-06
42 *273:42 *620:26 0.000230482
43 *273:42 *620:30 5.14536e-05
44 *273:42 *647:8 2.59355e-05
45 *273:42 *650:58 0.000298813
46 *1949:B *273:42 0.000348207
47 *2045:A *2045:B 7.43578e-06
48 *2150:A *273:42 0.000154027
49 *2271:RESET_B *273:16 0.000179656
50 *2304:D *273:16 4.78056e-05
51 *2304:RESET_B *273:16 3.27626e-05
52 *2306:RESET_B *273:16 0
53 *2333:D *273:42 4.87669e-06
54 *2338:D *273:42 0
*RES
1 *1934:Y *273:6 10.2464 
2 *273:6 *273:16 47.375 
3 *273:16 *273:28 24.7679 
4 *273:28 *273:42 48 
5 *273:42 *665:DIODE 9.3 
6 *273:42 *2045:B 11.9071 
7 *273:6 *653:DIODE 9.3 
*END

*D_NET *274 0.00316187
*CONN
*I *2051:A1 I *D sky130_fd_sc_hd__a41o_1
*I *2132:A I *D sky130_fd_sc_hd__nand2_1
*I *2131:A I *D sky130_fd_sc_hd__nor2_1
*I *1935:Y O *D sky130_fd_sc_hd__inv_2
*CAP
1 *2051:A1 0.000212627
2 *2132:A 2.83028e-05
3 *2131:A 8.38509e-05
4 *1935:Y 0
5 *274:6 0.000219983
6 *274:4 0.000320457
7 *2051:A1 *2051:A4 0.00018372
8 *2051:A1 *2051:B1 9.90431e-05
9 *2051:A1 *500:49 4.52179e-05
10 *2051:A1 *500:70 8.32266e-05
11 *2131:A *2128:A 9.41946e-06
12 *2131:A *2131:B 1.32622e-05
13 *2131:A *2132:B 0.000348987
14 *2131:A *2382:A 4.88637e-05
15 *2131:A *500:49 0.000449567
16 *274:6 *1935:A 0.000486447
17 *274:6 *2382:A 1.69961e-05
18 *274:6 *500:49 0.000511899
*RES
1 *1935:Y *274:4 9.3 
2 *274:4 *274:6 5.46429 
3 *274:6 *2131:A 13.9607 
4 *274:6 *2132:A 9.72857 
5 *274:4 *2051:A1 14.9607 
*END

*D_NET *275 0.0038174
*CONN
*I *2126:A I *D sky130_fd_sc_hd__nand2_1
*I *2051:A2 I *D sky130_fd_sc_hd__a41o_1
*I *1936:Y O *D sky130_fd_sc_hd__inv_2
*CAP
1 *2126:A 0.000187722
2 *2051:A2 0.000384518
3 *1936:Y 0
4 *275:4 0.000572241
5 *2051:A2 *2041:B 0.000169366
6 *2051:A2 *2041:C 3.3245e-05
7 *2051:A2 *2042:A 0.000181803
8 *2051:A2 *2051:A3 0.000152624
9 *2051:A2 *2051:A4 7.82564e-05
10 *2051:A2 *2054:A3 1.02504e-05
11 *2051:A2 *2054:B1 0.000268403
12 *2051:A2 *2328:CLK 0.000643113
13 *2051:A2 *2383:A 0.000323256
14 *2051:A2 *332:8 4.25427e-05
15 *2051:A2 *343:8 0.000150618
16 *2051:A2 *500:70 0.000215641
17 *2126:A *2127:B 7.83587e-05
18 *2126:A *465:135 0.00020304
19 *2126:A *514:10 4.96531e-05
20 *2126:A *514:12 6.82922e-05
21 *2126:A *514:18 4.46186e-06
22 *2126:A *621:52 0
*RES
1 *1936:Y *275:4 9.3 
2 *275:4 *2051:A2 33.3625 
3 *275:4 *2126:A 23.2821 
*END

*D_NET *276 0.00174939
*CONN
*I *2169:A2 I *D sky130_fd_sc_hd__o22ai_1
*I *2170:A2 I *D sky130_fd_sc_hd__a2111o_1
*I *1938:Y O *D sky130_fd_sc_hd__inv_2
*CAP
1 *2169:A2 0
2 *2170:A2 5.65278e-05
3 *1938:Y 0.000355676
4 *276:12 0.000412204
5 *2170:A2 *2169:B1 5.71472e-05
6 *2170:A2 *2169:B2 0.00014183
7 *2170:A2 *2170:A1 1.54142e-05
8 *2170:A2 *648:27 0.000109466
9 *276:12 *469:76 0
10 *276:12 *469:93 0
11 *276:12 *621:42 0
12 *276:12 *621:46 0
13 *276:12 *648:21 5.52238e-05
14 *276:12 *648:27 1.69961e-05
15 *170:48 *276:12 0.000401678
16 *170:70 *276:12 0.000127223
*RES
1 *1938:Y *276:12 26.05 
2 *276:12 *2170:A2 11.4964 
3 *276:12 *2169:A2 9.3 
*END

*D_NET *277 0.0011745
*CONN
*I *2167:A2_N I *D sky130_fd_sc_hd__a2bb2o_1
*I *2171:A2 I *D sky130_fd_sc_hd__a221o_1
*I *1939:Y O *D sky130_fd_sc_hd__inv_2
*CAP
1 *2167:A2_N 0.000162126
2 *2171:A2 5.75264e-05
3 *1939:Y 0.000146668
4 *277:6 0.00036632
5 *2167:A2_N *649:45 3.46775e-05
6 *2167:A2_N *649:54 3.80414e-05
7 *2171:A2 *2171:A1 0.000125724
8 *2171:A2 *2171:B1 5.80706e-06
9 *2171:A2 *465:171 7.13226e-06
10 *2171:A2 *621:36 0.000148911
11 *2171:A2 *651:40 6.25394e-06
12 *277:6 *649:54 8.25843e-06
13 *277:6 *649:58 6.70515e-05
*RES
1 *1939:Y *277:6 11.8893 
2 *277:6 *2171:A2 20.3937 
3 *277:6 *2167:A2_N 11.9071 
*END

*D_NET *278 0.00125121
*CONN
*I *2171:B1 I *D sky130_fd_sc_hd__a221o_1
*I *2169:B1 I *D sky130_fd_sc_hd__o22ai_1
*I *1940:Y O *D sky130_fd_sc_hd__inv_2
*CAP
1 *2171:B1 0.000110221
2 *2169:B1 0.000129119
3 *1940:Y 0.000119654
4 *278:10 0.000358995
5 *2169:B1 *2170:A1 0.00010096
6 *2169:B1 *2170:C1 4.22563e-05
7 *2169:B1 *2170:D1 9.90367e-05
8 *2171:B1 *2171:C1 5.26091e-05
9 *2171:B1 *621:36 7.66952e-05
10 *2171:B1 *621:42 1.19402e-05
11 *2171:B1 *651:27 0
12 *278:10 *469:93 5.71472e-05
13 *278:10 *621:42 2.96241e-05
14 *278:10 *651:27 0
15 *2170:A2 *2169:B1 5.71472e-05
16 *2171:A2 *2171:B1 5.80706e-06
*RES
1 *1940:Y *278:10 15.675 
2 *278:10 *2169:B1 16.8 
3 *278:10 *2171:B1 16.9607 
*END

*D_NET *279 0.000737735
*CONN
*I *2163:B2 I *D sky130_fd_sc_hd__a32o_1
*I *1941:Y O *D sky130_fd_sc_hd__inv_2
*CAP
1 *2163:B2 0.000102769
2 *1941:Y 0.000102769
3 *2163:B2 *2157:B1 8.85532e-05
4 *2163:B2 *2163:A1 5.52238e-05
5 *2163:B2 *282:10 0.000136958
6 *2163:B2 *373:10 0.000125731
7 *2163:B2 *579:26 0.000125731
*RES
1 *1941:Y *2163:B2 31.0107 
*END

*D_NET *280 0.00799407
*CONN
*I *1998:B I *D sky130_fd_sc_hd__or2_1
*I *2007:A2 I *D sky130_fd_sc_hd__o221a_1
*I *2008:A2 I *D sky130_fd_sc_hd__o221a_1
*I *1999:A2 I *D sky130_fd_sc_hd__a22o_1
*I *1992:B1 I *D sky130_fd_sc_hd__a21o_1
*I *1980:B I *D sky130_fd_sc_hd__or2_1
*I *1981:A2 I *D sky130_fd_sc_hd__a22o_1
*I *1965:A I *D sky130_fd_sc_hd__nor2_1
*I *1942:Y O *D sky130_fd_sc_hd__inv_2
*CAP
1 *1998:B 0
2 *2007:A2 0.000161387
3 *2008:A2 0
4 *1999:A2 0
5 *1992:B1 0
6 *1980:B 0
7 *1981:A2 1.69531e-05
8 *1965:A 0.000150037
9 *1942:Y 3.17002e-05
10 *280:85 0.000478423
11 *280:68 0.000665486
12 *280:62 0.000571003
13 *280:51 0.00038546
14 *280:38 0.000249839
15 *280:25 0.000219238
16 *280:6 0.00029709
17 *1965:A *1981:A1 0
18 *1965:A *1985:A2 0
19 *1981:A2 *1981:B2 5.33005e-05
20 *1981:A2 *296:6 5.33005e-05
21 *2007:A2 *2007:B1 5.71472e-05
22 *2007:A2 *2007:B2 6.25993e-05
23 *2007:A2 *2007:C1 5.33005e-05
24 *2007:A2 *2008:A1 0.000276211
25 *280:6 *1968:A 0.000102197
26 *280:6 *488:37 0.000186662
27 *280:25 *1968:A 6.05161e-06
28 *280:25 *1990:B2 5.41794e-05
29 *280:25 *296:6 0.00026839
30 *280:25 *488:37 0.000343591
31 *280:38 *1981:B2 9.90431e-05
32 *280:38 *1994:B1 0.000138881
33 *280:38 *296:6 0.000194629
34 *280:51 *1987:B2 0
35 *280:51 *1993:B1 6.42242e-05
36 *280:51 *1994:B1 0.00010096
37 *280:51 *296:6 9.77274e-05
38 *280:62 *1992:A1 0.000291733
39 *280:62 *560:24 0.000115667
40 *280:68 *1992:A1 1.02821e-05
41 *280:68 *1999:A1 0.000303368
42 *280:68 *1999:B1 5.04841e-06
43 *280:68 *2000:B1 1.97695e-05
44 *280:68 *281:35 3.61629e-06
45 *280:85 *1999:B1 1.34959e-05
46 *280:85 *2000:B1 8.25599e-05
47 *280:85 *2000:C1 0.000360441
48 *280:85 *2008:B2 5.52302e-05
49 *280:85 *281:35 0.000194307
50 *280:85 *296:40 0.000354098
51 *280:85 *296:48 0.000237494
52 *280:85 *314:8 0.000105163
53 *280:85 *609:29 0.000173328
54 *164:16 *280:51 0
55 *169:12 *280:85 0.000229456
*RES
1 *1942:Y *280:6 11.0679 
2 *280:6 *1965:A 20.55 
3 *280:6 *280:25 13.1429 
4 *280:25 *1981:A2 9.83571 
5 *280:25 *280:38 3.14286 
6 *280:38 *1980:B 9.3 
7 *280:38 *280:51 12.7143 
8 *280:51 *1992:B1 9.3 
9 *280:51 *280:62 5.19643 
10 *280:62 *280:68 4.98214 
11 *280:68 *1999:A2 9.3 
12 *280:68 *280:85 13.3571 
13 *280:85 *2008:A2 9.3 
14 *280:85 *2007:A2 22.3714 
15 *280:62 *1998:B 9.3 
*END

*D_NET *281 0.0066549
*CONN
*I *1995:A I *D sky130_fd_sc_hd__and2_1
*I *2394:A I *D sky130_fd_sc_hd__buf_2
*I *1943:Y O *D sky130_fd_sc_hd__inv_2
*CAP
1 *1995:A 0
2 *2394:A 0
3 *1943:Y 0.00035446
4 *281:35 0.00148802
5 *281:14 0.00184248
6 *281:14 *1943:A 1.98839e-05
7 *281:14 *1968:B 0.000180777
8 *281:14 *1981:B1 0
9 *281:14 *1985:A1 1.24368e-05
10 *281:14 *488:37 1.55885e-05
11 *281:14 *542:82 0.000122446
12 *281:14 *560:36 0.000227539
13 *281:14 *614:10 0
14 *281:14 *614:23 8.23138e-05
15 *281:14 *614:48 9.60337e-06
16 *281:35 *1980:A 3.25078e-05
17 *281:35 *1990:B2 2.15363e-05
18 *281:35 *1994:B1 9.25014e-06
19 *281:35 *1999:A1 1.15281e-05
20 *281:35 *1999:B1 0.000916754
21 *281:35 *2000:C1 5.52238e-05
22 *281:35 *2390:A 0
23 *281:35 *560:36 0.000443654
24 *281:35 *614:23 0.000119193
25 *281:35 *614:101 0.00022459
26 *281:35 *621:34 2.94103e-05
27 *168:12 *281:35 1.02504e-05
28 *169:12 *281:35 0.000227532
29 *280:68 *281:35 3.61629e-06
30 *280:85 *281:35 0.000194307
*RES
1 *1943:Y *281:14 24.7107 
2 *281:14 *2394:A 9.3 
3 *281:14 *281:35 41.7857 
4 *281:35 *1995:A 9.3 
*END

*D_NET *282 0.00175825
*CONN
*I *2154:B I *D sky130_fd_sc_hd__and2_1
*I *2163:A1 I *D sky130_fd_sc_hd__a32o_1
*I *1944:Y O *D sky130_fd_sc_hd__inv_2
*CAP
1 *2154:B 0.000124529
2 *2163:A1 9.1563e-05
3 *1944:Y 0.000190985
4 *282:10 0.000407077
5 *2154:B *2154:A 4.1331e-06
6 *2154:B *2163:B1 6.91215e-06
7 *2154:B *316:28 0
8 *2154:B *316:34 0
9 *2154:B *373:10 2.26327e-05
10 *2154:B *415:10 0.000148196
11 *2154:B *546:23 5.52238e-05
12 *2154:B *601:16 5.52238e-05
13 *2163:A1 *2157:B1 3.86208e-05
14 *2163:A1 *2163:A3 5.7661e-06
15 *2163:A1 *2163:B1 1.43404e-05
16 *2163:A1 *415:16 5.52302e-05
17 *282:10 *2157:A2 0.000268403
18 *282:10 *2157:B1 3.53387e-05
19 *282:10 *415:16 4.18895e-05
20 *2163:B2 *2163:A1 5.52238e-05
21 *2163:B2 *282:10 0.000136958
*RES
1 *1944:Y *282:10 14.0857 
2 *282:10 *2163:A1 11.4964 
3 *282:10 *2154:B 21.3893 
*END

*D_NET *283 0.00142304
*CONN
*I *2163:A2 I *D sky130_fd_sc_hd__a32o_1
*I *1945:Y O *D sky130_fd_sc_hd__inv_2
*CAP
1 *2163:A2 0.000338184
2 *1945:Y 0.000338184
3 *2163:A2 *316:28 0.000195555
4 *2163:A2 *601:16 0.000481575
5 *2163:A2 *621:203 6.95392e-05
*RES
1 *1945:Y *2163:A2 34.7964 
*END

*D_NET *284 0.00151866
*CONN
*I *1957:B I *D sky130_fd_sc_hd__nor3_4
*I *2045:C I *D sky130_fd_sc_hd__or4_2
*I *1948:B I *D sky130_fd_sc_hd__nor2_1
*I *1947:X O *D sky130_fd_sc_hd__or2_1
*CAP
1 *1957:B 7.37899e-05
2 *2045:C 4.85398e-05
3 *1948:B 0.000181019
4 *1947:X 0
5 *284:19 0.000183068
6 *284:4 0.000241757
7 *1948:B *1948:A 5.04841e-06
8 *1948:B *648:76 0.000181796
9 *1948:B *649:33 9.80173e-05
10 *1957:B *288:25 2.6269e-05
11 *284:19 *465:171 0.000144554
12 *284:19 *472:14 0.000144554
13 *2045:A *1957:B 9.41642e-05
14 *2045:A *2045:C 9.60875e-05
*RES
1 *1947:X *284:4 9.3 
2 *284:4 *1948:B 13.0321 
3 *284:4 *284:19 10.9464 
4 *284:19 *2045:C 10.2464 
5 *284:19 *1957:B 10.6571 
*END

*D_NET *285 0.00120317
*CONN
*I *1949:C I *D sky130_fd_sc_hd__and3_1
*I *1950:C I *D sky130_fd_sc_hd__and3b_1
*I *1948:Y O *D sky130_fd_sc_hd__nor2_1
*CAP
1 *1949:C 0
2 *1950:C 8.40695e-05
3 *1948:Y 0.000156241
4 *285:12 0.00024031
5 *1950:C *286:12 0.000100831
6 *1950:C *472:55 6.75203e-05
7 *1950:C *651:72 1.76039e-05
8 *285:12 *335:14 7.72916e-05
9 *285:12 *465:171 0
10 *285:12 *472:55 0.000255215
11 *2045:B *285:12 3.32631e-05
12 *170:70 *285:12 8.71047e-05
13 *273:42 *1950:C 2.35082e-05
14 *273:42 *285:12 6.02138e-05
*RES
1 *1948:Y *285:12 22.9964 
2 *285:12 *1950:C 20.3179 
3 *285:12 *1949:C 9.3 
*END

*D_NET *286 0.0140381
*CONN
*I *2094:A I *D sky130_fd_sc_hd__or4_1
*I *2157:B1 I *D sky130_fd_sc_hd__o21a_1
*I *2163:A3 I *D sky130_fd_sc_hd__a32o_1
*I *2090:C_N I *D sky130_fd_sc_hd__or3b_1
*I *1951:A I *D sky130_fd_sc_hd__or2_2
*I *2007:B1 I *D sky130_fd_sc_hd__o221a_1
*I *1949:X O *D sky130_fd_sc_hd__and3_1
*CAP
1 *2094:A 0.000278306
2 *2157:B1 0.000440646
3 *2163:A3 2.03441e-05
4 *2090:C_N 0.000173807
5 *1951:A 5.64418e-05
6 *2007:B1 0.000601483
7 *1949:X 3.92213e-05
8 *286:69 0.00106726
9 *286:63 0.00107422
10 *286:46 0.00149886
11 *286:12 0.0012343
12 *286:8 0.00175101
13 *1951:A *1995:B 2.37761e-05
14 *1951:A *287:25 0
15 *2007:B1 *2007:B2 3.18676e-05
16 *2007:B1 *2007:C1 1.94879e-05
17 *2007:B1 *2072:A 0
18 *2007:B1 *287:25 0
19 *2007:B1 *488:37 0.000532305
20 *2007:B1 *490:65 0
21 *2007:B1 *490:67 0
22 *2007:B1 *609:29 0
23 *2090:C_N *2081:A3 0.000100823
24 *2090:C_N *2084:B 9.90367e-05
25 *2090:C_N *2085:B 2.26424e-05
26 *2090:C_N *2162:A_N 5.52238e-05
27 *2090:C_N *554:32 2.14474e-05
28 *2090:C_N *554:44 0.000148189
29 *2090:C_N *601:16 0.00012401
30 *2090:C_N *601:36 6.66939e-05
31 *2090:C_N *615:156 1.08359e-05
32 *2090:C_N *621:197 2.28598e-05
33 *2094:A *2003:A1 2.19651e-06
34 *2094:A *2160:B 8.2958e-06
35 *2094:A *316:16 1.04232e-05
36 *2094:A *316:28 7.89037e-05
37 *2094:A *319:10 0.000418974
38 *2094:A *319:76 0.000337374
39 *2094:A *546:31 1.76135e-05
40 *2094:A *554:123 1.56144e-05
41 *2157:B1 *2163:B1 2.39852e-05
42 *286:12 *1950:B 5.03694e-05
43 *286:12 *1995:B 3.57163e-05
44 *286:12 *2153:A1 0
45 *286:12 *2153:B1 4.02462e-05
46 *286:12 *287:25 0
47 *286:12 *621:34 0
48 *286:12 *651:55 2.50217e-05
49 *286:12 *651:72 7.80714e-06
50 *286:12 *651:81 0
51 *286:46 *2167:B1 6.95627e-05
52 *286:46 *2168:A2 0.000313435
53 *286:46 *2341:CLK 9.26283e-05
54 *286:46 *601:16 1.58163e-05
55 *286:46 *648:40 0.000220223
56 *286:46 *649:45 0.00024426
57 *286:46 *651:55 0
58 *286:63 *2160:C 2.59355e-05
59 *286:63 *601:16 4.85033e-05
60 *286:69 *2159:A1 4.87854e-05
61 *286:69 *2159:B1 0.0010122
62 *286:69 *2164:B1 4.69993e-05
63 *286:69 *319:10 0.000103253
64 *286:69 *546:31 4.50502e-05
65 *1950:C *286:12 0.000100831
66 *1957:A *2094:A 0.000213364
67 *2007:A2 *2007:B1 5.71472e-05
68 *2160:A *2094:A 0.000267814
69 *2163:A1 *2157:B1 3.86208e-05
70 *2163:A1 *2163:A3 5.7661e-06
71 *2163:B2 *2157:B1 8.85532e-05
72 *2168:A1 *286:46 2.30116e-06
73 *2340:D *286:69 5.71472e-05
74 *2341:D *286:46 5.7298e-05
75 *170:70 *286:12 0
76 *170:70 *286:46 5.77102e-05
77 *271:16 *286:46 1.18881e-05
78 *271:64 *2094:A 0.000114759
79 *273:42 *286:8 5.52302e-05
80 *282:10 *2157:B1 3.53387e-05
*RES
1 *1949:X *286:8 14.3357 
2 *286:8 *286:12 10.375 
3 *286:12 *2007:B1 32.0857 
4 *286:12 *1951:A 14.8357 
5 *286:8 *286:46 22.7143 
6 *286:46 *2090:C_N 23.6214 
7 *286:46 *286:63 6.67857 
8 *286:63 *286:69 17.875 
9 *286:69 *2163:A3 9.72857 
10 *286:69 *2157:B1 15.1036 
11 *286:63 *2094:A 24.3714 
*END

*D_NET *287 0.00320357
*CONN
*I *2153:A1 I *D sky130_fd_sc_hd__o211a_1
*I *2008:B1 I *D sky130_fd_sc_hd__o221a_1
*I *1951:B I *D sky130_fd_sc_hd__or2_2
*I *2151:A I *D sky130_fd_sc_hd__nor2_1
*I *1950:X O *D sky130_fd_sc_hd__and3b_1
*CAP
1 *2153:A1 0.000153129
2 *2008:B1 8.86982e-05
3 *1951:B 2.44429e-05
4 *2151:A 0.000156928
5 *1950:X 0
6 *287:25 0.000547364
7 *287:21 0.000708761
8 *287:4 0.000278336
9 *1951:B *655:DIODE 5.71472e-05
10 *1951:B *2079:A4 0.00014285
11 *1951:B *360:16 4.58976e-05
12 *2008:B1 *1995:B 0
13 *2008:B1 *2007:C1 9.60337e-06
14 *2008:B1 *609:29 0.000145279
15 *2151:A *1950:B 0.00010096
16 *2151:A *379:10 0.000312215
17 *2151:A *621:34 5.7616e-05
18 *2151:A *651:72 1.02504e-05
19 *2151:A *651:81 4.56437e-05
20 *2153:A1 *2153:B1 7.03293e-05
21 *2153:A1 *288:14 2.88424e-05
22 *2153:A1 *379:8 2.89016e-05
23 *2153:A1 *379:10 2.28598e-05
24 *287:21 *2153:B1 0.000142856
25 *287:21 *379:10 1.54142e-05
26 *287:25 *1995:B 0
27 *287:25 *465:171 0
28 *287:25 *609:29 9.25014e-06
29 *1951:A *287:25 0
30 *2007:B1 *287:25 0
31 *286:12 *2153:A1 0
32 *286:12 *287:25 0
*RES
1 *1950:X *287:4 9.3 
2 *287:4 *2151:A 22.4607 
3 *287:4 *287:21 1.76786 
4 *287:21 *287:25 11.6071 
5 *287:25 *1951:B 15.1571 
6 *287:25 *2008:B1 15.7464 
7 *287:21 *2153:A1 20.6929 
*END

*D_NET *288 0.00245199
*CONN
*I *1957:C I *D sky130_fd_sc_hd__nor3_4
*I *1996:B I *D sky130_fd_sc_hd__nor2_1
*I *2045:D I *D sky130_fd_sc_hd__or4_2
*I *1956:X O *D sky130_fd_sc_hd__or2_1
*CAP
1 *1957:C 0
2 *1996:B 9.29418e-05
3 *2045:D 0
4 *1956:X 0.000391167
5 *288:25 0.000219475
6 *288:14 0.0005177
7 *1996:B *2001:A_N 0
8 *1996:B *316:8 0.000171027
9 *1996:B *414:10 0.00021387
10 *288:14 *2153:B1 0
11 *288:14 *295:101 0.000170955
12 *288:14 *465:171 0.000288557
13 *288:14 *472:55 5.33005e-05
14 *288:25 *472:55 9.71197e-05
15 *1957:B *288:25 2.6269e-05
16 *2045:A *288:14 5.52238e-05
17 *2045:A *288:25 0.000125547
18 *2153:A1 *288:14 2.88424e-05
*RES
1 *1956:X *288:14 25.6036 
2 *288:14 *2045:D 9.3 
3 *288:14 *288:25 2.73214 
4 *288:25 *1996:B 21.1571 
5 *288:25 *1957:C 9.3 
*END

*D_NET *289 0.00925862
*CONN
*I *2056:A I *D sky130_fd_sc_hd__nand3_1
*I *2063:A1 I *D sky130_fd_sc_hd__o21ba_1
*I *2224:A1 I *D sky130_fd_sc_hd__o211a_1
*I *1959:A I *D sky130_fd_sc_hd__inv_2
*I *2057:A I *D sky130_fd_sc_hd__and4_1
*I *1958:X O *D sky130_fd_sc_hd__or4b_4
*CAP
1 *2056:A 3.13685e-05
2 *2063:A1 3.39029e-05
3 *2224:A1 5.82038e-05
4 *1959:A 0
5 *2057:A 0
6 *1958:X 6.29488e-06
7 *289:35 0.00124557
8 *289:27 0.00242481
9 *289:17 0.00144415
10 *289:6 0.000215535
11 *2056:A *345:6 2.59355e-05
12 *2063:A1 *607:53 2.59355e-05
13 *2224:A1 *462:12 0.000186669
14 *2224:A1 *559:34 0.000154027
15 *289:6 *338:10 5.71472e-05
16 *289:6 *498:46 5.71472e-05
17 *289:17 *2057:C 5.51615e-05
18 *289:17 *2058:C 5.33005e-05
19 *289:17 *2097:B 0.000156403
20 *289:17 *334:16 8.73673e-05
21 *289:17 *338:10 0.000186662
22 *289:17 *338:21 4.08637e-05
23 *289:17 *346:6 9.60875e-05
24 *289:17 *498:46 0.000168831
25 *289:27 *2043:B 0
26 *289:27 *2097:B 2.09826e-05
27 *289:27 *332:8 0
28 *289:27 *334:16 3.47641e-06
29 *289:27 *352:16 0
30 *289:27 *465:129 0
31 *289:35 *2055:A 0.000357054
32 *289:35 *2059:A3 3.69047e-06
33 *289:35 *2063:A2 0.000222885
34 *289:35 *2224:A2 0
35 *289:35 *2378:A 0.00018372
36 *289:35 *343:8 3.51442e-05
37 *289:35 *465:129 0
38 *289:35 *559:8 0.000962156
39 *289:35 *559:34 1.21289e-05
40 *289:35 *607:53 0.000198705
41 *2307:D *289:27 0.000447314
42 *170:42 *289:27 0
*RES
1 *1958:X *289:6 9.83571 
2 *289:6 *2057:A 9.3 
3 *289:6 *289:17 10.875 
4 *289:17 *289:27 16.0449 
5 *289:27 *289:35 30.3929 
6 *289:35 *1959:A 9.3 
7 *289:35 *2224:A1 11.8893 
8 *289:27 *2063:A1 14.3357 
9 *289:17 *2056:A 14.3357 
*END

*D_NET *290 0.00899614
*CONN
*I *2057:B I *D sky130_fd_sc_hd__and4_1
*I *1961:A I *D sky130_fd_sc_hd__inv_2
*I *1960:X O *D sky130_fd_sc_hd__or4b_2
*CAP
1 *2057:B 0.000283692
2 *1961:A 0.000849129
3 *1960:X 0
4 *290:12 0.00212344
5 *290:4 0.00155801
6 *1961:A *1976:A2 0
7 *1961:A *471:8 0.000149911
8 *1961:A *471:19 0.000192585
9 *1961:A *471:36 0.00014285
10 *1961:A *488:10 0.000148911
11 *1961:A *488:16 0.00109614
12 *1961:A *542:12 0.000319736
13 *1961:A *542:14 2.28428e-05
14 *1961:A *542:16 0.000149389
15 *1961:A *542:20 6.69626e-05
16 *2057:B *338:10 0.000129595
17 *2057:B *496:41 1.95772e-05
18 *2057:B *613:57 0
19 *2057:B *634:21 7.26591e-05
20 *290:12 *1954:A1 0
21 *290:12 *1960:C 5.33433e-05
22 *290:12 *1964:A 7.83174e-05
23 *290:12 *1976:A2 0
24 *290:12 *1984:A2 0
25 *290:12 *1984:B2 5.61135e-05
26 *290:12 *1987:A1 0
27 *290:12 *1988:A1 0.000148189
28 *290:12 *1988:A2 0.000138806
29 *290:12 *1989:A 0.000195412
30 *290:12 *1991:A1 0.000335208
31 *290:12 *1991:A2 0.000166305
32 *290:12 *2393:A 0
33 *290:12 *295:10 0
34 *290:12 *295:28 0
35 *290:12 *295:43 0
36 *290:12 *295:49 0
37 *290:12 *495:25 0
38 *290:12 *497:41 5.83233e-05
39 *290:12 *541:18 0
40 *290:12 *542:20 4.89407e-05
41 *290:12 *555:10 4.73656e-05
42 *290:12 *555:20 0.000267821
43 *290:12 *634:21 7.65689e-05
*RES
1 *1960:X *290:4 9.3 
2 *290:4 *290:12 31.0804 
3 *290:12 *1961:A 39.4161 
4 *290:4 *2057:B 22.4607 
*END

*D_NET *291 0.022867
*CONN
*I *711:DIODE I *D sky130_fd_sc_hd__diode_2
*I *2390:A I *D sky130_fd_sc_hd__buf_1
*I *2389:A I *D sky130_fd_sc_hd__buf_2
*I *710:DIODE I *D sky130_fd_sc_hd__diode_2
*I *709:DIODE I *D sky130_fd_sc_hd__diode_2
*I *2388:A I *D sky130_fd_sc_hd__clkbuf_2
*I *657:DIODE I *D sky130_fd_sc_hd__diode_2
*I *1963:X O *D sky130_fd_sc_hd__and2b_1
*CAP
1 *711:DIODE 4.80778e-05
2 *2390:A 0.000201275
3 *2389:A 0.000181702
4 *710:DIODE 0
5 *709:DIODE 2.51012e-05
6 *2388:A 4.7994e-05
7 *657:DIODE 0
8 *1963:X 7.67676e-05
9 *291:99 0.000544946
10 *291:95 0.003186
11 *291:72 0.0031232
12 *291:63 0.00109912
13 *291:33 0.000737831
14 *291:29 0.0022449
15 *291:17 0.00355371
16 *291:6 0.00100229
17 *709:DIODE *2253:A 4.38128e-05
18 *711:DIODE *490:65 5.39166e-06
19 *2388:A *2253:A 6.82605e-05
20 *2389:A *1971:C 1.52978e-05
21 *2389:A *488:16 0
22 *2390:A *1995:B 4.1331e-06
23 *2390:A *2007:C1 4.1331e-06
24 *2390:A *609:29 0
25 *2390:A *621:34 0
26 *291:17 *2262:A 0.000536795
27 *291:17 *618:24 0
28 *291:17 *619:23 0.000115474
29 *291:29 *1946:B1_N 0.000317609
30 *291:29 *1953:A2 5.42961e-05
31 *291:29 *1953:B1_N 0.00012401
32 *291:29 *2262:A 0.000627382
33 *291:29 *2312:CLK 0
34 *291:29 *2314:D 3.85567e-05
35 *291:29 *2363:D 4.82069e-05
36 *291:29 *470:12 0.000353909
37 *291:29 *470:18 0.000132198
38 *291:29 *470:22 2.97788e-05
39 *291:29 *470:37 0
40 *291:29 *470:39 0
41 *291:29 *470:92 0.000173797
42 *291:29 *470:139 0.000173804
43 *291:29 *475:12 0
44 *291:29 *615:60 0
45 *291:29 *618:24 0
46 *291:29 *635:40 0
47 *291:33 *2226:A1 0.000251915
48 *291:33 *2226:B1 7.80714e-06
49 *291:33 *2311:CLK 0.000238468
50 *291:33 *2425:A 0
51 *291:33 *635:19 0.000372323
52 *291:33 *635:40 0.000485345
53 *291:63 *2173:C 0.000226339
54 *291:63 *2174:A 5.33005e-05
55 *291:63 *2184:B1 2.79421e-05
56 *291:63 *2345:CLK 3.69047e-06
57 *291:63 *432:12 5.52238e-05
58 *291:63 *479:53 4.43256e-05
59 *291:63 *487:32 1.84407e-05
60 *291:63 *603:53 9.74668e-05
61 *291:72 *603:53 3.14078e-05
62 *291:95 *1980:A 3.25078e-05
63 *291:95 *2197:B 1.02504e-05
64 *291:95 *2200:B1 1.58163e-05
65 *291:95 *2204:A_N 0.000120439
66 *291:95 *2204:B 3.82227e-06
67 *291:95 *2205:A2 2.26714e-05
68 *291:95 *473:24 3.14048e-05
69 *291:95 *488:16 0
70 *291:95 *488:63 0.000148105
71 *291:95 *603:47 0.000186662
72 *291:95 *604:33 0.000177149
73 *291:95 *604:35 0.000160622
74 *291:99 *2213:A 5.7616e-05
75 *291:99 *2386:A 0
76 *291:99 *603:16 0.000482021
77 *291:99 *605:25 0
78 *291:99 *621:34 0
79 *726:DIODE *291:17 1.03968e-05
80 *1963:B *291:6 2.55587e-05
81 *1963:B *291:17 4.0342e-06
82 *2270:D *291:63 4.37731e-05
83 *2345:D *291:63 6.64907e-05
84 *2355:D *291:99 5.12199e-05
85 *2362:D *291:33 4.51198e-05
86 *2414:A *291:29 0.000317587
87 *163:18 *2389:A 0
88 *163:18 *291:95 0
89 *281:35 *2390:A 0
*RES
1 *1963:X *291:6 10.2464 
2 *291:6 *657:DIODE 9.3 
3 *291:6 *291:17 19.9286 
4 *291:17 *291:29 35.4732 
5 *291:29 *291:33 20.8661 
6 *291:33 *2388:A 10.2464 
7 *291:33 *709:DIODE 9.83571 
8 *291:17 *291:63 20.25 
9 *291:63 *710:DIODE 9.3 
10 *291:63 *291:72 5.44643 
11 *291:72 *2389:A 16.6571 
12 *291:72 *291:95 48.9821 
13 *291:95 *291:99 11.9107 
14 *291:99 *2390:A 17.2643 
15 *291:99 *711:DIODE 14.3357 
*END

*D_NET *292 0.00545328
*CONN
*I *1978:A2 I *D sky130_fd_sc_hd__a22o_1
*I *1969:A2 I *D sky130_fd_sc_hd__a22o_1
*I *1987:A2 I *D sky130_fd_sc_hd__a22o_1
*I *1984:A2 I *D sky130_fd_sc_hd__a22o_1
*I *1990:A2 I *D sky130_fd_sc_hd__a22o_1
*I *1975:A2 I *D sky130_fd_sc_hd__a22o_1
*I *1972:A2 I *D sky130_fd_sc_hd__a22o_1
*I *1964:Y O *D sky130_fd_sc_hd__nor2_2
*CAP
1 *1978:A2 1.64323e-05
2 *1969:A2 1.99167e-05
3 *1987:A2 0
4 *1984:A2 0.000257986
5 *1990:A2 2.23854e-05
6 *1975:A2 1.63023e-05
7 *1972:A2 0.000123483
8 *1964:Y 0.000262174
9 *292:59 0.000455291
10 *292:44 0.000409183
11 *292:31 0.000219831
12 *292:18 0.000250428
13 *292:16 0.000292765
14 *292:10 0.000438545
15 *1969:A2 *1954:A1 5.33433e-05
16 *1969:A2 *1969:A1 9.90431e-05
17 *1972:A2 *1969:A1 4.07643e-05
18 *1972:A2 *295:28 6.63476e-05
19 *1972:A2 *640:25 7.40992e-05
20 *1975:A2 *2035:A 0
21 *1978:A2 *1978:A1 9.90431e-05
22 *1978:A2 *556:48 9.90431e-05
23 *1984:A2 *1985:A2 0
24 *1984:A2 *1987:A1 1.02504e-05
25 *1984:A2 *1988:A2 0.000145584
26 *1984:A2 *555:20 1.91512e-05
27 *1984:A2 *613:23 1.41029e-05
28 *1984:A2 *635:40 9.28838e-05
29 *1984:A2 *635:50 2.78584e-05
30 *1990:A2 *650:58 0
31 *292:10 *1970:A2 0.000117196
32 *292:10 *1981:A1 0.000268403
33 *292:16 *1970:A2 0.00015234
34 *292:16 *1973:A2 1.4403e-05
35 *292:16 *295:20 0
36 *292:18 *1969:A1 0.000162832
37 *292:18 *1973:A2 1.00375e-05
38 *292:18 *295:24 0
39 *292:18 *295:28 1.97381e-05
40 *292:31 *1975:A1 2.89114e-05
41 *292:31 *2339:CLK 5.52302e-05
42 *292:44 *1975:A1 3.18676e-05
43 *292:44 *1976:A2 0.000122284
44 *292:44 *2035:A 0
45 *292:44 *2339:CLK 0.000140625
46 *292:44 *650:58 0.000211229
47 *292:59 *1987:A1 0.000239769
48 *292:59 *1990:B1 3.92854e-05
49 *292:59 *555:10 0.000106841
50 *292:59 *555:20 4.3419e-05
51 *292:59 *650:58 6.26276e-05
52 *290:12 *1984:A2 0
*RES
1 *1964:Y *292:10 18.0321 
2 *292:10 *292:16 3.51786 
3 *292:16 *292:18 2.55357 
4 *292:18 *1972:A2 16.3536 
5 *292:18 *292:31 5.03571 
6 *292:31 *1975:A2 9.72857 
7 *292:31 *292:44 5.5 
8 *292:44 *1990:A2 9.72857 
9 *292:44 *292:59 9.55357 
10 *292:59 *1984:A2 19.8536 
11 *292:59 *1987:A2 13.8 
12 *292:16 *1969:A2 14.7464 
13 *292:10 *1978:A2 14.7464 
*END

*D_NET *293 0.0018367
*CONN
*I *2393:A I *D sky130_fd_sc_hd__clkbuf_2
*I *1965:Y O *D sky130_fd_sc_hd__nor2_1
*CAP
1 *2393:A 0.000292493
2 *1965:Y 0.000292493
3 *2393:A *659:DIODE 0.000102545
4 *2393:A *1954:A1 2.94103e-05
5 *2393:A *1965:B 0.000227532
6 *2393:A *1967:A 3.07555e-05
7 *2393:A *1985:A2 0.000572021
8 *2393:A *1987:A1 2.26327e-05
9 *2393:A *295:10 3.92854e-05
10 *2393:A *608:20 0.000227532
11 *290:12 *2393:A 0
*RES
1 *1965:Y *2393:A 37.1893 
*END

*D_NET *294 0.00031108
*CONN
*I *1970:A1 I *D sky130_fd_sc_hd__o21a_1
*I *1966:X O *D sky130_fd_sc_hd__and3_1
*CAP
1 *1970:A1 9.42636e-05
2 *1966:X 9.42636e-05
3 *1970:A1 *1964:B 5.56943e-05
4 *1970:A1 *1973:A2 3.79467e-05
5 *1970:A1 *1981:A1 2.89114e-05
*RES
1 *1966:X *1970:A1 29.9036 
*END

*D_NET *295 0.0161647
*CONN
*I *2005:B1 I *D sky130_fd_sc_hd__a22o_1
*I *2003:B1 I *D sky130_fd_sc_hd__a22o_1
*I *1978:B1 I *D sky130_fd_sc_hd__a22o_1
*I *1969:B1 I *D sky130_fd_sc_hd__a22o_1
*I *1975:B1 I *D sky130_fd_sc_hd__a22o_1
*I *1984:B1 I *D sky130_fd_sc_hd__a22o_1
*I *1986:B I *D sky130_fd_sc_hd__and2_1
*I *1989:B I *D sky130_fd_sc_hd__and2_1
*I *1972:B1 I *D sky130_fd_sc_hd__a22o_1
*I *1967:Y O *D sky130_fd_sc_hd__nor2_2
*CAP
1 *2005:B1 0
2 *2003:B1 0.000141526
3 *1978:B1 0
4 *1969:B1 2.76557e-05
5 *1975:B1 0
6 *1984:B1 0.000188117
7 *1986:B 6.94464e-05
8 *1989:B 0
9 *1972:B1 1.32395e-05
10 *1967:Y 5.35155e-05
11 *295:101 0.0022016
12 *295:49 0.000238003
13 *295:43 0.000650467
14 *295:28 0.000490625
15 *295:24 0.000359416
16 *295:20 0.000324488
17 *295:16 0.000491843
18 *295:10 0.00248442
19 *1969:B1 *1954:A1 2.89016e-05
20 *1972:B1 *555:20 2.44318e-05
21 *1984:B1 *1984:B2 5.52238e-05
22 *1984:B1 *1988:A1 0.00022266
23 *1984:B1 *635:40 3.82839e-05
24 *1986:B *1988:A1 9.90367e-05
25 *1986:B *1989:A 8.66063e-05
26 *2003:B1 *2004:A 0
27 *2003:B1 *361:18 0.000218019
28 *2003:B1 *613:135 2.8266e-06
29 *295:16 *1978:B2 0.000484257
30 *295:16 *1979:A2 6.05161e-06
31 *295:16 *556:48 6.35941e-05
32 *295:20 *1976:A2 0.00022117
33 *295:24 *1976:A2 0.000126439
34 *295:28 *1991:A2 0
35 *295:43 *1972:A1 5.7661e-06
36 *295:43 *1972:B2 0.00011262
37 *295:43 *1988:B1 0
38 *295:43 *1991:A1 7.63851e-05
39 *295:43 *1991:A2 7.6021e-05
40 *295:43 *555:20 0.000230475
41 *295:43 *640:25 0
42 *295:49 *1989:A 5.33005e-05
43 *295:49 *1991:A1 9.97187e-05
44 *295:49 *640:25 0
45 *295:101 *1956:A 4.72917e-05
46 *295:101 *1956:B 0.000128496
47 *295:101 *1978:B2 0.00272777
48 *295:101 *2000:A2 0.000161901
49 *295:101 *2005:A1 6.87146e-05
50 *295:101 *2005:B2 0.000665667
51 *295:101 *465:178 5.33433e-05
52 *295:101 *465:191 0.000308538
53 *295:101 *472:10 0.000334483
54 *295:101 *472:114 0.000334473
55 *295:101 *613:124 0.000132622
56 *295:101 *652:6 3.48705e-05
57 *295:101 *652:10 0.000168179
58 *295:101 *652:17 0.00047119
59 *1972:A2 *295:28 6.63476e-05
60 *2393:A *295:10 3.92854e-05
61 *59:21 *1986:B 6.87673e-05
62 *59:21 *295:49 6.73733e-05
63 *273:42 *1972:B1 1.92789e-05
64 *273:42 *295:43 9.22103e-06
65 *288:14 *295:101 0.000170955
66 *290:12 *295:10 0
67 *290:12 *295:28 0
68 *290:12 *295:43 0
69 *290:12 *295:49 0
70 *292:16 *295:20 0
71 *292:18 *295:24 0
72 *292:18 *295:28 1.97381e-05
*RES
1 *1967:Y *295:10 19.3357 
2 *295:10 *295:16 5.91071 
3 *295:16 *295:20 7.35714 
4 *295:20 *295:24 2.89286 
5 *295:24 *295:28 7.66071 
6 *295:28 *1972:B1 9.83571 
7 *295:28 *295:43 12.0893 
8 *295:43 *295:49 8.21429 
9 *295:49 *1989:B 9.3 
10 *295:49 *1986:B 11.4786 
11 *295:43 *1984:B1 17.2107 
12 *295:24 *1975:B1 13.8 
13 *295:20 *1969:B1 14.3357 
14 *295:16 *1978:B1 9.3 
15 *295:10 *295:101 48.25 
16 *295:101 *2003:B1 21.1571 
17 *295:101 *2005:B1 9.3 
*END

*D_NET *296 0.00780565
*CONN
*I *2000:A1 I *D sky130_fd_sc_hd__o211a_1
*I *2007:B2 I *D sky130_fd_sc_hd__o221a_1
*I *2008:B2 I *D sky130_fd_sc_hd__o221a_1
*I *1982:A2 I *D sky130_fd_sc_hd__o211a_1
*I *1993:A2 I *D sky130_fd_sc_hd__o211a_1
*I *1968:X O *D sky130_fd_sc_hd__or2_2
*CAP
1 *2000:A1 0
2 *2007:B2 0.000278504
3 *2008:B2 4.69306e-05
4 *1982:A2 0.000132763
5 *1993:A2 2.50456e-05
6 *1968:X 0.000174027
7 *296:48 0.000862167
8 *296:40 0.000835818
9 *296:15 0.0006312
10 *296:6 0.000398423
11 *1982:A2 *1982:A1 0.00013478
12 *1982:A2 *1982:B1 3.93346e-05
13 *1982:A2 *1999:A1 0.000111815
14 *1982:A2 *608:37 1.39726e-05
15 *1982:A2 *620:18 0.00022117
16 *1993:A2 *1993:B1 9.35228e-06
17 *2007:B2 *2007:C1 2.89016e-05
18 *2007:B2 *2008:A1 1.90469e-05
19 *2008:B2 *2008:A1 5.33368e-06
20 *296:6 *1981:B2 9.15975e-05
21 *296:6 *1982:B1 0.000358971
22 *296:6 *1993:B1 7.43578e-06
23 *296:6 *488:37 8.87196e-05
24 *296:15 *1993:B1 2.89016e-05
25 *296:15 *2073:A 2.89016e-05
26 *296:15 *488:37 0.000408172
27 *296:40 *2000:B1 0.000354098
28 *296:40 *2073:A 7.02611e-05
29 *296:40 *2073:B 0
30 *296:40 *2073:C 1.02936e-05
31 *296:40 *360:16 0.00019384
32 *296:40 *488:37 0.000343591
33 *296:40 *560:10 0.000102197
34 *296:48 *2000:A2 5.41794e-05
35 *296:48 *2000:B1 9.60939e-05
36 *296:48 *314:8 0.000188586
37 *296:48 *430:10 5.58941e-05
38 *1981:A2 *296:6 5.33005e-05
39 *2007:A2 *2007:B2 6.25993e-05
40 *2007:B1 *2007:B2 3.18676e-05
41 *280:25 *296:6 0.00026839
42 *280:38 *296:6 0.000194629
43 *280:51 *296:6 9.77274e-05
44 *280:85 *2008:B2 5.52302e-05
45 *280:85 *296:40 0.000354098
46 *280:85 *296:48 0.000237494
*RES
1 *1968:X *296:6 16.8179 
2 *296:6 *1993:A2 9.72857 
3 *296:6 *296:15 5.05357 
4 *296:15 *1982:A2 22.5321 
5 *296:15 *296:40 18.375 
6 *296:40 *296:48 16.8393 
7 *296:48 *2008:B2 10.5679 
8 *296:48 *2007:B2 13.4429 
9 *296:40 *2000:A1 9.3 
*END

*D_NET *297 0.000645589
*CONN
*I *1970:A2 I *D sky130_fd_sc_hd__o21a_1
*I *1969:X O *D sky130_fd_sc_hd__a22o_1
*CAP
1 *1970:A2 0.000130019
2 *1969:X 0.000130019
3 *1970:A2 *1964:B 5.80706e-06
4 *1970:A2 *1973:A2 0.000110208
5 *1970:A2 *1979:A2 0
6 *292:10 *1970:A2 0.000117196
7 *292:16 *1970:A2 0.00015234
*RES
1 *1969:X *1970:A2 31.6714 
*END

*D_NET *298 0.000152096
*CONN
*I *1973:A1 I *D sky130_fd_sc_hd__o21a_1
*I *1971:X O *D sky130_fd_sc_hd__and3_1
*CAP
1 *1973:A1 4.55496e-05
2 *1971:X 4.55496e-05
3 *1973:A1 *1971:B 5.7661e-06
4 *1973:A1 *1973:B1 5.52302e-05
*RES
1 *1971:X *1973:A1 19.5643 
*END

*D_NET *299 0.00386682
*CONN
*I *1973:A2 I *D sky130_fd_sc_hd__o21a_1
*I *1972:X O *D sky130_fd_sc_hd__a22o_1
*CAP
1 *1973:A2 0.000640359
2 *1972:X 0.000640359
3 *1973:A2 *1964:B 0
4 *1973:A2 *1966:A 0.000750422
5 *1973:A2 *1969:A1 6.34175e-05
6 *1973:A2 *2035:C 0.000125724
7 *1973:A2 *465:64 0
8 *1973:A2 *608:65 0.000118339
9 *1973:A2 *608:71 0.000296076
10 *1973:A2 *640:25 7.83659e-05
11 *1970:A1 *1973:A2 3.79467e-05
12 *1970:A2 *1973:A2 0.000110208
13 *163:18 *1973:A2 0.000800217
14 *273:28 *1973:A2 0.000180948
15 *292:16 *1973:A2 1.4403e-05
16 *292:18 *1973:A2 1.00375e-05
*RES
1 *1972:X *1973:A2 49.5107 
*END

*D_NET *300 0.000119455
*CONN
*I *1976:A1 I *D sky130_fd_sc_hd__o21a_1
*I *1974:X O *D sky130_fd_sc_hd__and3_1
*CAP
1 *1976:A1 4.37938e-05
2 *1974:X 4.37938e-05
3 *1976:A1 *1974:A 3.18676e-05
*RES
1 *1974:X *1976:A1 19.5643 
*END

*D_NET *301 0.00326791
*CONN
*I *1976:A2 I *D sky130_fd_sc_hd__o21a_1
*I *1975:X O *D sky130_fd_sc_hd__a22o_1
*CAP
1 *1976:A2 0.00107252
2 *1975:X 0.00107252
3 *1976:A2 *1964:A 0
4 *1976:A2 *1975:A1 0.000139907
5 *1976:A2 *1979:A2 0.000310307
6 *1976:A2 *488:16 0
7 *1976:A2 *608:10 2.8266e-06
8 *1976:A2 *608:12 0.000134889
9 *1976:A2 *608:14 5.72433e-05
10 *1976:A2 *608:20 7.79781e-06
11 *1961:A *1976:A2 0
12 *290:12 *1976:A2 0
13 *292:44 *1976:A2 0.000122284
14 *295:20 *1976:A2 0.00022117
15 *295:24 *1976:A2 0.000126439
*RES
1 *1975:X *1976:A2 46.8143 
*END

*D_NET *302 0.000147343
*CONN
*I *1979:A1 I *D sky130_fd_sc_hd__o21a_1
*I *1977:X O *D sky130_fd_sc_hd__and3_1
*CAP
1 *1979:A1 3.90357e-05
2 *1977:X 3.90357e-05
3 *1979:A1 *1966:B 5.52302e-05
4 *1979:A1 *1977:C 1.40415e-05
5 *1979:A1 *488:37 0
*RES
1 *1977:X *1979:A1 19.5643 
*END

*D_NET *303 0.00110737
*CONN
*I *1979:A2 I *D sky130_fd_sc_hd__o21a_1
*I *1978:X O *D sky130_fd_sc_hd__a22o_1
*CAP
1 *1979:A2 0.000272884
2 *1978:X 0.000272884
3 *1979:A2 *1964:B 2.78822e-05
4 *1979:A2 *1978:A1 0.000142856
5 *1979:A2 *556:48 1.02821e-05
6 *1979:A2 *608:20 6.42242e-05
7 *1970:A2 *1979:A2 0
8 *1976:A2 *1979:A2 0.000310307
9 *295:16 *1979:A2 6.05161e-06
*RES
1 *1978:X *1979:A2 33.4393 
*END

*D_NET *304 0.000608044
*CONN
*I *1981:B2 I *D sky130_fd_sc_hd__a22o_1
*I *1980:X O *D sky130_fd_sc_hd__or2_1
*CAP
1 *1981:B2 0.000182051
2 *1980:X 0.000182051
3 *1981:A2 *1981:B2 5.33005e-05
4 *280:38 *1981:B2 9.90431e-05
5 *296:6 *1981:B2 9.15975e-05
*RES
1 *1980:X *1981:B2 22.0286 
*END

*D_NET *305 0.00206623
*CONN
*I *1982:B1 I *D sky130_fd_sc_hd__o211a_1
*I *1981:X O *D sky130_fd_sc_hd__a22o_1
*CAP
1 *1982:B1 0.000412498
2 *1981:X 0.000412498
3 *1982:B1 *1982:A1 1.55885e-05
4 *1982:B1 *1982:C1 1.97695e-05
5 *1982:B1 *1987:B2 0
6 *1982:B1 *1993:A1 0
7 *1982:B1 *488:37 0.000358971
8 *1982:B1 *608:20 0.000146533
9 *1982:B1 *608:37 0.000302063
10 *1982:A2 *1982:B1 3.93346e-05
11 *296:6 *1982:B1 0.000358971
*RES
1 *1981:X *1982:B1 39.2607 
*END

*D_NET *306 0.000179504
*CONN
*I *1985:A1 I *D sky130_fd_sc_hd__o21a_1
*I *1983:X O *D sky130_fd_sc_hd__and3_1
*CAP
1 *1985:A1 7.74708e-05
2 *1983:X 7.74708e-05
3 *1985:A1 *560:36 1.21258e-05
4 *281:14 *1985:A1 1.24368e-05
*RES
1 *1983:X *1985:A1 19.9929 
*END

*D_NET *307 0.00322455
*CONN
*I *1985:A2 I *D sky130_fd_sc_hd__o21a_1
*I *1984:X O *D sky130_fd_sc_hd__a22o_1
*CAP
1 *1985:A2 0.00096579
2 *1984:X 0.00096579
3 *1985:A2 *659:DIODE 4.43142e-05
4 *1985:A2 *1967:A 2.83916e-05
5 *1985:A2 *541:12 0.000168939
6 *1985:A2 *541:18 1.69265e-05
7 *1985:A2 *542:82 7.60162e-05
8 *1985:A2 *560:36 5.52302e-05
9 *1985:A2 *613:23 8.9163e-05
10 *1985:A2 *613:57 0
11 *1985:A2 *614:48 4.64179e-05
12 *1985:A2 *634:63 0
13 *1985:A2 *650:58 0.000195555
14 *1965:A *1985:A2 0
15 *1984:A2 *1985:A2 0
16 *2339:D *1985:A2 0
17 *2393:A *1985:A2 0.000572021
*RES
1 *1984:X *1985:A2 47.85 
*END

*D_NET *308 0.00121285
*CONN
*I *1988:A1 I *D sky130_fd_sc_hd__o21a_1
*I *1986:X O *D sky130_fd_sc_hd__and2_1
*CAP
1 *1988:A1 0.000153822
2 *1986:X 0.000153822
3 *1988:A1 *1984:B2 7.2754e-05
4 *1988:A1 *635:40 0.000265447
5 *1984:B1 *1988:A1 0.00022266
6 *1986:B *1988:A1 9.90367e-05
7 *59:21 *1988:A1 9.71197e-05
8 *290:12 *1988:A1 0.000148189
*RES
1 *1986:X *1988:A1 33.0821 
*END

*D_NET *309 0.00119223
*CONN
*I *1988:A2 I *D sky130_fd_sc_hd__o21a_1
*I *1987:X O *D sky130_fd_sc_hd__a22o_1
*CAP
1 *1988:A2 0.000354664
2 *1987:X 0.000354664
3 *1988:A2 *555:20 9.25014e-06
4 *1988:A2 *635:40 0.000189266
5 *1984:A2 *1988:A2 0.000145584
6 *290:12 *1988:A2 0.000138806
*RES
1 *1987:X *1988:A2 34.475 
*END

*D_NET *310 0.000869896
*CONN
*I *1991:A1 I *D sky130_fd_sc_hd__o21a_1
*I *1989:X O *D sky130_fd_sc_hd__and2_1
*CAP
1 *1991:A1 0.00015168
2 *1989:X 0.00015168
3 *59:21 *1991:A1 5.52238e-05
4 *290:12 *1991:A1 0.000335208
5 *295:43 *1991:A1 7.63851e-05
6 *295:49 *1991:A1 9.97187e-05
*RES
1 *1989:X *1991:A1 32.5107 
*END

*D_NET *311 0.000561537
*CONN
*I *1991:A2 I *D sky130_fd_sc_hd__o21a_1
*I *1990:X O *D sky130_fd_sc_hd__a22o_1
*CAP
1 *1991:A2 0.000159606
2 *1990:X 0.000159606
3 *290:12 *1991:A2 0.000166305
4 *295:28 *1991:A2 0
5 *295:43 *1991:A2 7.6021e-05
*RES
1 *1990:X *1991:A2 31.6714 
*END

*D_NET *312 0.000461575
*CONN
*I *1993:B1 I *D sky130_fd_sc_hd__o211a_1
*I *1992:X O *D sky130_fd_sc_hd__a21o_1
*CAP
1 *1993:B1 0.000154104
2 *1992:X 0.000154104
3 *1993:B1 *560:20 4.34543e-05
4 *1993:A2 *1993:B1 9.35228e-06
5 *164:16 *1993:B1 0
6 *280:51 *1993:B1 6.42242e-05
7 *296:6 *1993:B1 7.43578e-06
8 *296:15 *1993:B1 2.89016e-05
*RES
1 *1992:X *1993:B1 30.6357 
*END

*D_NET *313 0.000821814
*CONN
*I *1994:B1 I *D sky130_fd_sc_hd__o21a_1
*I *1993:X O *D sky130_fd_sc_hd__o211a_1
*CAP
1 *1994:B1 0.000222284
2 *1993:X 0.000222284
3 *1994:B1 *1980:A 0.000128154
4 *1994:B1 *1990:B2 0
5 *280:38 *1994:B1 0.000138881
6 *280:51 *1994:B1 0.00010096
7 *281:35 *1994:B1 9.25014e-06
*RES
1 *1993:X *1994:B1 31.4214 
*END

*D_NET *314 0.00147371
*CONN
*I *2008:C1 I *D sky130_fd_sc_hd__o221a_1
*I *2007:C1 I *D sky130_fd_sc_hd__o221a_1
*I *1995:X O *D sky130_fd_sc_hd__and2_1
*CAP
1 *2008:C1 0
2 *2007:C1 0.000483868
3 *1995:X 4.84e-05
4 *314:8 0.000532268
5 *2007:C1 *1995:B 0
6 *2007:A2 *2007:C1 5.33005e-05
7 *2007:B1 *2007:C1 1.94879e-05
8 *2007:B2 *2007:C1 2.89016e-05
9 *2008:B1 *2007:C1 9.60337e-06
10 *2390:A *2007:C1 4.1331e-06
11 *280:85 *314:8 0.000105163
12 *296:48 *314:8 0.000188586
*RES
1 *1995:X *314:8 11.4964 
2 *314:8 *2007:C1 26.8328 
3 *314:8 *2008:C1 9.3 
*END

*D_NET *315 0.00122867
*CONN
*I *2001:B I *D sky130_fd_sc_hd__and3b_2
*I *1997:C I *D sky130_fd_sc_hd__and3b_1
*I *1996:Y O *D sky130_fd_sc_hd__nor2_1
*CAP
1 *2001:B 0.000269728
2 *1997:C 0
3 *1996:Y 8.83769e-05
4 *315:6 0.000358104
5 *2001:B *2081:A3 0.000100688
6 *2001:B *615:156 0.000102403
7 *2001:B *649:29 0.000101997
8 *2001:B *649:33 0.000105163
9 *315:6 *649:33 0.000102207
*RES
1 *1996:Y *315:6 11.0679 
2 *315:6 *1997:C 9.3 
3 *315:6 *2001:B 23.5857 
*END

*D_NET *316 0.0110551
*CONN
*I *2000:A2 I *D sky130_fd_sc_hd__o211a_1
*I *2094:C I *D sky130_fd_sc_hd__or4_1
*I *2163:B1 I *D sky130_fd_sc_hd__a32o_1
*I *2089:D_N I *D sky130_fd_sc_hd__or4b_1
*I *2158:A2 I *D sky130_fd_sc_hd__a221o_1
*I *1997:X O *D sky130_fd_sc_hd__and3b_1
*CAP
1 *2000:A2 0.00121581
2 *2094:C 0
3 *2163:B1 4.91042e-05
4 *2089:D_N 9.61093e-05
5 *2158:A2 3.70539e-05
6 *1997:X 0.000208308
7 *316:34 0.000273705
8 *316:28 0.000972756
9 *316:16 0.00109674
10 *316:8 0.00173775
11 *2000:A2 *1956:A 0.000315165
12 *2000:A2 *430:10 0.000232066
13 *2000:A2 *465:171 0
14 *2000:A2 *465:178 9.90431e-05
15 *2000:A2 *465:191 0.000186662
16 *2000:A2 *472:10 0
17 *2000:A2 *615:212 0
18 *2000:A2 *621:34 0.000257239
19 *2000:A2 *652:17 9.16074e-05
20 *2089:D_N *2158:A1 6.06208e-05
21 *2089:D_N *2158:B1 1.24368e-05
22 *2089:D_N *2158:B2 1.28809e-05
23 *2158:A2 *2158:A1 8.1579e-05
24 *2158:A2 *2158:B1 2.57597e-05
25 *316:8 *2001:A_N 0
26 *316:8 *414:10 5.74562e-05
27 *316:8 *472:10 0
28 *316:8 *472:12 0
29 *316:8 *615:156 0
30 *316:8 *615:212 0
31 *316:16 *2003:A1 5.33005e-05
32 *316:16 *2094:B 4.39965e-05
33 *316:16 *319:76 2.84711e-05
34 *316:16 *379:8 0.00053876
35 *316:28 *2003:A1 3.17148e-05
36 *316:28 *2154:A 0.000149911
37 *316:28 *373:10 0
38 *316:28 *554:10 0.000696423
39 *316:28 *613:89 0
40 *316:28 *613:113 0
41 *316:28 *620:62 0.00122743
42 *316:28 *620:66 9.69119e-06
43 *316:28 *621:203 0
44 *316:28 *649:23 0.000217478
45 *316:34 *2158:B1 8.50152e-05
46 *316:34 *2159:A1 5.94737e-05
47 *316:34 *415:10 0
48 *316:34 *415:16 4.29272e-05
49 *316:34 *621:203 0
50 *1957:A *316:28 3.34295e-05
51 *1996:B *316:8 0.000171027
52 *2094:A *316:16 1.04232e-05
53 *2094:A *316:28 7.89037e-05
54 *2154:B *2163:B1 6.91215e-06
55 *2154:B *316:28 0
56 *2154:B *316:34 0
57 *2157:B1 *2163:B1 2.39852e-05
58 *2163:A1 *2163:B1 1.43404e-05
59 *2163:A2 *316:28 0.000195555
60 *295:101 *2000:A2 0.000161901
61 *296:48 *2000:A2 5.41794e-05
*RES
1 *1997:X *316:8 18.175 
2 *316:8 *316:16 11.75 
3 *316:16 *316:28 37.7768 
4 *316:28 *316:34 7.74107 
5 *316:34 *2158:A2 10.6973 
6 *316:34 *2089:D_N 11.4964 
7 *316:28 *2163:B1 14.8536 
8 *316:16 *2094:C 9.3 
9 *316:8 *2000:A2 43.9786 
*END

*D_NET *317 0.000133696
*CONN
*I *1999:B2 I *D sky130_fd_sc_hd__a22o_1
*I *1998:X O *D sky130_fd_sc_hd__or2_1
*CAP
1 *1999:B2 1.1624e-05
2 *1998:X 1.1624e-05
3 *1999:B2 *1999:A1 5.52238e-05
4 *1999:B2 *2073:B 5.52238e-05
*RES
1 *1998:X *1999:B2 19.1357 
*END

*D_NET *318 0.00100128
*CONN
*I *2000:B1 I *D sky130_fd_sc_hd__o211a_1
*I *1999:X O *D sky130_fd_sc_hd__a22o_1
*CAP
1 *2000:B1 0.000224381
2 *1999:X 0.000224381
3 *280:68 *2000:B1 1.97695e-05
4 *280:85 *2000:B1 8.25599e-05
5 *296:40 *2000:B1 0.000354098
6 *296:48 *2000:B1 9.60939e-05
*RES
1 *1999:X *2000:B1 23.6893 
*END

*D_NET *319 0.00991904
*CONN
*I *2003:B2 I *D sky130_fd_sc_hd__a22o_1
*I *2094:D I *D sky130_fd_sc_hd__or4_1
*I *2002:A I *D sky130_fd_sc_hd__inv_2
*I *2076:A2 I *D sky130_fd_sc_hd__a31o_1
*I *2164:A1 I *D sky130_fd_sc_hd__a31o_1
*I *2219:A2 I *D sky130_fd_sc_hd__o21a_1
*I *2001:X O *D sky130_fd_sc_hd__and3b_2
*CAP
1 *2003:B2 0.000172276
2 *2094:D 0
3 *2002:A 0
4 *2076:A2 0.000208873
5 *2164:A1 0.000531591
6 *2219:A2 9.64802e-05
7 *2001:X 2.9238e-05
8 *319:76 0.000467085
9 *319:27 0.00100959
10 *319:12 0.000381223
11 *319:10 0.000507156
12 *319:8 0.000815585
13 *2003:B2 *2003:A1 0.000399193
14 *2003:B2 *2003:A2 5.92264e-05
15 *2076:A2 *2078:A 0.000103855
16 *2076:A2 *361:18 8.71411e-06
17 *2076:A2 *362:8 9.00795e-06
18 *2076:A2 *369:8 7.86084e-05
19 *2076:A2 *554:96 2.82086e-05
20 *2164:A1 *2085:D_N 2.69261e-05
21 *2164:A1 *2092:A2 0.000523464
22 *2164:A1 *2092:B1_N 5.63007e-05
23 *2164:A1 *2156:B1 9.25014e-06
24 *2164:A1 *2161:A3 0
25 *2164:A1 *2164:A3 0.000137224
26 *2164:A1 *2166:C 5.41794e-05
27 *2164:A1 *363:19 5.41794e-05
28 *2164:A1 *367:36 0
29 *2164:A1 *375:12 0.000181796
30 *2164:A1 *540:52 8.85631e-05
31 *2164:A1 *540:69 0.000168939
32 *2164:A1 *554:59 4.02462e-05
33 *2164:A1 *615:177 0
34 *2164:A1 *621:197 0.000523464
35 *2219:A2 *2093:A2 4.57538e-05
36 *2219:A2 *554:44 0.00012401
37 *2219:A2 *554:59 5.52302e-05
38 *319:8 *649:23 5.33005e-05
39 *319:10 *2085:B 0.00011817
40 *319:10 *2090:A 0.000171375
41 *319:10 *2093:A2 4.65826e-05
42 *319:10 *2160:C 0.000216304
43 *319:10 *367:10 2.74584e-05
44 *319:10 *546:31 0
45 *319:10 *554:32 0.000193025
46 *319:10 *554:44 0.000425059
47 *319:12 *2093:A2 2.00751e-05
48 *319:12 *554:44 5.59013e-05
49 *319:27 *2078:A 0.000126572
50 *319:27 *320:6 0.000271345
51 *319:76 *2003:A1 4.43256e-05
52 *319:76 *554:32 0.000130658
53 *319:76 *554:123 3.92854e-05
54 *2094:A *319:10 0.000418974
55 *2094:A *319:76 0.000337374
56 *2219:B1 *2219:A2 9.60939e-05
57 *286:69 *319:10 0.000103253
58 *316:16 *319:76 2.84711e-05
*RES
1 *2001:X *319:8 14.3357 
2 *319:8 *319:10 14.6964 
3 *319:10 *319:12 0.732143 
4 *319:12 *2219:A2 16.3893 
5 *319:12 *319:27 8.32143 
6 *319:27 *2164:A1 41.9607 
7 *319:27 *2076:A2 21.5143 
8 *319:10 *2002:A 13.8 
9 *319:8 *319:76 11.0714 
10 *319:76 *2094:D 9.3 
11 *319:76 *2003:B2 13.55 
*END

*D_NET *320 0.00140181
*CONN
*I *2078:A I *D sky130_fd_sc_hd__nor3b_1
*I *2161:B2 I *D sky130_fd_sc_hd__o32a_1
*I *2002:Y O *D sky130_fd_sc_hd__inv_2
*CAP
1 *2078:A 0.000142258
2 *2161:B2 2.23854e-05
3 *2002:Y 0.000102321
4 *320:6 0.000266964
5 *2078:A *2078:B 0
6 *2078:A *2161:A2 1.55885e-05
7 *2078:A *2161:B1 9.60875e-05
8 *2078:A *363:19 0.000150611
9 *2078:A *369:8 0
10 *2078:A *554:59 4.13595e-05
11 *2161:B2 *554:96 0
12 *320:6 *2161:A2 4.01768e-05
13 *320:6 *2162:A_N 2.22891e-05
14 *2076:A2 *2078:A 0.000103855
15 *319:27 *2078:A 0.000126572
16 *319:27 *320:6 0.000271345
*RES
1 *2002:Y *320:6 12.3 
2 *320:6 *2161:B2 9.72857 
3 *320:6 *2078:A 22.425 
*END

*D_NET *321 0.000439404
*CONN
*I *2004:B I *D sky130_fd_sc_hd__and2_1
*I *2003:X O *D sky130_fd_sc_hd__a22o_1
*CAP
1 *2004:B 0.000162895
2 *2003:X 0.000162895
3 *2004:B *2003:A2 1.5471e-05
4 *2004:B *2004:A 3.18676e-05
5 *2004:B *472:114 6.62761e-05
*RES
1 *2003:X *2004:B 22.0464 
*END

*D_NET *322 0.000604372
*CONN
*I *2006:B I *D sky130_fd_sc_hd__and2_1
*I *2005:X O *D sky130_fd_sc_hd__a22o_1
*CAP
1 *2006:B 0.000268441
2 *2005:X 0.000268441
3 *2006:B *2004:A 6.74911e-05
4 *2006:B *621:203 0
*RES
1 *2005:X *2006:B 31.4214 
*END

*D_NET *323 0.00569899
*CONN
*I *2028:C I *D sky130_fd_sc_hd__and3_1
*I *2027:X O *D sky130_fd_sc_hd__and3_1
*CAP
1 *2028:C 0.000802968
2 *2027:X 0.00144002
3 *323:22 0.00224299
4 *2028:C *560:76 5.79772e-05
5 *323:22 *2027:A 1.24368e-05
6 *323:22 *2181:A1 0.0001399
7 *323:22 *2181:A2 6.61673e-05
8 *323:22 *2181:B1 6.56331e-05
9 *323:22 *471:42 0.000329883
10 *323:22 *471:108 4.43256e-05
11 *323:22 *618:24 0
12 *323:22 *619:23 0.000101545
13 *737:DIODE *2028:C 0.000341852
14 *163:18 *323:22 5.33005e-05
*RES
1 *2027:X *323:22 40.1929 
2 *323:22 *2028:C 19.3536 
*END

*D_NET *324 0.00686855
*CONN
*I *2030:B I *D sky130_fd_sc_hd__and2_1
*I *2032:B I *D sky130_fd_sc_hd__and2_1
*I *2033:B I *D sky130_fd_sc_hd__and2_1
*I *2031:B I *D sky130_fd_sc_hd__and2_1
*I *2029:B I *D sky130_fd_sc_hd__and2_1
*I *2028:X O *D sky130_fd_sc_hd__and3_1
*CAP
1 *2030:B 0
2 *2032:B 2.76557e-05
3 *2033:B 0
4 *2031:B 0
5 *2029:B 0.000888763
6 *2028:X 0.000201766
7 *324:24 0.00109226
8 *324:22 0.000481053
9 *324:16 0.0009731
10 *324:10 0.000869659
11 *2029:B *2396:A 0
12 *2029:B *2497:A 0
13 *2029:B *2498:A 0
14 *2029:B *616:18 0
15 *2029:B *617:20 0
16 *2032:B *2306:CLK 2.89016e-05
17 *324:10 *698:DIODE 1.39841e-05
18 *324:10 *1962:A_N 4.43698e-05
19 *324:10 *560:76 5.62995e-05
20 *324:16 *1934:A 0
21 *324:16 *1962:A_N 6.80593e-05
22 *324:16 *1962:C 0.000175512
23 *324:16 *2032:A 6.39901e-05
24 *324:16 *2491:A 0
25 *324:22 *2032:A 5.80706e-06
26 *324:22 *2033:A 2.00751e-05
27 *324:22 *2306:CLK 0
28 *324:24 *2031:A 0
29 *324:24 *2469:A 0
30 user_irq *2029:B 0
31 *2271:RESET_B *324:16 0.000179656
32 *2276:RESET_B *2029:B 5.56943e-05
33 *2303:D *324:16 4.98872e-05
34 *2306:D *324:22 0.000128154
35 *14:13 *2029:B 0
36 *83:13 *324:24 0
37 *86:13 *324:16 0
38 *87:9 *324:22 0
39 *130:11 *324:16 0
40 *137:12 *324:10 0
41 *137:12 *324:16 0
42 *273:16 *2029:B 0.000137054
43 *273:16 *324:16 0.000488383
44 *273:16 *324:22 0.000608722
45 *273:16 *324:24 0.000209745
*RES
1 *2028:X *324:10 17.1036 
2 *324:10 *324:16 17.4821 
3 *324:16 *324:22 8.375 
4 *324:22 *324:24 4.98214 
5 *324:24 *2029:B 30.6214 
6 *324:24 *2031:B 13.8 
7 *324:22 *2033:B 13.8 
8 *324:16 *2032:B 14.3357 
9 *324:10 *2030:B 13.8 
*END

*D_NET *325 0.00188957
*CONN
*I *2035:C I *D sky130_fd_sc_hd__or3_1
*I *2034:X O *D sky130_fd_sc_hd__or3_1
*CAP
1 *2035:C 0.000534401
2 *2034:X 0.000534401
3 *2035:C *1954:A1 3.80414e-05
4 *2035:C *1969:A1 0.000125724
5 *2035:C *563:14 0.000531273
6 *1973:A2 *2035:C 0.000125724
*RES
1 *2034:X *2035:C 35.9393 
*END

*D_NET *326 0.00571367
*CONN
*I *2056:B I *D sky130_fd_sc_hd__nand3_1
*I *2057:C I *D sky130_fd_sc_hd__and4_1
*I *2043:A I *D sky130_fd_sc_hd__nor2_1
*I *2062:A I *D sky130_fd_sc_hd__nor3_1
*I *2051:B1 I *D sky130_fd_sc_hd__a41o_1
*I *2036:X O *D sky130_fd_sc_hd__or4b_2
*CAP
1 *2056:B 0
2 *2057:C 0.000221968
3 *2043:A 0.000127688
4 *2062:A 0
5 *2051:B1 0.000462541
6 *2036:X 0.000399715
7 *326:20 0.000543592
8 *326:16 0.000463956
9 *326:10 0.000477184
10 *326:8 0.000399715
11 *2043:A *338:31 1.98839e-05
12 *2051:B1 *2040:B 1.02504e-05
13 *2051:B1 *2059:A1 6.65398e-05
14 *2051:B1 *2059:A2 0.000317594
15 *2051:B1 *2059:B1 0
16 *2051:B1 *2061:D 0
17 *2051:B1 *2063:B1_N 0.000104974
18 *2051:B1 *335:28 1.00375e-05
19 *2051:B1 *500:70 0.000121554
20 *2057:C *2097:B 0.000194563
21 *2057:C *334:10 0
22 *2057:C *338:10 5.52238e-05
23 *2057:C *338:21 0.000153583
24 *2057:C *338:31 1.41029e-05
25 *2057:C *613:57 6.8646e-06
26 *326:8 *2096:B1 3.99614e-06
27 *326:8 *615:102 3.80953e-06
28 *326:16 *2097:B 0.000170661
29 *326:16 *338:31 6.42338e-05
30 *326:16 *613:57 1.69115e-05
31 *326:20 *2063:B1_N 0.000105689
32 *326:20 *2097:D_N 0.000196269
33 *326:20 *335:22 4.06782e-05
34 *2051:A1 *2051:B1 9.90431e-05
35 *2307:D *2057:C 1.94945e-05
36 *2307:D *326:8 0.000186487
37 *2309:D *2043:A 0.000181796
38 *2309:D *326:16 0.000397911
39 *289:17 *2057:C 5.51615e-05
*RES
1 *2036:X *326:8 14.7821 
2 *326:8 *326:10 4.5 
3 *326:10 *326:16 10.5714 
4 *326:16 *326:20 7.35714 
5 *326:20 *2051:B1 24.2821 
6 *326:20 *2062:A 13.8 
7 *326:16 *2043:A 11.9071 
8 *326:10 *2057:C 19.0321 
9 *326:8 *2056:B 9.3 
*END

*D_NET *327 0.00335505
*CONN
*I *2120:A I *D sky130_fd_sc_hd__and2_1
*I *2038:C1 I *D sky130_fd_sc_hd__o211ai_1
*I *2037:X O *D sky130_fd_sc_hd__and4_1
*CAP
1 *2120:A 0
2 *2038:C1 0.000218683
3 *2037:X 0.0001282
4 *327:8 0.000346883
5 *2038:C1 *2020:A 0.000271345
6 *2038:C1 *2038:B1 0.000744452
7 *2038:C1 *2047:D 0.000440705
8 *2038:C1 *336:10 0.000221677
9 *2038:C1 *611:64 0.00023978
10 *327:8 *2047:B 0.000144773
11 *327:8 *2047:D 0.000161947
12 *327:8 *336:10 0.000223564
13 *327:8 *397:8 0.000166485
14 *327:8 *509:36 2.95641e-05
15 *2294:D *2038:C1 1.69961e-05
*RES
1 *2037:X *327:8 14.7821 
2 *327:8 *2038:C1 20.5143 
3 *327:8 *2120:A 9.3 
*END

*D_NET *328 0.00184493
*CONN
*I *2042:C_N I *D sky130_fd_sc_hd__or3b_1
*I *2051:A3 I *D sky130_fd_sc_hd__a41o_1
*I *2038:Y O *D sky130_fd_sc_hd__o211ai_1
*CAP
1 *2042:C_N 0
2 *2051:A3 4.96131e-05
3 *2038:Y 0.000369996
4 *328:10 0.000419609
5 *2051:A3 *2383:A 0.000186662
6 *328:10 *2015:A 0.00013906
7 *328:10 *2015:C 0
8 *328:10 *2048:A2 0
9 *328:10 *337:8 0.000259555
10 *328:10 *388:23 0
11 *328:10 *611:64 0.000267807
12 *2051:A2 *2051:A3 0.000152624
13 *150:14 *328:10 0
*RES
1 *2038:Y *328:10 27.2286 
2 *328:10 *2051:A3 11.4964 
3 *328:10 *2042:C_N 9.3 
*END

*D_NET *329 0.00855539
*CONN
*I *2040:B I *D sky130_fd_sc_hd__nor2_1
*I *2054:C1 I *D sky130_fd_sc_hd__a311o_1
*I *2041:C I *D sky130_fd_sc_hd__or3_1
*I *2039:X O *D sky130_fd_sc_hd__or4_1
*CAP
1 *2040:B 0.000170982
2 *2054:C1 1.23837e-05
3 *2041:C 0.000422549
4 *2039:X 0.000993719
5 *329:24 0.000617861
6 *329:20 0.00134763
7 *2040:B *2015:C 0
8 *2040:B *500:70 0
9 *2041:C *2019:A 9.25014e-06
10 *2041:C *2042:A 6.56683e-05
11 *2041:C *2053:A 5.52238e-05
12 *2041:C *2054:A3 3.34783e-05
13 *2041:C *2054:B1 5.92869e-05
14 *2041:C *2328:CLK 7.49387e-06
15 *2041:C *2383:A 0.00018077
16 *2041:C *343:8 0.000102545
17 *2041:C *607:53 0.000170428
18 *2054:C1 *2054:B1 3.57366e-05
19 *2054:C1 *2328:CLK 3.99614e-06
20 *329:20 *2015:C 0
21 *329:20 *2016:B 0
22 *329:20 *2019:B 3.92757e-05
23 *329:20 *2019:C 4.78056e-05
24 *329:20 *2039:A 4.15914e-05
25 *329:20 *2329:CLK 2.56694e-05
26 *329:20 *400:20 0.00170263
27 *329:20 *466:44 0.00014285
28 *329:20 *610:18 9.90431e-05
29 *329:20 *610:22 0.000926621
30 *329:20 *611:20 1.08359e-05
31 *329:24 *2015:B 4.87953e-05
32 *329:24 *2328:CLK 0.000509452
33 *329:24 *606:131 0.000123673
34 *2051:A2 *2041:C 3.3245e-05
35 *2051:B1 *2040:B 1.02504e-05
36 *150:14 *2040:B 0
37 *151:8 *329:20 0.000504655
*RES
1 *2039:X *329:20 49.8357 
2 *329:20 *329:24 9.96429 
3 *329:24 *2041:C 26.5143 
4 *329:24 *2054:C1 9.72857 
5 *329:20 *2040:B 16.3536 
*END

*D_NET *330 0.000766497
*CONN
*I *2051:A4 I *D sky130_fd_sc_hd__a41o_1
*I *2040:Y O *D sky130_fd_sc_hd__nor2_1
*CAP
1 *2051:A4 0.000126979
2 *2040:Y 0.000126979
3 *2051:A4 *2059:A2 5.52302e-05
4 *2051:A4 *2383:A 1.16122e-05
5 *2051:A4 *500:70 0.00018372
6 *2051:A1 *2051:A4 0.00018372
7 *2051:A2 *2051:A4 7.82564e-05
*RES
1 *2040:Y *2051:A4 22.4393 
*END

*D_NET *331 0.00350915
*CONN
*I *2065:A1 I *D sky130_fd_sc_hd__o21bai_1
*I *2061:A I *D sky130_fd_sc_hd__or4_1
*I *2050:A I *D sky130_fd_sc_hd__or4b_1
*I *2042:B I *D sky130_fd_sc_hd__or3b_1
*I *2041:X O *D sky130_fd_sc_hd__or3_1
*CAP
1 *2065:A1 0.000123937
2 *2061:A 0
3 *2050:A 0.000140762
4 *2042:B 6.93585e-05
5 *2041:X 6.92516e-05
6 *331:23 0.000225939
7 *331:17 0.000339131
8 *331:6 0.000268627
9 *2042:B *2041:B 5.52302e-05
10 *2042:B *500:70 5.52238e-05
11 *2050:A *2050:C 9.41642e-05
12 *2050:A *2061:B 0.000148189
13 *2050:A *2061:D 0.00015234
14 *2050:A *335:28 0.000180764
15 *2050:A *337:8 5.80706e-06
16 *2050:A *337:23 2.99773e-05
17 *2050:A *338:35 7.83587e-05
18 *2050:A *607:53 4.72818e-05
19 *2065:A1 *2065:A2 0.000106542
20 *2065:A1 *332:8 0.000367396
21 *2065:A1 *337:23 7.40366e-05
22 *331:6 *2041:B 8.46829e-05
23 *331:17 *332:8 0.000343203
24 *331:17 *337:8 0.000111123
25 *331:17 *337:23 9.69119e-06
26 *331:23 *2059:A3 0.000225616
27 *331:23 *2061:C 5.52238e-05
28 *331:23 *2061:D 4.72917e-05
*RES
1 *2041:X *331:6 10.2464 
2 *331:6 *2042:B 10.2464 
3 *331:6 *331:17 8.875 
4 *331:17 *331:23 7.10714 
5 *331:23 *2050:A 22.925 
6 *331:23 *2061:A 9.3 
7 *331:17 *2065:A1 18.4786 
*END

*D_NET *332 0.00354246
*CONN
*I *2043:B I *D sky130_fd_sc_hd__nor2_1
*I *2062:B I *D sky130_fd_sc_hd__nor3_1
*I *2042:X O *D sky130_fd_sc_hd__or3b_1
*CAP
1 *2043:B 0.000322955
2 *2062:B 0.000376139
3 *2042:X 0.000355747
4 *332:8 0.00105484
5 *2043:B *338:31 0.000140933
6 *2043:B *338:35 0
7 *2043:B *352:16 5.5782e-05
8 *2062:B *2064:A2 5.06983e-05
9 *2062:B *617:86 0.000142343
10 *2062:B *617:97 2.89016e-05
11 *332:8 *2054:A1 4.66203e-05
12 *332:8 *2063:A2 7.7674e-05
13 *332:8 *2383:A 9.25014e-06
14 *332:8 *338:35 0
15 *332:8 *343:8 0.000127438
16 *2051:A2 *332:8 4.25427e-05
17 *2065:A1 *332:8 0.000367396
18 *289:27 *2043:B 0
19 *289:27 *332:8 0
20 *331:17 *332:8 0.000343203
*RES
1 *2042:X *332:8 24.8536 
2 *332:8 *2062:B 19.675 
3 *332:8 *2043:B 19.8714 
*END

*D_NET *333 0.000342416
*CONN
*I *2046:A1 I *D sky130_fd_sc_hd__a31o_1
*I *2043:Y O *D sky130_fd_sc_hd__nor2_1
*CAP
1 *2046:A1 4.78329e-05
2 *2043:Y 4.78329e-05
3 *2046:A1 *347:10 0.000122221
4 *2046:A1 *617:97 0.000124529
*RES
1 *2043:Y *2046:A1 29.2429 
*END

*D_NET *334 0.0134733
*CONN
*I *2095:A1 I *D sky130_fd_sc_hd__a21oi_1
*I *2153:B1 I *D sky130_fd_sc_hd__o211a_1
*I *2066:A1 I *D sky130_fd_sc_hd__a31oi_1
*I *2046:A2 I *D sky130_fd_sc_hd__a31o_1
*I *2093:A1 I *D sky130_fd_sc_hd__a21o_1
*I *2096:A1 I *D sky130_fd_sc_hd__a31o_1
*I *2044:Y O *D sky130_fd_sc_hd__nor2_2
*CAP
1 *2095:A1 0
2 *2153:B1 0.000686932
3 *2066:A1 0
4 *2046:A2 2.37855e-05
5 *2093:A1 0.00190785
6 *2096:A1 0
7 *2044:Y 2.22238e-05
8 *334:68 0.00143408
9 *334:31 0.00215142
10 *334:16 0.000395393
11 *334:10 0.000400593
12 *334:8 0.000994358
13 *2093:A1 *2342:CLK 0.000144205
14 *2093:A1 *352:16 9.10623e-05
15 *2093:A1 *621:173 3.92757e-05
16 *2093:A1 *651:10 0.000110076
17 *2153:B1 *2095:A2 0.000472988
18 *2153:B1 *2095:B1 0.000146699
19 *2153:B1 *2152:A3 1.02936e-05
20 *2153:B1 *379:10 0.000412484
21 *334:8 *2058:A 9.90367e-05
22 *334:10 *2058:A 0
23 *334:10 *498:21 0.000263551
24 *334:10 *613:57 0
25 *334:10 *634:48 4.15714e-05
26 *334:16 *2096:B1 6.56954e-05
27 *334:16 *498:21 1.81805e-05
28 *334:31 *2066:A2 1.47291e-05
29 *334:31 *2096:A2 1.38106e-05
30 *334:31 *2096:A3 3.43431e-05
31 *334:31 *2096:B1 0.000106997
32 *334:31 *345:6 2.12101e-05
33 *334:31 *352:16 0.000148258
34 *334:68 *677:DIODE 3.34366e-05
35 *334:68 *1969:B2 0.000374261
36 *334:68 *1972:B2 0.000204011
37 *334:68 *1987:B2 0.000236538
38 *334:68 *2095:A2 3.57366e-05
39 *334:68 *2095:B1 3.30237e-05
40 *334:68 *2145:A2 0
41 *334:68 *2152:A3 0.000876923
42 *334:68 *335:16 0
43 *334:68 *556:8 0
44 *334:68 *615:245 0.000171375
45 *334:68 *634:48 7.79781e-06
46 *334:68 *634:63 0
47 *334:68 *635:50 0
48 *2057:C *334:10 0
49 *2153:A1 *2153:B1 7.03293e-05
50 *2310:D *334:10 9.80394e-05
51 *2342:D *2093:A1 0.000609105
52 *59:21 *334:8 3.67142e-05
53 *272:10 *2153:B1 0.000140933
54 *286:12 *2153:B1 4.02462e-05
55 *287:21 *2153:B1 0.000142856
56 *288:14 *2153:B1 0
57 *289:17 *334:16 8.73673e-05
58 *289:27 *334:16 3.47641e-06
*RES
1 *2044:Y *334:8 14.7464 
2 *334:8 *334:10 4.98214 
3 *334:10 *334:16 7.58929 
4 *334:16 *2096:A1 9.3 
5 *334:16 *334:31 5.03571 
6 *334:31 *2093:A1 43.3 
7 *334:31 *2046:A2 9.72857 
8 *334:10 *2066:A1 13.8 
9 *334:8 *334:68 25.8393 
10 *334:68 *2153:B1 43.7107 
11 *334:68 *2095:A1 9.3 
*END

*D_NET *335 0.00880066
*CONN
*I *2046:A3 I *D sky130_fd_sc_hd__a31o_1
*I *2062:C I *D sky130_fd_sc_hd__nor3_1
*I *2050:D_N I *D sky130_fd_sc_hd__or4b_1
*I *2061:B I *D sky130_fd_sc_hd__or4_1
*I *2045:X O *D sky130_fd_sc_hd__or4_2
*CAP
1 *2046:A3 0
2 *2062:C 0
3 *2050:D_N 0
4 *2061:B 7.1284e-05
5 *2045:X 0.0010287
6 *335:28 0.000216963
7 *335:22 0.000393996
8 *335:16 0.000703381
9 *335:14 0.00148376
10 *2061:B *2064:A2 0.00010326
11 *2061:B *337:23 4.57956e-05
12 *2061:B *338:35 1.08359e-05
13 *335:14 *1947:B 1.01912e-05
14 *335:14 *465:171 0
15 *335:14 *613:87 0.00203232
16 *335:14 *648:76 3.84352e-05
17 *335:14 *649:45 0
18 *335:14 *650:18 0.000181796
19 *335:16 *2058:A 0.000333381
20 *335:16 *2058:B 3.90513e-05
21 *335:16 *2066:A2 0
22 *335:16 *2145:A2 0.000372522
23 *335:16 *347:10 0.000245853
24 *335:22 *2059:B1 1.76039e-05
25 *335:22 *2063:B1_N 3.67452e-05
26 *335:22 *2096:B1 0
27 *335:22 *2097:D_N 0
28 *335:22 *347:10 0.000180013
29 *335:28 *2050:C 1.98839e-05
30 *335:28 *2059:B1 7.8327e-05
31 *335:28 *2063:B1_N 0.000418653
32 *335:28 *607:53 4.70078e-05
33 *2050:A *2061:B 0.000148189
34 *2050:A *335:28 0.000180764
35 *2051:B1 *335:28 1.00375e-05
36 *2307:D *335:16 9.60337e-06
37 *2309:D *335:22 0.000150618
38 *170:70 *335:14 7.37227e-05
39 *285:12 *335:14 7.72916e-05
40 *326:20 *335:22 4.06782e-05
41 *334:68 *335:16 0
*RES
1 *2045:X *335:14 46.3 
2 *335:14 *335:16 12.2679 
3 *335:16 *335:22 5.94643 
4 *335:22 *335:28 9.85714 
5 *335:28 *2061:B 20.55 
6 *335:28 *2050:D_N 9.3 
7 *335:22 *2062:C 13.8 
8 *335:16 *2046:A3 13.8 
*END

*D_NET *336 0.00357429
*CONN
*I *2125:C I *D sky130_fd_sc_hd__and4_1
*I *2048:B1 I *D sky130_fd_sc_hd__o211a_1
*I *2054:A2 I *D sky130_fd_sc_hd__a311o_1
*I *2047:X O *D sky130_fd_sc_hd__and4_1
*CAP
1 *2125:C 4.49034e-05
2 *2048:B1 0
3 *2054:A2 0.000250587
4 *2047:X 0.000465965
5 *336:16 0.000381203
6 *336:10 0.000641484
7 *2054:A2 *2019:A 0
8 *2054:A2 *2048:A2 0.000124193
9 *2054:A2 *2054:A3 0.000147474
10 *2054:A2 *2383:A 5.41794e-05
11 *2054:A2 *337:8 0
12 *2054:A2 *510:72 6.34094e-05
13 *2054:A2 *607:53 0
14 *2125:C *2020:A 8.16036e-05
15 *2125:C *2125:D 0.000143804
16 *336:10 *2020:A 7.60306e-05
17 *336:10 *2038:B1 0.0001399
18 *336:10 *2125:D 3.17148e-05
19 *336:10 *397:8 5.52302e-05
20 *336:10 *607:53 3.06406e-05
21 *336:10 *607:63 1.19309e-05
22 *336:16 *2016:A 6.20656e-05
23 *336:16 *388:23 0.000269428
24 *336:16 *388:36 5.33005e-05
25 *2038:C1 *336:10 0.000221677
26 *327:8 *336:10 0.000223564
*RES
1 *2047:X *336:10 23.2643 
2 *336:10 *336:16 7.92857 
3 *336:16 *2054:A2 23.9429 
4 *336:16 *2048:B1 9.3 
5 *336:10 *2125:C 15.7464 
*END

*D_NET *337 0.00320665
*CONN
*I *2065:A2 I *D sky130_fd_sc_hd__o21bai_1
*I *2050:C I *D sky130_fd_sc_hd__or4b_1
*I *2061:C I *D sky130_fd_sc_hd__or4_1
*I *2048:X O *D sky130_fd_sc_hd__o211a_1
*CAP
1 *2065:A2 7.24223e-05
2 *2050:C 7.45789e-05
3 *2061:C 1.1624e-05
4 *2048:X 0.0005511
5 *337:23 0.000271567
6 *337:8 0.000687289
7 *2050:C *2063:B1_N 6.17358e-05
8 *2050:C *607:53 0.000216755
9 *2061:C *2061:D 5.52238e-05
10 *2065:A2 *2064:A2 0.000162125
11 *2065:A2 *338:35 0
12 *337:8 *2048:A2 3.5707e-05
13 *337:8 *2054:A1 0.000114111
14 *337:8 *2061:D 7.80714e-06
15 *337:8 *2383:A 1.69115e-05
16 *337:23 *2064:A2 5.58941e-05
17 *2050:A *2050:C 9.41642e-05
18 *2050:A *337:8 5.80706e-06
19 *2050:A *337:23 2.99773e-05
20 *2054:A2 *337:8 0
21 *2061:B *337:23 4.57956e-05
22 *2065:A1 *2065:A2 0.000106542
23 *2065:A1 *337:23 7.40366e-05
24 *150:14 *337:8 0
25 *328:10 *337:8 0.000259555
26 *331:17 *337:8 0.000111123
27 *331:17 *337:23 9.69119e-06
28 *331:23 *2061:C 5.52238e-05
29 *335:28 *2050:C 1.98839e-05
*RES
1 *2048:X *337:8 25.1571 
2 *337:8 *2061:C 14.3357 
3 *337:8 *337:23 3.21429 
4 *337:23 *2050:C 15.9786 
5 *337:23 *2065:A2 16.3536 
*END

*D_NET *338 0.00616995
*CONN
*I *2056:C I *D sky130_fd_sc_hd__nand3_1
*I *2065:B1_N I *D sky130_fd_sc_hd__o21bai_1
*I *2050:B I *D sky130_fd_sc_hd__or4b_1
*I *2061:D I *D sky130_fd_sc_hd__or4_1
*I *2057:D I *D sky130_fd_sc_hd__and4_1
*I *2049:X O *D sky130_fd_sc_hd__or4b_2
*CAP
1 *2056:C 0
2 *2065:B1_N 0
3 *2050:B 0
4 *2061:D 0.000168672
5 *2057:D 0
6 *2049:X 0.000401879
7 *338:35 0.000352256
8 *338:31 0.000771373
9 *338:21 0.000689021
10 *338:10 0.000503111
11 *2061:D *2059:A2 0
12 *2061:D *2059:A3 1.39841e-05
13 *2061:D *2059:B1 0
14 *2061:D *2064:A1 8.00806e-05
15 *338:10 *2036:D_N 6.73527e-05
16 *338:10 *495:21 0.000315158
17 *338:10 *495:51 0.000131831
18 *338:10 *498:46 3.98559e-05
19 *338:21 *613:57 0.000207769
20 *338:31 *352:16 6.26466e-05
21 *338:31 *613:57 0.000152333
22 *338:31 *617:97 5.85135e-05
23 *338:35 *2059:B1 0
24 *338:35 *2064:A1 0.000182153
25 *338:35 *2064:A2 3.75052e-05
26 *338:35 *617:97 4.25619e-05
27 *2043:A *338:31 1.98839e-05
28 *2043:B *338:31 0.000140933
29 *2043:B *338:35 0
30 *2050:A *2061:D 0.00015234
31 *2050:A *338:35 7.83587e-05
32 *2051:B1 *2061:D 0
33 *2057:B *338:10 0.000129595
34 *2057:C *338:10 5.52238e-05
35 *2057:C *338:21 0.000153583
36 *2057:C *338:31 1.41029e-05
37 *2061:B *338:35 1.08359e-05
38 *2061:C *2061:D 5.52238e-05
39 *2065:A2 *338:35 0
40 *2307:D *338:21 2.09897e-05
41 *2309:D *338:31 0.00065682
42 *289:6 *338:10 5.71472e-05
43 *289:17 *338:10 0.000186662
44 *289:17 *338:21 4.08637e-05
45 *326:16 *338:31 6.42338e-05
46 *331:23 *2061:D 4.72917e-05
47 *332:8 *338:35 0
48 *337:8 *2061:D 7.80714e-06
*RES
1 *2049:X *338:10 17.675 
2 *338:10 *2057:D 9.3 
3 *338:10 *338:21 7.89286 
4 *338:21 *338:31 21.9464 
5 *338:31 *338:35 4.60714 
6 *338:35 *2061:D 17.8179 
7 *338:35 *2050:B 13.8 
8 *338:31 *2065:B1_N 13.8 
9 *338:21 *2056:C 13.8 
*END

*D_NET *339 0.000457129
*CONN
*I *2059:A1 I *D sky130_fd_sc_hd__a31o_1
*I *2050:X O *D sky130_fd_sc_hd__or4b_1
*CAP
1 *2059:A1 0.000124487
2 *2050:X 0.000124487
3 *2059:A1 *2059:B1 4.25716e-05
4 *2059:A1 *607:53 9.90431e-05
5 *2051:B1 *2059:A1 6.65398e-05
*RES
1 *2050:X *2059:A1 30.1893 
*END

*D_NET *340 0.000790316
*CONN
*I *2059:A2 I *D sky130_fd_sc_hd__a31o_1
*I *2051:X O *D sky130_fd_sc_hd__a41o_1
*CAP
1 *2059:A2 0.000192786
2 *2051:X 0.000192786
3 *2059:A2 *500:70 4.46186e-06
4 *2051:A4 *2059:A2 5.52302e-05
5 *2051:B1 *2059:A2 0.000317594
6 *2061:D *2059:A2 0
7 *150:14 *2059:A2 2.74584e-05
*RES
1 *2051:X *2059:A2 32.2071 
*END

*D_NET *341 0.000536883
*CONN
*I *2054:A3 I *D sky130_fd_sc_hd__a311o_1
*I *2052:X O *D sky130_fd_sc_hd__or2_1
*CAP
1 *2054:A3 0.000134393
2 *2052:X 0.000134393
3 *2054:A3 *2019:A 7.68932e-05
4 *2041:C *2054:A3 3.34783e-05
5 *2051:A2 *2054:A3 1.02504e-05
6 *2054:A2 *2054:A3 0.000147474
*RES
1 *2052:X *2054:A3 30.4929 
*END

*D_NET *342 0.00139727
*CONN
*I *2054:B1 I *D sky130_fd_sc_hd__a311o_1
*I *2053:X O *D sky130_fd_sc_hd__or3_1
*CAP
1 *2054:B1 0.000216089
2 *2053:X 0.000216089
3 *2054:B1 *2053:C 0
4 *2054:B1 *2054:A1 5.52238e-05
5 *2054:B1 *2328:CLK 7.96236e-05
6 *2054:B1 *2383:A 0.000393949
7 *2054:B1 *513:10 2.28428e-05
8 *2054:B1 *513:12 2.8266e-06
9 *2054:B1 *607:53 4.71964e-05
10 *2041:C *2054:B1 5.92869e-05
11 *2051:A2 *2054:B1 0.000268403
12 *2054:C1 *2054:B1 3.57366e-05
*RES
1 *2053:X *2054:B1 34.6179 
*END

*D_NET *343 0.00171666
*CONN
*I *2063:A2 I *D sky130_fd_sc_hd__o21ba_1
*I *2055:B I *D sky130_fd_sc_hd__nand2_1
*I *2054:X O *D sky130_fd_sc_hd__a311o_1
*CAP
1 *2063:A2 0.000133338
2 *2055:B 0
3 *2054:X 0.000221651
4 *343:8 0.000354988
5 *2063:A2 *607:53 3.18676e-05
6 *343:8 *501:31 0.000125724
7 *343:8 *607:53 0.000132785
8 *2041:C *343:8 0.000102545
9 *2051:A2 *343:8 0.000150618
10 *289:35 *2063:A2 0.000222885
11 *289:35 *343:8 3.51442e-05
12 *332:8 *2063:A2 7.7674e-05
13 *332:8 *343:8 0.000127438
*RES
1 *2054:X *343:8 20.3 
2 *343:8 *2055:B 13.8 
3 *343:8 *2063:A2 17.7286 
*END

*D_NET *344 0.00145899
*CONN
*I *2059:A3 I *D sky130_fd_sc_hd__a31o_1
*I *2055:Y O *D sky130_fd_sc_hd__nand2_1
*CAP
1 *2059:A3 0.00055833
2 *2055:Y 0.00055833
3 *2059:A3 *2059:B1 9.90367e-05
4 *2061:D *2059:A3 1.39841e-05
5 *289:35 *2059:A3 3.69047e-06
6 *331:23 *2059:A3 0.000225616
*RES
1 *2055:Y *2059:A3 27.3679 
*END

*D_NET *345 0.00145689
*CONN
*I *2066:A2 I *D sky130_fd_sc_hd__a31oi_1
*I *2096:A2 I *D sky130_fd_sc_hd__a31o_1
*I *2056:Y O *D sky130_fd_sc_hd__nand3_1
*CAP
1 *2066:A2 0.000223259
2 *2096:A2 2.53068e-05
3 *2056:Y 5.21126e-05
4 *345:6 0.000300678
5 *2066:A2 *2058:B 4.41569e-05
6 *2066:A2 *2066:A3 0.000172026
7 *2066:A2 *2066:B1 9.71197e-05
8 *2066:A2 *2096:A3 5.33005e-05
9 *2066:A2 *352:16 5.52302e-05
10 *2066:A2 *498:21 2.0953e-05
11 *2066:A2 *615:102 0.000137427
12 *345:6 *2096:B1 1.74352e-05
13 *345:6 *615:102 0.000180301
14 *2056:A *345:6 2.59355e-05
15 *2307:D *2066:A2 1.89507e-06
16 *334:31 *2066:A2 1.47291e-05
17 *334:31 *2096:A2 1.38106e-05
18 *334:31 *345:6 2.12101e-05
19 *335:16 *2066:A2 0
*RES
1 *2056:Y *345:6 11.0634 
2 *345:6 *2096:A2 9.85804 
3 *345:6 *2066:A2 23.4652 
*END

*D_NET *346 0.00217732
*CONN
*I *2058:C I *D sky130_fd_sc_hd__or3_1
*I *2097:B I *D sky130_fd_sc_hd__or4b_1
*I *2057:X O *D sky130_fd_sc_hd__and4_1
*CAP
1 *2058:C 0.000230586
2 *2097:B 0.000269121
3 *2057:X 2.46213e-05
4 *346:6 0.000524329
5 *2058:C *2066:B1 0.000130345
6 *2058:C *498:46 0.00021023
7 *2097:B *2096:B1 0
8 *2097:B *2097:D_N 0
9 *2097:B *613:57 0
10 *346:6 *498:46 9.60875e-05
11 *2057:C *2097:B 0.000194563
12 *289:17 *2058:C 5.33005e-05
13 *289:17 *2097:B 0.000156403
14 *289:17 *346:6 9.60875e-05
15 *289:27 *2097:B 2.09826e-05
16 *326:16 *2097:B 0.000170661
*RES
1 *2057:X *346:6 10.2464 
2 *346:6 *2097:B 24.4964 
3 *346:6 *2058:C 14.2643 
*END

*D_NET *347 0.00462514
*CONN
*I *2145:A2 I *D sky130_fd_sc_hd__o21a_1
*I *2064:C1 I *D sky130_fd_sc_hd__a211oi_1
*I *2059:B1 I *D sky130_fd_sc_hd__a31o_1
*I *2058:X O *D sky130_fd_sc_hd__or3_1
*CAP
1 *2145:A2 0.000439035
2 *2064:C1 0
3 *2059:B1 0.000255132
4 *2058:X 0
5 *347:10 0.000566598
6 *347:6 0.000750501
7 *2059:B1 *2064:A1 9.23634e-05
8 *2059:B1 *617:97 1.76135e-05
9 *2145:A2 *1987:B2 0
10 *2145:A2 *1993:A1 0.000836151
11 *2145:A2 *615:102 2.83284e-06
12 *2145:A2 *615:124 5.62322e-05
13 *347:10 *2066:B1 0.000124813
14 *347:10 *615:102 0
15 *347:10 *617:97 0.000124732
16 *2046:A1 *347:10 0.000122221
17 *2051:B1 *2059:B1 0
18 *2059:A1 *2059:B1 4.25716e-05
19 *2059:A3 *2059:B1 9.90367e-05
20 *2061:D *2059:B1 0
21 *2309:D *347:10 0.000150618
22 *2333:D *2145:A2 5.03694e-05
23 *334:68 *2145:A2 0
24 *335:16 *2145:A2 0.000372522
25 *335:16 *347:10 0.000245853
26 *335:22 *2059:B1 1.76039e-05
27 *335:22 *347:10 0.000180013
28 *335:28 *2059:B1 7.8327e-05
29 *338:35 *2059:B1 0
*RES
1 *2058:X *347:6 13.8 
2 *347:6 *347:10 8.55357 
3 *347:10 *2059:B1 19.7286 
4 *347:10 *2064:C1 13.8 
5 *347:6 *2145:A2 26.9786 
*END

*D_NET *348 0.00240261
*CONN
*I *2098:B I *D sky130_fd_sc_hd__xnor2_1
*I *2060:B I *D sky130_fd_sc_hd__nor2_1
*I *2059:X O *D sky130_fd_sc_hd__a31o_1
*CAP
1 *2098:B 8.75962e-05
2 *2060:B 0.0001952
3 *2059:X 0.0006237
4 *348:6 0.000906496
5 *2060:B *617:71 0.000451463
6 *2098:B *496:8 0
7 *2098:B *617:71 0.000128154
8 *348:6 *617:71 9.99644e-06
9 *2308:D *2098:B 0
*RES
1 *2059:X *348:6 16.4071 
2 *348:6 *2060:B 14.5679 
3 *348:6 *2098:B 19.9429 
*END

*D_NET *349 0.000582634
*CONN
*I *2064:A1 I *D sky130_fd_sc_hd__a211oi_1
*I *2061:X O *D sky130_fd_sc_hd__or4_1
*CAP
1 *2064:A1 0.000114019
2 *2061:X 0.000114019
3 *2059:B1 *2064:A1 9.23634e-05
4 *2061:D *2064:A1 8.00806e-05
5 *338:35 *2064:A1 0.000182153
*RES
1 *2061:X *2064:A1 31.0643 
*END

*D_NET *350 0.00253261
*CONN
*I *2063:B1_N I *D sky130_fd_sc_hd__o21ba_1
*I *2097:C I *D sky130_fd_sc_hd__or4b_1
*I *2062:Y O *D sky130_fd_sc_hd__nor3_1
*CAP
1 *2063:B1_N 0.000495888
2 *2097:C 0.000290534
3 *2062:Y 0
4 *350:4 0.000786423
5 *2063:B1_N *607:53 4.93703e-05
6 *2097:C *617:86 0.000182601
7 *2050:C *2063:B1_N 6.17358e-05
8 *2051:B1 *2063:B1_N 0.000104974
9 *326:20 *2063:B1_N 0.000105689
10 *335:22 *2063:B1_N 3.67452e-05
11 *335:28 *2063:B1_N 0.000418653
*RES
1 *2062:Y *350:4 9.3 
2 *350:4 *2097:C 13.4429 
3 *350:4 *2063:B1_N 27.175 
*END

*D_NET *351 0.00078591
*CONN
*I *2064:A2 I *D sky130_fd_sc_hd__a211oi_1
*I *2063:X O *D sky130_fd_sc_hd__o21ba_1
*CAP
1 *2064:A2 0.000188214
2 *2063:X 0.000188214
3 *2061:B *2064:A2 0.00010326
4 *2062:B *2064:A2 5.06983e-05
5 *2065:A2 *2064:A2 0.000162125
6 *337:23 *2064:A2 5.58941e-05
7 *338:35 *2064:A2 3.75052e-05
*RES
1 *2063:X *2064:A2 31.8143 
*END

*D_NET *352 0.00235859
*CONN
*I *2066:A3 I *D sky130_fd_sc_hd__a31oi_1
*I *2096:A3 I *D sky130_fd_sc_hd__a31o_1
*I *2065:Y O *D sky130_fd_sc_hd__o21bai_1
*CAP
1 *2066:A3 8.27973e-05
2 *2096:A3 1.60048e-05
3 *2065:Y 0.000465441
4 *352:16 0.000564243
5 *2066:A3 *2096:B1 0.000118986
6 *2066:A3 *498:21 8.07951e-05
7 *352:16 *2066:B1 0
8 *352:16 *615:102 0.000357668
9 *352:16 *617:97 0
10 *2043:B *352:16 5.5782e-05
11 *2066:A2 *2066:A3 0.000172026
12 *2066:A2 *2096:A3 5.33005e-05
13 *2066:A2 *352:16 5.52302e-05
14 *2093:A1 *352:16 9.10623e-05
15 *289:27 *352:16 0
16 *334:31 *2096:A3 3.43431e-05
17 *334:31 *352:16 0.000148258
18 *338:31 *352:16 6.26466e-05
*RES
1 *2065:Y *352:16 29.8179 
2 *352:16 *2096:A3 9.83571 
3 *352:16 *2066:A3 20.8536 
*END

*D_NET *353 0.0013642
*CONN
*I *2088:D I *D sky130_fd_sc_hd__or4_1
*I *2068:B I *D sky130_fd_sc_hd__nor2_1
*I *2069:B I *D sky130_fd_sc_hd__or2_1
*I *2067:X O *D sky130_fd_sc_hd__or2_1
*CAP
1 *2088:D 0.000265205
2 *2068:B 0
3 *2069:B 9.38448e-05
4 *2067:X 0.000193712
5 *353:12 9.38448e-05
6 *353:10 0.000458917
7 *2069:B *2068:A 5.71472e-05
8 *2069:B *2155:B1 2.32517e-05
9 *2088:D *2088:A 8.88225e-05
10 *2088:D *2088:B 2.19684e-05
11 *2088:D *2155:B1 6.74911e-05
12 *353:10 *2067:B 0
13 *353:10 *642:42 0
*RES
1 *2067:X *353:10 16.3893 
2 *353:10 *353:12 4.5 
3 *353:12 *2069:B 11.0857 
4 *353:12 *2068:B 9.3 
5 *353:10 *2088:D 19.4964 
*END

*D_NET *354 0.000665919
*CONN
*I *2155:B1 I *D sky130_fd_sc_hd__o31a_1
*I *2068:Y O *D sky130_fd_sc_hd__nor2_1
*CAP
1 *2155:B1 0.000260943
2 *2068:Y 0.000260943
3 *2155:B1 *2068:A 5.30637e-06
4 *2155:B1 *2088:B 0
5 *2155:B1 *2089:C 4.79842e-05
6 *2069:B *2155:B1 2.32517e-05
7 *2088:D *2155:B1 6.74911e-05
*RES
1 *2068:Y *2155:B1 32.6179 
*END

*D_NET *355 0.00213797
*CONN
*I *2165:A2 I *D sky130_fd_sc_hd__a31o_1
*I *2076:B1 I *D sky130_fd_sc_hd__a31o_1
*I *2083:B I *D sky130_fd_sc_hd__or2_1
*I *2069:X O *D sky130_fd_sc_hd__or2_1
*CAP
1 *2165:A2 2.80162e-05
2 *2076:B1 8.22484e-05
3 *2083:B 0
4 *2069:X 0.000593056
5 *355:21 0.000209322
6 *355:10 0.000692114
7 *2076:B1 *666:DIODE 7.65541e-05
8 *2076:B1 *2076:A1 1.57389e-05
9 *2076:B1 *2165:A3 2.16361e-06
10 *2076:B1 *2166:C 1.73279e-05
11 *2076:B1 *362:8 1.68173e-05
12 *2076:B1 *554:96 0
13 *2165:A2 *666:DIODE 9.60939e-05
14 *2165:A2 *2165:A3 2.89114e-05
15 *2165:A2 *2166:C 8.43535e-06
16 *355:10 *2078:B 9.25014e-06
17 *355:10 *363:10 0
18 *355:10 *363:19 0
19 *355:10 *641:53 0
20 *355:10 *642:42 2.51343e-06
21 *355:21 *2078:B 0.000181304
22 *355:21 *2155:A1 0
23 *355:21 *2166:C 7.81028e-05
24 *355:21 *641:53 0
*RES
1 *2069:X *355:10 21.2107 
2 *355:10 *2083:B 13.8 
3 *355:10 *355:21 7.05357 
4 *355:21 *2076:B1 11.3446 
5 *355:21 *2165:A2 10.2464 
*END

*D_NET *356 0.00207964
*CONN
*I *2071:B I *D sky130_fd_sc_hd__or2_1
*I *2080:A1 I *D sky130_fd_sc_hd__o31a_1
*I *2070:X O *D sky130_fd_sc_hd__or4_1
*CAP
1 *2071:B 0
2 *2080:A1 8.12085e-05
3 *2070:X 0.000421249
4 *356:10 0.000502458
5 *2080:A1 *2080:A3 0.00012401
6 *2080:A1 *465:191 9.4736e-05
7 *2080:A1 *480:54 5.71472e-05
8 *2080:A1 *609:29 2.89016e-05
9 *356:10 *2207:B 0.00026695
10 *356:10 *2208:A2 0.000172767
11 *356:10 *2384:A 0
12 *356:10 *465:191 0.00023605
13 *356:10 *473:16 4.08637e-05
14 *356:10 *473:24 5.33005e-05
*RES
1 *2070:X *356:10 23.9786 
2 *356:10 *2080:A1 16.5857 
3 *356:10 *2071:B 13.8 
*END

*D_NET *357 0.00121647
*CONN
*I *2075:B1 I *D sky130_fd_sc_hd__a31o_1
*I *2080:B1 I *D sky130_fd_sc_hd__o31a_1
*I *2087:A2 I *D sky130_fd_sc_hd__o31a_1
*I *2071:X O *D sky130_fd_sc_hd__or2_1
*CAP
1 *2075:B1 0
2 *2080:B1 3.18826e-05
3 *2087:A2 0.000129502
4 *2071:X 0.000142707
5 *357:23 3.18826e-05
6 *357:10 0.000272209
7 *2080:B1 *2075:A1 5.33005e-05
8 *2080:B1 *480:54 9.90367e-05
9 *2080:B1 *609:29 7.77652e-05
10 *2087:A2 *2075:A2 0.000174048
11 *2087:A2 *2080:A3 0
12 *2087:A2 *465:191 0
13 *2087:A2 *480:58 0.000148911
14 *357:10 *2005:A1 0
15 *357:10 *2080:A3 0
16 *2281:D *357:10 5.52238e-05
*RES
1 *2071:X *357:10 15.9786 
2 *357:10 *2087:A2 16.9964 
3 *357:10 *357:23 4.5 
4 *357:23 *2080:B1 10.6571 
5 *357:23 *2075:B1 9.3 
*END

*D_NET *358 0.00127893
*CONN
*I *2075:A2 I *D sky130_fd_sc_hd__a31o_1
*I *2072:X O *D sky130_fd_sc_hd__or2_1
*CAP
1 *2075:A2 0.000302795
2 *2072:X 0.000302795
3 *2075:A2 *2005:A1 0
4 *2075:A2 *2087:A3 0.00027032
5 *2075:A2 *2087:B1 9.90431e-05
6 *2075:A2 *373:10 2.89016e-05
7 *2075:A2 *480:58 6.8646e-06
8 *2075:A2 *615:212 9.41642e-05
9 *2087:A2 *2075:A2 0.000174048
*RES
1 *2072:X *2075:A2 34.9214 
*END

*D_NET *359 0.00430973
*CONN
*I *2079:A4 I *D sky130_fd_sc_hd__a41o_1
*I *2073:X O *D sky130_fd_sc_hd__and3_1
*CAP
1 *2079:A4 0.0012046
2 *2073:X 0.0012046
3 *2079:A4 *655:DIODE 0.000161769
4 *2079:A4 *2007:A1 1.02504e-05
5 *2079:A4 *2008:A1 2.14757e-05
6 *2079:A4 *2079:A1 9.90431e-05
7 *2079:A4 *2079:A3 2.9357e-05
8 *2079:A4 *360:16 1.02936e-05
9 *2079:A4 *489:75 0
10 *2079:A4 *490:65 1.18064e-05
11 *2079:A4 *490:67 8.47672e-05
12 *2079:A4 *560:10 0.00074049
13 *2079:A4 *609:29 0.000531286
14 *1951:B *2079:A4 0.00014285
15 *2281:D *2079:A4 5.71472e-05
*RES
1 *2073:X *2079:A4 46.1714 
*END

*D_NET *360 0.00687742
*CONN
*I *2176:C I *D sky130_fd_sc_hd__and4_1
*I *2075:A3 I *D sky130_fd_sc_hd__a31o_1
*I *2080:A2 I *D sky130_fd_sc_hd__o31a_1
*I *2086:B1 I *D sky130_fd_sc_hd__o211a_1
*I *2074:X O *D sky130_fd_sc_hd__and4_1
*CAP
1 *2176:C 0.000330902
2 *2075:A3 0.000198154
3 *2080:A2 0
4 *2086:B1 0
5 *2074:X 0.000155734
6 *360:29 0.000394263
7 *360:16 0.00081902
8 *360:8 0.00110955
9 *2075:A3 *2075:A1 8.36572e-05
10 *2075:A3 *480:54 0.000186662
11 *2075:A3 *609:29 2.15245e-05
12 *2176:C *2176:D 5.62995e-05
13 *2176:C *2204:A_N 7.28341e-05
14 *2176:C *430:10 0
15 *2176:C *434:25 0.000144773
16 *2176:C *490:55 0
17 *2176:C *490:65 0
18 *2176:C *494:10 5.03772e-05
19 *2176:C *560:100 0
20 *360:16 *655:DIODE 0.000162282
21 *360:16 *2086:C1 5.52302e-05
22 *360:16 *430:10 0
23 *360:16 *488:37 0.0016466
24 *360:16 *560:10 0.000352805
25 *360:16 *560:100 0
26 *360:16 *609:29 0.000299191
27 *360:29 *2081:A3 9.60875e-05
28 *360:29 *480:54 0.00014183
29 *360:29 *488:37 6.16313e-05
30 *360:29 *609:29 0.000187985
31 *1951:B *360:16 4.58976e-05
32 *2079:A4 *360:16 1.02936e-05
33 *296:40 *360:16 0.00019384
*RES
1 *2074:X *360:8 15.5679 
2 *360:8 *360:16 26.1429 
3 *360:16 *2086:B1 9.3 
4 *360:16 *360:29 5.41071 
5 *360:29 *2080:A2 9.3 
6 *360:29 *2075:A3 13.1393 
7 *360:8 *2176:C 20.7643 
*END

*D_NET *361 0.00431933
*CONN
*I *2076:A3 I *D sky130_fd_sc_hd__a31o_1
*I *2075:X O *D sky130_fd_sc_hd__a31o_1
*CAP
1 *2076:A3 0
2 *2075:X 0.00154322
3 *361:18 0.00154322
4 *361:18 *2005:A1 0.000154114
5 *361:18 *2085:C 0.000133068
6 *361:18 *2085:D_N 6.57883e-05
7 *361:18 *2161:A2 2.14456e-05
8 *361:18 *2161:A3 0
9 *361:18 *2164:B1 0.000168301
10 *361:18 *369:8 5.3186e-06
11 *361:18 *540:69 0
12 *361:18 *609:29 2.92588e-05
13 *361:18 *613:89 0.000196282
14 *361:18 *613:113 9.67416e-05
15 *361:18 *613:135 0
16 *361:18 *615:177 1.18358e-05
17 *2003:B1 *361:18 0.000218019
18 *2076:A2 *361:18 8.71411e-06
19 *2336:D *361:18 0.00012401
20 *2340:D *361:18 0
*RES
1 *2075:X *361:18 47.675 
2 *361:18 *2076:A3 9.3 
*END

*D_NET *362 0.00199957
*CONN
*I *2164:A2 I *D sky130_fd_sc_hd__a31o_1
*I *2078:B I *D sky130_fd_sc_hd__nor3b_1
*I *2076:X O *D sky130_fd_sc_hd__a31o_1
*CAP
1 *2164:A2 5.15053e-05
2 *2078:B 0.000223169
3 *2076:X 0.000253684
4 *362:8 0.000528359
5 *2078:B *2076:A1 7.80039e-05
6 *2078:B *2083:A 5.52238e-05
7 *2078:B *2166:C 2.16719e-05
8 *2078:B *364:12 0.000188586
9 *2078:B *369:8 3.2215e-05
10 *2078:B *615:177 3.17148e-05
11 *2164:A2 *2164:A3 5.59013e-05
12 *2164:A2 *2166:C 3.25078e-05
13 *2164:A2 *615:177 0.000114045
14 *362:8 *666:DIODE 5.33005e-05
15 *362:8 *2076:A1 1.00073e-05
16 *362:8 *2161:A2 5.33005e-05
17 *2076:A2 *362:8 9.00795e-06
18 *2076:B1 *362:8 1.68173e-05
19 *2078:A *2078:B 0
20 *355:10 *2078:B 9.25014e-06
21 *355:21 *2078:B 0.000181304
*RES
1 *2076:X *362:8 16.8 
2 *362:8 *2078:B 19.55 
3 *362:8 *2164:A2 15.4429 
*END

*D_NET *363 0.0037606
*CONN
*I *2164:A3 I *D sky130_fd_sc_hd__a31o_1
*I *2161:B1 I *D sky130_fd_sc_hd__o32a_1
*I *2078:C_N I *D sky130_fd_sc_hd__nor3b_1
*I *2077:Y O *D sky130_fd_sc_hd__nor2_1
*CAP
1 *2164:A3 0.000372868
2 *2161:B1 2.46213e-05
3 *2078:C_N 0
4 *2077:Y 0.000421615
5 *363:19 0.000475038
6 *363:10 0.000499164
7 *2161:B1 *554:59 9.60875e-05
8 *2164:A3 *2085:D_N 0.00012401
9 *2164:A3 *2166:C 5.59013e-05
10 *2164:A3 *540:52 0.00038907
11 *2164:A3 *554:96 4.46186e-06
12 *363:10 *461:10 0.000466957
13 *363:10 *554:59 2.8266e-06
14 *363:10 *559:34 0.000276211
15 *363:19 *554:59 4.78891e-05
16 *363:19 *554:96 9.87983e-06
17 *2078:A *2161:B1 9.60875e-05
18 *2078:A *363:19 0.000150611
19 *2164:A1 *2164:A3 0.000137224
20 *2164:A1 *363:19 5.41794e-05
21 *2164:A2 *2164:A3 5.59013e-05
22 *355:10 *363:10 0
23 *355:10 *363:19 0
*RES
1 *2077:Y *363:10 22.8893 
2 *363:10 *2078:C_N 13.8 
3 *363:10 *363:19 2.55357 
4 *363:19 *2161:B1 14.7464 
5 *363:19 *2164:A3 29.3 
*END

*D_NET *364 0.00503697
*CONN
*I *2158:B1 I *D sky130_fd_sc_hd__a221o_1
*I *2092:A2 I *D sky130_fd_sc_hd__a21bo_1
*I *2078:Y O *D sky130_fd_sc_hd__nor3b_1
*CAP
1 *2158:B1 0.000243954
2 *2092:A2 0.000225614
3 *2078:Y 0.000569891
4 *364:12 0.00103946
5 *2092:A2 *2084:B 5.52302e-05
6 *2092:A2 *367:36 0.000889388
7 *2092:A2 *621:197 0.000297331
8 *2158:B1 *2155:A3 1.76039e-05
9 *2158:B1 *2159:A1 0
10 *2158:B1 *2159:A2 9.60875e-05
11 *2158:B1 *415:16 2.16719e-05
12 *2158:B1 *621:197 2.95726e-05
13 *364:12 *2082:A 0.00019384
14 *364:12 *2083:A 0.000139087
15 *364:12 *2155:A1 7.25392e-05
16 *364:12 *2155:A3 0
17 *364:12 *2156:A2 0
18 *364:12 *2159:A1 3.28804e-05
19 *364:12 *367:36 0.000218741
20 *364:12 *621:203 2.94103e-05
21 *364:12 *641:53 2.94103e-05
22 *2078:B *364:12 0.000188586
23 *2089:D_N *2158:B1 1.24368e-05
24 *2158:A2 *2158:B1 2.57597e-05
25 *2164:A1 *2092:A2 0.000523464
26 *316:34 *2158:B1 8.50152e-05
*RES
1 *2078:Y *364:12 31.0679 
2 *364:12 *2092:A2 19.425 
3 *364:12 *2158:B1 22.7643 
*END

*D_NET *365 0.000474326
*CONN
*I *2080:A3 I *D sky130_fd_sc_hd__o31a_1
*I *2079:X O *D sky130_fd_sc_hd__a41o_1
*CAP
1 *2080:A3 0.000155083
2 *2079:X 0.000155083
3 *2080:A1 *2080:A3 0.00012401
4 *2087:A2 *2080:A3 0
5 *2281:D *2080:A3 4.01511e-05
6 *357:10 *2080:A3 0
*RES
1 *2079:X *2080:A3 30.1893 
*END

*D_NET *366 0.00368965
*CONN
*I *2081:A3 I *D sky130_fd_sc_hd__a31o_1
*I *2080:X O *D sky130_fd_sc_hd__o31a_1
*CAP
1 *2081:A3 0.000718591
2 *2080:X 0.000718591
3 *2081:A3 *2003:A1 0
4 *2081:A3 *2005:B2 0.00013966
5 *2081:A3 *2159:B1 4.8671e-05
6 *2081:A3 *465:191 0.000288564
7 *2081:A3 *480:58 0
8 *2081:A3 *554:32 0.00078307
9 *2081:A3 *554:123 0.000188734
10 *2081:A3 *601:16 3.90513e-05
11 *2081:A3 *615:156 0.000181789
12 *2081:A3 *615:177 3.39124e-05
13 *2081:A3 *615:212 0.00025142
14 *2001:B *2081:A3 0.000100688
15 *2090:C_N *2081:A3 0.000100823
16 *360:29 *2081:A3 9.60875e-05
*RES
1 *2080:X *2081:A3 47.85 
*END

*D_NET *367 0.00545833
*CONN
*I *2156:A1 I *D sky130_fd_sc_hd__o21a_1
*I *2082:A I *D sky130_fd_sc_hd__inv_2
*I *2091:A1 I *D sky130_fd_sc_hd__o211a_1
*I *2161:A1 I *D sky130_fd_sc_hd__o32a_1
*I *2081:X O *D sky130_fd_sc_hd__a31o_1
*CAP
1 *2156:A1 6.15513e-05
2 *2082:A 0.000111374
3 *2091:A1 0
4 *2161:A1 8.91116e-05
5 *2081:X 0.000156234
6 *367:36 0.000781818
7 *367:12 0.00017929
8 *367:10 0.000855305
9 *2082:A *2155:A1 0.000129523
10 *2082:A *2156:B1 1.59782e-05
11 *2082:A *2165:A3 5.52238e-05
12 *2082:A *2165:B1 5.84171e-05
13 *2156:A1 *2156:B1 0.000271345
14 *2156:A1 *375:12 7.32955e-05
15 *2156:A1 *540:52 0.000402784
16 *2161:A1 *2091:C1 5.59013e-05
17 *2161:A1 *2161:A3 0.000105582
18 *2161:A1 *554:44 8.46915e-05
19 *2161:A1 *554:59 0
20 *367:10 *540:69 0.000140933
21 *367:10 *546:31 0.000101545
22 *367:12 *2091:C1 0.000207054
23 *367:12 *2161:A3 9.22701e-05
24 *367:12 *546:31 3.17148e-05
25 *367:36 *2084:B 5.33005e-05
26 *367:36 *2156:B1 7.79781e-06
27 *367:36 *621:203 6.8646e-06
28 *2092:A2 *367:36 0.000889388
29 *2164:A1 *367:36 0
30 *319:10 *367:10 2.74584e-05
31 *364:12 *2082:A 0.00019384
32 *364:12 *367:36 0.000218741
*RES
1 *2081:X *367:10 16.4964 
2 *367:10 *367:12 2.85714 
3 *367:12 *2161:A1 16.6571 
4 *367:12 *2091:A1 13.8 
5 *367:10 *367:36 21.3214 
6 *367:36 *2082:A 17.3 
7 *367:36 *2156:A1 17.6214 
*END

*D_NET *368 0.000484707
*CONN
*I *2165:A3 I *D sky130_fd_sc_hd__a31o_1
*I *2082:Y O *D sky130_fd_sc_hd__inv_2
*CAP
1 *2165:A3 0.000159672
2 *2082:Y 0.000159672
3 *2165:A3 *666:DIODE 4.51526e-05
4 *2165:A3 *2155:A1 2.14757e-05
5 *2165:A3 *2166:C 1.24368e-05
6 *2076:B1 *2165:A3 2.16361e-06
7 *2082:A *2165:A3 5.52238e-05
8 *2165:A2 *2165:A3 2.89114e-05
*RES
1 *2082:Y *2165:A3 21.6179 
*END

*D_NET *369 0.00227626
*CONN
*I *2085:C I *D sky130_fd_sc_hd__or4b_1
*I *2161:A2 I *D sky130_fd_sc_hd__o32a_1
*I *2083:X O *D sky130_fd_sc_hd__or2_1
*CAP
1 *2085:C 0.000121866
2 *2161:A2 0.000304836
3 *2083:X 0.000103514
4 *369:8 0.000530216
5 *2085:C *2076:A1 1.01912e-05
6 *2085:C *2085:D_N 9.71197e-05
7 *2085:C *375:12 4.27338e-05
8 *2085:C *540:52 0.000181796
9 *2085:C *615:177 6.51247e-05
10 *2161:A2 *2085:D_N 2.04825e-05
11 *2161:A2 *554:59 0.000178847
12 *2161:A2 *554:96 0.000209215
13 *369:8 *2076:A1 3.0591e-05
14 *2076:A2 *369:8 7.86084e-05
15 *2078:A *2161:A2 1.55885e-05
16 *2078:A *369:8 0
17 *2078:B *369:8 3.2215e-05
18 *320:6 *2161:A2 4.01768e-05
19 *361:18 *2085:C 0.000133068
20 *361:18 *2161:A2 2.14456e-05
21 *361:18 *369:8 5.3186e-06
22 *362:8 *2161:A2 5.33005e-05
*RES
1 *2083:X *369:8 15.8982 
2 *369:8 *2161:A2 24.5707 
3 *369:8 *2085:C 17.6661 
*END

*D_NET *370 0.00218671
*CONN
*I *2090:B I *D sky130_fd_sc_hd__or3b_1
*I *2085:B I *D sky130_fd_sc_hd__or4b_1
*I *2084:Y O *D sky130_fd_sc_hd__nor2_1
*CAP
1 *2090:B 0
2 *2085:B 0.000482223
3 *2084:Y 0.000169372
4 *370:6 0.000651595
5 *2085:B *2090:A 7.6644e-05
6 *2085:B *2091:A2 0.000113083
7 *2085:B *2091:C1 0.000111682
8 *2085:B *2093:A2 0.000222863
9 *2085:B *2166:A 1.00073e-05
10 *2085:B *375:12 2.07382e-05
11 *2085:B *540:52 1.24368e-05
12 *2085:B *554:44 3.17148e-05
13 *2085:B *601:36 0
14 *370:6 *2084:B 9.02331e-05
15 *370:6 *554:44 5.33005e-05
16 *2090:C_N *2085:B 2.26424e-05
17 *319:10 *2085:B 0.00011817
*RES
1 *2084:Y *370:6 11.4786 
2 *370:6 *2085:B 27.0143 
3 *370:6 *2090:B 9.3 
*END

*D_NET *371 0.000476851
*CONN
*I *2091:A2 I *D sky130_fd_sc_hd__o211a_1
*I *2085:X O *D sky130_fd_sc_hd__or4b_1
*CAP
1 *2091:A2 9.70653e-05
2 *2085:X 9.70653e-05
3 *2091:A2 *2091:B1 1.04232e-05
4 *2091:A2 *2091:C1 2.64402e-05
5 *2091:A2 *375:12 0.000113005
6 *2091:A2 *540:52 1.97695e-05
7 *2085:B *2091:A2 0.000113083
*RES
1 *2085:X *2091:A2 21.6357 
*END

*D_NET *372 0.000712698
*CONN
*I *2087:A3 I *D sky130_fd_sc_hd__o31a_1
*I *2086:X O *D sky130_fd_sc_hd__o211a_1
*CAP
1 *2087:A3 0.000175517
2 *2086:X 0.000175517
3 *2087:A3 *2072:B 3.79467e-05
4 *2087:A3 *465:191 5.33978e-05
5 *2075:A2 *2087:A3 0.00027032
*RES
1 *2086:X *2087:A3 31.5286 
*END

*D_NET *373 0.00518746
*CONN
*I *2089:B I *D sky130_fd_sc_hd__or4b_1
*I *2087:X O *D sky130_fd_sc_hd__o31a_1
*CAP
1 *2089:B 0
2 *2087:X 0.00203118
3 *373:10 0.00203118
4 *373:10 *2154:A 0
5 *373:10 *2158:C1 3.92757e-05
6 *373:10 *2466:A 0
7 *373:10 *415:10 0.000170661
8 *373:10 *415:16 4.97121e-06
9 *373:10 *579:16 0.000177867
10 *373:10 *579:26 9.16723e-05
11 *373:10 *620:66 0.000164502
12 *373:10 *620:84 9.37018e-05
13 *373:10 *649:23 0
14 wb_dat_o[10] *373:10 0
15 *2075:A2 *373:10 2.89016e-05
16 *2154:B *373:10 2.26327e-05
17 *2163:B2 *373:10 0.000125731
18 *2280:D *373:10 0.000149489
19 *2280:RESET_B *373:10 5.56943e-05
20 *316:28 *373:10 0
*RES
1 *2087:X *373:10 47.4429 
2 *373:10 *2089:B 13.8 
*END

*D_NET *374 0.000956998
*CONN
*I *2089:C I *D sky130_fd_sc_hd__or4b_1
*I *2088:X O *D sky130_fd_sc_hd__or4_1
*CAP
1 *2089:C 0.000281755
2 *2088:X 0.000281755
3 *2089:C *2088:B 0.000144633
4 *2089:C *2155:A2 4.97121e-06
5 *2089:C *2155:A3 0
6 *2089:C *2158:C1 0
7 *2089:C *540:27 1.18451e-05
8 *2089:C *540:52 0.000173804
9 *2089:C *579:26 1.02504e-05
10 *2155:B1 *2089:C 4.79842e-05
*RES
1 *2088:X *2089:C 34.1 
*END

*D_NET *375 0.00407146
*CONN
*I *2091:B1 I *D sky130_fd_sc_hd__o211a_1
*I *2166:A I *D sky130_fd_sc_hd__and3_1
*I *2089:X O *D sky130_fd_sc_hd__or4b_1
*CAP
1 *2091:B1 1.7586e-05
2 *2166:A 4.33125e-05
3 *2089:X 0.000810135
4 *375:12 0.000871034
5 *2091:B1 *2091:C1 1.04232e-05
6 *2166:A *2091:C1 6.73496e-05
7 *2166:A *2166:C 0.000137983
8 *375:12 *2085:D_N 9.71197e-05
9 *375:12 *2088:B 2.22999e-05
10 *375:12 *2091:C1 8.43535e-06
11 *375:12 *2155:A2 0.000101545
12 *375:12 *2156:B1 0.000399841
13 *375:12 *2166:C 0.000815421
14 *375:12 *540:27 9.25014e-06
15 *375:12 *540:52 0.000154423
16 *375:12 *540:69 5.33005e-05
17 *2085:B *2166:A 1.00073e-05
18 *2085:B *375:12 2.07382e-05
19 *2085:C *375:12 4.27338e-05
20 *2091:A2 *2091:B1 1.04232e-05
21 *2091:A2 *375:12 0.000113005
22 *2156:A1 *375:12 7.32955e-05
23 *2164:A1 *375:12 0.000181796
*RES
1 *2089:X *375:12 37.425 
2 *375:12 *2166:A 10.6571 
3 *375:12 *2091:B1 9.72857 
*END

*D_NET *376 0.00143132
*CONN
*I *2091:C1 I *D sky130_fd_sc_hd__o211a_1
*I *2090:X O *D sky130_fd_sc_hd__or3b_1
*CAP
1 *2091:C1 0.000303596
2 *2090:X 0.000303596
3 *2091:C1 *2084:B 1.98839e-05
4 *2091:C1 *2166:B 0
5 *2091:C1 *554:44 0.000316963
6 *2085:B *2091:C1 0.000111682
7 *2091:A2 *2091:C1 2.64402e-05
8 *2091:B1 *2091:C1 1.04232e-05
9 *2161:A1 *2091:C1 5.59013e-05
10 *2166:A *2091:C1 6.73496e-05
11 *367:12 *2091:C1 0.000207054
12 *375:12 *2091:C1 8.43535e-06
*RES
1 *2090:X *2091:C1 34.6536 
*END

*D_NET *377 0.000612986
*CONN
*I *2092:B1_N I *D sky130_fd_sc_hd__a21bo_1
*I *2091:X O *D sky130_fd_sc_hd__o211a_1
*CAP
1 *2092:B1_N 0.000142634
2 *2091:X 0.000142634
3 *2092:B1_N *2161:A3 0.000172375
4 *2092:B1_N *621:197 9.90431e-05
5 *2164:A1 *2092:B1_N 5.63007e-05
*RES
1 *2091:X *2092:B1_N 30.7964 
*END

*D_NET *378 0.00200985
*CONN
*I *2093:A2 I *D sky130_fd_sc_hd__a21o_1
*I *2092:X O *D sky130_fd_sc_hd__a21bo_1
*CAP
1 *2093:A2 0.000457554
2 *2092:X 0.000457554
3 *2093:A2 *2084:B 6.12335e-05
4 *2093:A2 *2090:A 5.52302e-05
5 *2093:A2 *2093:B1 5.71472e-05
6 *2093:A2 *2162:A_N 0.000150847
7 *2093:A2 *601:36 0
8 *2093:A2 *621:197 0.000178847
9 *2085:B *2093:A2 0.000222863
10 *2219:A2 *2093:A2 4.57538e-05
11 *2342:D *2093:A2 3.79197e-05
12 *170:48 *2093:A2 0.000218246
13 *319:10 *2093:A2 4.65826e-05
14 *319:12 *2093:A2 2.00751e-05
*RES
1 *2092:X *2093:A2 39.9929 
*END

*D_NET *379 0.00458245
*CONN
*I *2153:A2 I *D sky130_fd_sc_hd__o211a_1
*I *2151:B I *D sky130_fd_sc_hd__nor2_1
*I *2095:A2 I *D sky130_fd_sc_hd__a21oi_1
*I *2094:X O *D sky130_fd_sc_hd__or4_1
*CAP
1 *2153:A2 2.23854e-05
2 *2151:B 2.23854e-05
3 *2095:A2 0.00015218
4 *2094:X 0.000485391
5 *379:10 0.000360187
6 *379:8 0.000693398
7 *2095:A2 *2152:A3 0.000836944
8 *379:8 *2094:B 2.89114e-05
9 *379:8 *414:10 7.49615e-05
10 *379:10 *2152:A3 1.33343e-05
11 *2151:A *379:10 0.000312215
12 *2153:A1 *379:8 2.89016e-05
13 *2153:A1 *379:10 2.28598e-05
14 *2153:B1 *2095:A2 0.000472988
15 *2153:B1 *379:10 0.000412484
16 *2153:C1 *2153:A2 0
17 *2153:C1 *379:10 5.14325e-05
18 *170:70 *379:10 1.58163e-06
19 *287:21 *379:10 1.54142e-05
20 *316:16 *379:8 0.00053876
21 *334:68 *2095:A2 3.57366e-05
*RES
1 *2094:X *379:8 19.3 
2 *379:8 *379:10 6.28571 
3 *379:10 *2095:A2 17.6571 
4 *379:10 *2151:B 9.72857 
5 *379:8 *2153:A2 9.72857 
*END

*D_NET *380 0.000902196
*CONN
*I *2097:D_N I *D sky130_fd_sc_hd__or4b_1
*I *2096:X O *D sky130_fd_sc_hd__a31o_1
*CAP
1 *2097:D_N 0.000279308
2 *2096:X 0.000279308
3 *2097:D_N *2096:B1 4.46186e-06
4 *2097:D_N *617:86 0.00014285
5 *2097:B *2097:D_N 0
6 *326:20 *2097:D_N 0.000196269
7 *335:22 *2097:D_N 0
*RES
1 *2096:X *2097:D_N 33.3321 
*END

*D_NET *381 0.000925294
*CONN
*I *2099:A I *D sky130_fd_sc_hd__nor2_1
*I *2097:X O *D sky130_fd_sc_hd__or4b_1
*CAP
1 *2099:A 0.000227847
2 *2097:X 0.000227847
3 *2099:A *2099:B 7.83174e-05
4 *2099:A *613:57 0.000342488
5 *2099:A *617:71 4.87953e-05
*RES
1 *2097:X *2099:A 32.9214 
*END

*D_NET *382 0.000491634
*CONN
*I *2099:B I *D sky130_fd_sc_hd__nor2_1
*I *2098:Y O *D sky130_fd_sc_hd__xnor2_1
*CAP
1 *2099:B 0.000129715
2 *2098:Y 0.000129715
3 *2099:B *607:53 9.90367e-05
4 *2099:B *617:71 5.48488e-05
5 *2099:A *2099:B 7.83174e-05
*RES
1 *2098:Y *2099:B 30.4929 
*END

*D_NET *383 0.00631161
*CONN
*I *2383:A I *D sky130_fd_sc_hd__buf_1
*I *2382:A I *D sky130_fd_sc_hd__clkbuf_2
*I *2099:Y O *D sky130_fd_sc_hd__nor2_1
*CAP
1 *2383:A 0.00139851
2 *2382:A 0.000182201
3 *2099:Y 0.000237744
4 *383:10 0.00181845
5 *2382:A *1935:A 0.000186662
6 *2382:A *2132:B 9.90431e-05
7 *2383:A *1935:A 0.000244535
8 *2383:A *1936:A 2.89016e-05
9 *2383:A *2040:A 0
10 *2383:A *2042:A 2.59355e-05
11 *2383:A *2054:A1 0.00012401
12 *2383:A *2328:CLK 4.51641e-05
13 *2383:A *500:49 0.000232399
14 *2383:A *500:70 0.000259934
15 *383:10 *501:21 0
16 *383:10 *610:95 0
17 *383:10 *613:57 0.00018567
18 *2041:C *2383:A 0.00018077
19 *2051:A2 *2383:A 0.000323256
20 *2051:A3 *2383:A 0.000186662
21 *2051:A4 *2383:A 1.16122e-05
22 *2054:A2 *2383:A 5.41794e-05
23 *2054:B1 *2383:A 0.000393949
24 *2131:A *2382:A 4.88637e-05
25 *274:6 *2382:A 1.69961e-05
26 *332:8 *2383:A 9.25014e-06
27 *337:8 *2383:A 1.69115e-05
*RES
1 *2099:Y *383:10 22.9786 
2 *383:10 *2382:A 13.1214 
3 *383:10 *2383:A 43.0321 
*END

*D_NET *384 0.00068688
*CONN
*I *2103:B I *D sky130_fd_sc_hd__and3_1
*I *2101:Y O *D sky130_fd_sc_hd__nand2_1
*CAP
1 *2103:B 0.000228783
2 *2101:Y 0.000228783
3 *2103:B *2012:A 0.000106299
4 *2103:B *2144:A 5.99221e-05
5 *2103:B *600:32 1.90303e-05
6 *2103:B *622:32 3.38136e-05
7 *2285:D *2103:B 1.02504e-05
*RES
1 *2101:Y *2103:B 31.9214 
*END

*D_NET *385 0.000733755
*CONN
*I *2103:C I *D sky130_fd_sc_hd__and3_1
*I *2102:X O *D sky130_fd_sc_hd__or2_1
*CAP
1 *2103:C 0.000212529
2 *2102:X 0.000212529
3 *2103:C *2285:CLK 4.03318e-05
4 *2103:C *600:26 0
5 *2103:C *600:32 8.45455e-05
6 *2103:C *606:23 8.47107e-05
7 *2318:D *2103:C 9.91086e-05
*RES
1 *2102:X *2103:C 31.8946 
*END

*D_NET *386 0.00111916
*CONN
*I *2106:B I *D sky130_fd_sc_hd__and3_1
*I *2104:Y O *D sky130_fd_sc_hd__nand3_1
*CAP
1 *2106:B 0.000228634
2 *2104:Y 0.000228634
3 *2106:B *2106:C 8.00806e-05
4 *2106:B *2327:CLK 6.07232e-05
5 *2106:B *468:72 9.7478e-05
6 *2106:B *499:24 0.000236539
7 *2106:B *499:41 0.000161858
8 *2106:B *600:58 3.69047e-06
9 *2106:B *600:65 2.15245e-05
*RES
1 *2104:Y *2106:B 33.5286 
*END

*D_NET *387 0.000367943
*CONN
*I *2106:C I *D sky130_fd_sc_hd__and3_1
*I *2105:X O *D sky130_fd_sc_hd__a21o_1
*CAP
1 *2106:C 7.35829e-05
2 *2105:X 7.35829e-05
3 *2106:C *468:72 7.83659e-05
4 *2106:C *600:65 6.23306e-05
5 *2106:B *2106:C 8.00806e-05
*RES
1 *2105:X *2106:C 29.2429 
*END

*D_NET *388 0.00745775
*CONN
*I *2111:B I *D sky130_fd_sc_hd__or2_1
*I *2110:B I *D sky130_fd_sc_hd__and2_1
*I *2113:C I *D sky130_fd_sc_hd__and3_1
*I *2120:B I *D sky130_fd_sc_hd__and2_1
*I *2125:D I *D sky130_fd_sc_hd__and4_1
*I *2109:A_N I *D sky130_fd_sc_hd__and3b_1
*I *2107:X O *D sky130_fd_sc_hd__and4_1
*CAP
1 *2111:B 0.000183332
2 *2110:B 0.000171819
3 *2113:C 0
4 *2120:B 6.32645e-05
5 *2125:D 6.05302e-05
6 *2109:A_N 0.000132119
7 *2107:X 8.98635e-05
8 *388:57 0.000335642
9 *388:51 0.00092198
10 *388:36 0.00112087
11 *388:23 0.00105626
12 *388:8 0.000734933
13 *2109:A_N *2107:D 0
14 *2109:A_N *507:19 0
15 *2109:A_N *584:10 8.58946e-05
16 *2110:B *2037:C 0
17 *2110:B *510:22 0.000238156
18 *2111:B *2112:B 5.52302e-05
19 *2111:B *2114:B 0.000370849
20 *2111:B *390:10 5.83304e-05
21 *2111:B *397:21 6.98669e-05
22 *2111:B *510:57 1.98839e-05
23 *2120:B *509:36 0.00017309
24 *2120:B *621:52 0.000110564
25 *2125:D *509:48 9.25014e-06
26 *2125:D *607:53 8.5662e-05
27 *388:8 *584:22 0.000274288
28 *388:23 *2038:A2 0
29 *388:23 *507:48 0
30 *388:23 *584:10 9.69119e-06
31 *388:23 *607:53 0
32 *388:23 *607:63 0
33 *388:23 *611:64 0
34 *388:23 *611:76 0
35 *388:51 *602:20 0.000221128
36 *388:57 *2121:A_N 4.35141e-05
37 *388:57 *390:10 0.000150625
38 *388:57 *392:10 0
39 *388:57 *397:21 3.34672e-05
40 *388:57 *510:22 6.28499e-05
41 *388:57 *511:35 1.65558e-05
42 *2125:C *2125:D 0.000143804
43 *328:10 *388:23 0
44 *336:10 *2125:D 3.17148e-05
45 *336:16 *388:23 0.000269428
46 *336:16 *388:36 5.33005e-05
*RES
1 *2107:X *388:8 16.3893 
2 *388:8 *2109:A_N 16.6571 
3 *388:8 *388:23 13.5893 
4 *388:23 *2125:D 20.55 
5 *388:23 *388:36 6.69643 
6 *388:36 *2120:B 20.55 
7 *388:36 *388:51 14.4821 
8 *388:51 *388:57 7.96429 
9 *388:57 *2113:C 9.3 
10 *388:57 *2110:B 12.1393 
11 *388:51 *2111:B 18.9429 
*END

*D_NET *389 0.000231238
*CONN
*I *2109:B I *D sky130_fd_sc_hd__and3b_1
*I *2108:X O *D sky130_fd_sc_hd__a31o_1
*CAP
1 *2109:B 9.37191e-05
2 *2108:X 9.37191e-05
3 *2109:B *2109:C 4.37999e-05
*RES
1 *2108:X *2109:B 20.3857 
*END

*D_NET *390 0.00204433
*CONN
*I *2114:B I *D sky130_fd_sc_hd__or2_1
*I *2112:A_N I *D sky130_fd_sc_hd__and3b_1
*I *2110:X O *D sky130_fd_sc_hd__and2_1
*CAP
1 *2114:B 0.000179618
2 *2112:A_N 0
3 *2110:X 0.000152447
4 *390:10 0.000332065
5 *2114:B *2111:A 5.52302e-05
6 *2114:B *2112:B 6.42778e-05
7 *2114:B *397:21 0
8 *2114:B *510:57 0.000449546
9 *390:10 *2112:B 0
10 *390:10 *392:6 5.71472e-05
11 *390:10 *509:14 0
12 *390:10 *509:16 3.98559e-05
13 *390:10 *509:26 1.24368e-05
14 *390:10 *510:22 2.28598e-05
15 *390:10 *511:35 9.90367e-05
16 *2111:B *2114:B 0.000370849
17 *2111:B *390:10 5.83304e-05
18 *388:57 *390:10 0.000150625
*RES
1 *2110:X *390:10 17.7107 
2 *390:10 *2112:A_N 13.8 
3 *390:10 *2114:B 20.2821 
*END

*D_NET *391 0.000816174
*CONN
*I *2112:B I *D sky130_fd_sc_hd__and3b_1
*I *2111:X O *D sky130_fd_sc_hd__or2_1
*CAP
1 *2112:B 0.000267456
2 *2111:X 0.000267456
3 *2112:B *2111:A 0.000155946
4 *2112:B *509:14 5.80706e-06
5 *2111:B *2112:B 5.52302e-05
6 *2114:B *2112:B 6.42778e-05
7 *390:10 *2112:B 0
*RES
1 *2111:X *2112:B 32.3321 
*END

*D_NET *392 0.00249371
*CONN
*I *2115:A_N I *D sky130_fd_sc_hd__and3b_1
*I *2116:B I *D sky130_fd_sc_hd__nand2_1
*I *2119:A2 I *D sky130_fd_sc_hd__a21o_1
*I *2117:B I *D sky130_fd_sc_hd__or2_1
*I *2113:X O *D sky130_fd_sc_hd__and3_1
*CAP
1 *2115:A_N 2.87315e-05
2 *2116:B 9.56248e-05
3 *2119:A2 0
4 *2117:B 0.000255711
5 *2113:X 2.25383e-05
6 *392:23 9.56248e-05
7 *392:10 0.000479572
8 *392:6 0.00027513
9 *2115:A_N *2110:A 0.000139913
10 *2115:A_N *509:16 5.52302e-05
11 *2115:A_N *510:22 5.82076e-05
12 *2116:B *2116:A 0.00010096
13 *2116:B *511:25 6.42095e-05
14 *2117:B *2117:A 7.58664e-05
15 *2117:B *2408:A 0
16 *2117:B *468:148 8.68665e-05
17 *2117:B *511:23 4.97121e-06
18 *2117:B *511:35 1.97381e-05
19 *392:6 *509:16 0.00014285
20 *392:6 *510:22 6.73527e-05
21 *392:10 *468:148 0.000232216
22 *392:10 *511:35 0.000135245
23 *388:57 *392:10 0
24 *390:10 *392:6 5.71472e-05
*RES
1 *2113:X *392:6 10.6571 
2 *392:6 *392:10 10.0893 
3 *392:10 *2117:B 19.3179 
4 *392:10 *392:23 4.5 
5 *392:23 *2119:A2 9.3 
6 *392:23 *2116:B 11.4786 
7 *392:6 *2115:A_N 10.6571 
*END

*D_NET *393 0.000659663
*CONN
*I *2115:B I *D sky130_fd_sc_hd__and3b_1
*I *2114:X O *D sky130_fd_sc_hd__or2_1
*CAP
1 *2115:B 0.000257073
2 *2114:X 0.000257073
3 *2115:B *510:22 0.00010465
4 *2115:B *510:40 3.92854e-05
5 *2322:D *2115:B 1.58213e-06
*RES
1 *2114:X *2115:B 32.0107 
*END

*D_NET *394 0.00068098
*CONN
*I *2118:B I *D sky130_fd_sc_hd__and3_1
*I *2116:Y O *D sky130_fd_sc_hd__nand2_1
*CAP
1 *2118:B 0.000200368
2 *2116:Y 0.000200368
3 *2118:B *2116:A 1.24368e-05
4 *2118:B *2118:A 0.000267807
5 *2118:B *621:106 0
*RES
1 *2116:Y *2118:B 31.6 
*END

*D_NET *395 0.000279257
*CONN
*I *2118:C I *D sky130_fd_sc_hd__and3_1
*I *2117:X O *D sky130_fd_sc_hd__or2_1
*CAP
1 *2118:C 0.000111055
2 *2117:X 0.000111055
3 *2118:C *2118:A 5.71472e-05
*RES
1 *2117:X *2118:C 20.0286 
*END

*D_NET *396 0.000542167
*CONN
*I *2121:C I *D sky130_fd_sc_hd__and3b_1
*I *2119:X O *D sky130_fd_sc_hd__a21o_1
*CAP
1 *2121:C 0.000191308
2 *2119:X 0.000191308
3 *2121:C *2121:A_N 1.19402e-05
4 *2121:C *2121:B 1.92789e-05
5 *2121:C *468:130 3.69047e-06
6 *2121:C *511:35 3.47468e-05
7 *2324:D *2121:C 8.9894e-05
*RES
1 *2119:X *2121:C 30.9214 
*END

*D_NET *397 0.00363038
*CONN
*I *2122:B I *D sky130_fd_sc_hd__nand2_1
*I *2123:B I *D sky130_fd_sc_hd__or2_1
*I *2121:A_N I *D sky130_fd_sc_hd__and3b_1
*I *2120:X O *D sky130_fd_sc_hd__and2_1
*CAP
1 *2122:B 0.000188015
2 *2123:B 0.000102013
3 *2121:A_N 0.000233022
4 *2120:X 0.000548461
5 *397:21 0.000490547
6 *397:8 0.000982001
7 *2121:A_N *509:26 0
8 *2121:A_N *511:35 0
9 *2123:B *510:57 0.000274288
10 *397:8 *2047:B 2.77173e-05
11 *397:8 *509:26 0.00040381
12 *2111:B *397:21 6.98669e-05
13 *2114:B *397:21 0
14 *2121:C *2121:A_N 1.19402e-05
15 *327:8 *397:8 0.000166485
16 *336:10 *397:8 5.52302e-05
17 *388:57 *2121:A_N 4.35141e-05
18 *388:57 *397:21 3.34672e-05
*RES
1 *2120:X *397:8 21.7286 
2 *397:8 *2121:A_N 17.9071 
3 *397:8 *397:21 4.07143 
4 *397:21 *2123:B 16.3893 
5 *397:21 *2122:B 16.6571 
*END

*D_NET *398 0.00272031
*CONN
*I *2126:B I *D sky130_fd_sc_hd__nand2_1
*I *2124:B I *D sky130_fd_sc_hd__and3_1
*I *2122:Y O *D sky130_fd_sc_hd__nand2_1
*CAP
1 *2126:B 0.000431762
2 *2124:B 9.04632e-05
3 *2122:Y 0.000312037
4 *398:8 0.000834263
5 *2124:B *2127:C 5.66647e-05
6 *2124:B *602:14 8.16656e-05
7 *2126:B *2127:C 3.34687e-05
8 *2126:B *2370:A 3.18676e-05
9 *2126:B *469:8 0.000123673
10 *2126:B *469:10 0
11 *2126:B *469:14 0
12 *2126:B *601:36 0.0002026
13 *398:8 *2122:A 3.54839e-05
14 *398:8 *2325:CLK 0.000405733
15 *2325:D *2124:B 8.06331e-05
*RES
1 *2122:Y *398:8 18.4429 
2 *398:8 *2124:B 16.3536 
3 *398:8 *2126:B 23.2286 
*END

*D_NET *399 0.000287604
*CONN
*I *2124:C I *D sky130_fd_sc_hd__and3_1
*I *2123:X O *D sky130_fd_sc_hd__or2_1
*CAP
1 *2124:C 1.42684e-05
2 *2123:X 1.42684e-05
3 *2124:C *2123:A 0.000129534
4 *2124:C *510:57 0.000129534
*RES
1 *2123:X *2124:C 19.8143 
*END

*D_NET *400 0.0105094
*CONN
*I *2127:A_N I *D sky130_fd_sc_hd__and3b_1
*I *2128:B I *D sky130_fd_sc_hd__nand2_1
*I *2129:B I *D sky130_fd_sc_hd__or2_1
*I *2134:D I *D sky130_fd_sc_hd__and4_1
*I *2125:X O *D sky130_fd_sc_hd__and4_1
*CAP
1 *2127:A_N 0.000284203
2 *2128:B 0.000227949
3 *2129:B 0
4 *2134:D 9.58122e-05
5 *2125:X 0
6 *400:22 9.58122e-05
7 *400:20 0.0016039
8 *400:4 0.00166015
9 *2127:A_N *2463:A 0.000357687
10 *2127:A_N *465:135 0.000357687
11 *2127:A_N *509:36 0.000223558
12 *2127:A_N *509:48 0.000142856
13 *2127:A_N *510:59 1.38323e-05
14 *2127:A_N *557:22 4.58194e-05
15 *2128:B *2136:B 0.000127446
16 *2128:B *2136:C 0.00014631
17 *2128:B *2406:A 2.59093e-05
18 *2128:B *500:30 9.90431e-05
19 *2128:B *502:12 6.42338e-05
20 *2128:B *502:30 4.25427e-05
21 *2128:B *600:20 0.00029443
22 *2134:D *2039:D 1.5424e-05
23 *2134:D *2134:B 0.000443648
24 *2134:D *2134:C 5.33005e-05
25 *2134:D *500:22 0.000526407
26 *400:20 *2015:A 0.000310298
27 *400:20 *2019:A 0.000870011
28 *400:20 *2052:A 9.90367e-05
29 *400:20 *2392:A 9.90431e-05
30 *400:20 *509:48 3.53079e-05
31 *400:20 *510:59 9.71197e-05
32 *400:20 *600:20 1.62539e-05
33 *400:20 *600:22 1.71615e-05
34 *400:20 *606:23 3.0285e-05
35 *400:20 *610:18 3.03304e-05
36 *400:20 *611:20 7.6644e-05
37 *400:20 *611:52 0.00013594
38 *400:20 *611:64 4.14279e-05
39 *329:20 *400:20 0.00170263
*RES
1 *2125:X *400:4 9.3 
2 *400:4 *400:20 40.9821 
3 *400:20 *400:22 4.5 
4 *400:22 *2134:D 14.3536 
5 *400:22 *2129:B 9.3 
6 *400:20 *2128:B 20.5679 
7 *400:4 *2127:A_N 26.8 
*END

*D_NET *401 0.000180964
*CONN
*I *2127:B I *D sky130_fd_sc_hd__and3b_1
*I *2126:Y O *D sky130_fd_sc_hd__nand2_1
*CAP
1 *2127:B 4.61773e-05
2 *2126:Y 4.61773e-05
3 *2127:B *514:10 1.02504e-05
4 *2127:B *621:52 0
5 *2126:A *2127:B 7.83587e-05
*RES
1 *2126:Y *2127:B 28.6357 
*END

*D_NET *402 0.00174297
*CONN
*I *2132:B I *D sky130_fd_sc_hd__nand2_1
*I *2131:B I *D sky130_fd_sc_hd__nor2_1
*I *2130:B I *D sky130_fd_sc_hd__and3_1
*I *2128:Y O *D sky130_fd_sc_hd__nand2_1
*CAP
1 *2132:B 0.000132862
2 *2131:B 1.53554e-05
3 *2130:B 0.000252822
4 *2128:Y 4.65875e-05
5 *402:23 0.000174269
6 *402:6 0.00032546
7 *2130:B *2136:C 0
8 *2130:B *404:10 0.000125731
9 *2130:B *600:20 0
10 *2130:B *610:95 0
11 *2131:B *2128:A 1.11677e-05
12 *2131:B *500:49 3.68008e-05
13 *2132:B *500:49 9.09664e-06
14 *2132:B *600:12 5.03772e-05
15 *402:6 *500:30 3.18676e-05
16 *402:6 *500:49 1.21289e-05
17 *2131:A *2131:B 1.32622e-05
18 *2131:A *2132:B 0.000348987
19 *2382:A *2132:B 9.90431e-05
20 *154:14 *2130:B 5.71472e-05
*RES
1 *2128:Y *402:6 10.2464 
2 *402:6 *2130:B 22.7286 
3 *402:6 *402:23 0.607143 
4 *402:23 *2131:B 10.4786 
5 *402:23 *2132:B 13.6036 
*END

*D_NET *403 0.000306591
*CONN
*I *2130:C I *D sky130_fd_sc_hd__and3_1
*I *2129:X O *D sky130_fd_sc_hd__or2_1
*CAP
1 *2130:C 9.9913e-05
2 *2129:X 9.9913e-05
3 *2130:C *2130:A 5.52238e-05
4 *2130:C *2134:B 5.15407e-05
*RES
1 *2129:X *2130:C 20.0286 
*END

*D_NET *404 0.000553269
*CONN
*I *2133:A_N I *D sky130_fd_sc_hd__and3b_1
*I *2135:B I *D sky130_fd_sc_hd__or2_1
*I *2131:Y O *D sky130_fd_sc_hd__nor2_1
*CAP
1 *2133:A_N 0
2 *2135:B 3.29371e-05
3 *2131:Y 7.33081e-05
4 *404:10 0.000106245
5 *2135:B *600:16 7.32173e-05
6 *2135:B *606:118 0.00014183
7 *404:10 *600:12 0
8 *404:10 *610:95 0
9 *2130:B *404:10 0.000125731
*RES
1 *2131:Y *404:10 19.9429 
2 *404:10 *2135:B 10.6571 
3 *404:10 *2133:A_N 9.3 
*END

*D_NET *405 0.000889136
*CONN
*I *2133:B I *D sky130_fd_sc_hd__and3b_1
*I *2132:Y O *D sky130_fd_sc_hd__nand2_1
*CAP
1 *2133:B 0.000280624
2 *2132:Y 0.000280624
3 *2133:B *501:19 5.94923e-05
4 *2133:B *606:118 0.000268396
5 *2133:B *613:57 0
*RES
1 *2132:Y *2133:B 32.8679 
*END

*D_NET *406 0.00376273
*CONN
*I *2136:A_N I *D sky130_fd_sc_hd__and3b_1
*I *2138:B I *D sky130_fd_sc_hd__or2_1
*I *2137:B I *D sky130_fd_sc_hd__and2_1
*I *2134:X O *D sky130_fd_sc_hd__and4_1
*CAP
1 *2136:A_N 0.000227238
2 *2138:B 0.000191774
3 *2137:B 0.000488238
4 *2134:X 0
5 *406:10 0.00103038
6 *406:4 0.000577602
7 *2136:A_N *2039:A 1.19402e-05
8 *2136:A_N *2039:B 0
9 *2136:A_N *2329:CLK 1.18064e-05
10 *2136:A_N *500:26 0.000391568
11 *2136:A_N *503:21 0
12 *2137:B *2250:A 0
13 *2137:B *2293:CLK 1.803e-05
14 *2138:B *2039:B 0
15 *2138:B *2039:C 0
16 *2138:B *503:21 0
17 *2138:B *503:25 5.33005e-05
18 *2138:B *611:20 0.00027095
19 *406:10 *2039:C 1.74352e-05
20 *406:10 *2039:D 0.000168303
21 *406:10 *500:22 0
22 *2330:D *2137:B 0.0002121
23 *154:14 *2137:B 2.90384e-05
24 *154:14 *406:10 6.30282e-05
*RES
1 *2134:X *406:4 9.3 
2 *406:4 *406:10 5.60714 
3 *406:10 *2137:B 15.4964 
4 *406:10 *2138:B 22.3 
5 *406:4 *2136:A_N 23.5857 
*END

*D_NET *407 0.00134701
*CONN
*I *2136:B I *D sky130_fd_sc_hd__and3b_1
*I *2135:X O *D sky130_fd_sc_hd__or2_1
*CAP
1 *2136:B 0.000393208
2 *2135:X 0.000393208
3 *2136:B *2406:A 0.000197991
4 *2136:B *500:30 0.000235154
5 *2128:B *2136:B 0.000127446
*RES
1 *2135:X *2136:B 34.3857 
*END

*D_NET *408 0.00350558
*CONN
*I *2140:B I *D sky130_fd_sc_hd__nand2_1
*I *2141:B I *D sky130_fd_sc_hd__or2_1
*I *2139:A_N I *D sky130_fd_sc_hd__and3b_1
*I *2137:X O *D sky130_fd_sc_hd__and2_1
*CAP
1 *2140:B 6.72974e-05
2 *2141:B 0.000424048
3 *2139:A_N 0
4 *2137:X 0.000186215
5 *408:21 0.000652981
6 *408:12 0.000347851
7 *2140:B *2139:B 2.21728e-05
8 *2140:B *466:44 0.000271345
9 *2140:B *611:20 5.41794e-05
10 *2141:B *2025:A 7.6644e-05
11 *2141:B *2139:B 1.0033e-05
12 *2141:B *2141:A 5.71472e-05
13 *2141:B *410:14 7.6644e-05
14 *2141:B *504:19 0
15 *2141:B *504:36 0
16 *2141:B *584:22 0
17 *2141:B *611:20 9.25014e-06
18 *408:12 *616:43 0
19 *408:21 *2139:B 0.000267731
20 *408:21 *410:14 5.33005e-05
21 *2330:D *408:12 2.34969e-05
22 *2331:D *2141:B 1.0033e-05
23 *151:8 *2140:B 0.000271345
24 *151:8 *408:12 9.83442e-05
25 *151:8 *408:21 0.000525519
*RES
1 *2137:X *408:12 21.4964 
2 *408:12 *2139:A_N 9.3 
3 *408:12 *408:21 9.55357 
4 *408:21 *2141:B 21.4429 
5 *408:21 *2140:B 17.1214 
*END

*D_NET *409 0.00154463
*CONN
*I *2139:B I *D sky130_fd_sc_hd__and3b_1
*I *2138:X O *D sky130_fd_sc_hd__or2_1
*CAP
1 *2139:B 0.000529811
2 *2138:X 0.000529811
3 *2139:B *2137:A 3.05522e-05
4 *2139:B *2298:CLK 0
5 *2139:B *410:14 9.11048e-06
6 *2139:B *503:25 6.05161e-06
7 *2139:B *611:20 0.000139362
8 *2140:B *2139:B 2.21728e-05
9 *2141:B *2139:B 1.0033e-05
10 *408:21 *2139:B 0.000267731
*RES
1 *2138:X *2139:B 36.1179 
*END

*D_NET *410 0.00332794
*CONN
*I *2142:B I *D sky130_fd_sc_hd__and3_1
*I *2143:B I *D sky130_fd_sc_hd__xnor2_1
*I *2140:Y O *D sky130_fd_sc_hd__nand2_1
*CAP
1 *2142:B 0
2 *2143:B 0.000526521
3 *2140:Y 0.00049951
4 *410:14 0.00102603
5 *2143:B *2025:C 0
6 *2143:B *2139:C 5.41794e-05
7 *2143:B *2142:C 0.000264663
8 *2143:B *466:59 3.55407e-05
9 *2143:B *466:61 2.14474e-05
10 *2143:B *466:69 0.000117369
11 *2143:B *600:93 5.33005e-05
12 *410:14 *600:93 0.000300607
13 *410:14 *611:20 0.000274288
14 *2139:B *410:14 9.11048e-06
15 *2141:B *410:14 7.6644e-05
16 *151:8 *410:14 1.5424e-05
17 *408:21 *410:14 5.33005e-05
*RES
1 *2140:Y *410:14 25.7464 
2 *410:14 *2143:B 27.1571 
3 *410:14 *2142:B 9.3 
*END

*D_NET *411 0.00101744
*CONN
*I *2142:C I *D sky130_fd_sc_hd__and3_1
*I *2141:X O *D sky130_fd_sc_hd__or2_1
*CAP
1 *2142:C 0.000227544
2 *2141:X 0.000227544
3 *2142:C *2139:C 3.69047e-06
4 *2142:C *2299:CLK 2.89016e-05
5 *2142:C *466:59 0.000114759
6 *2142:C *466:61 0.000148903
7 *2142:C *600:93 1.43625e-06
8 *2143:B *2142:C 0.000264663
*RES
1 *2141:X *2142:C 32.6179 
*END

*D_NET *412 0.00122019
*CONN
*I *2144:B I *D sky130_fd_sc_hd__and2_1
*I *2143:Y O *D sky130_fd_sc_hd__xnor2_1
*CAP
1 *2144:B 0.000331976
2 *2143:Y 0.000331976
3 *2144:B *2026:A 0.000136867
4 *2144:B *2026:C 0
5 *2144:B *466:69 7.6644e-05
6 *2144:B *573:14 0.000139208
7 *2286:D *2144:B 0.000100261
8 *2332:D *2144:B 0.00010326
*RES
1 *2143:Y *2144:B 33.975 
*END

*D_NET *413 0.00380898
*CONN
*I *2152:A3 I *D sky130_fd_sc_hd__o31a_1
*I *2151:Y O *D sky130_fd_sc_hd__nor2_1
*CAP
1 *2152:A3 0.000831359
2 *2151:Y 0.000831359
3 *2152:A3 *677:DIODE 0.000181803
4 *2152:A3 *1969:B2 8.43535e-06
5 *2152:A3 *2152:A2 0.000139913
6 *2152:A3 *2152:B1 2.14658e-05
7 *2095:A2 *2152:A3 0.000836944
8 *2153:B1 *2152:A3 1.02936e-05
9 *2316:D *2152:A3 5.71472e-05
10 *334:68 *2152:A3 0.000876923
11 *379:10 *2152:A3 1.33343e-05
*RES
1 *2151:Y *2152:A3 37.2071 
*END

*D_NET *414 0.00777295
*CONN
*I *2159:B1 I *D sky130_fd_sc_hd__o21a_1
*I *2162:B I *D sky130_fd_sc_hd__and2b_1
*I *2166:B I *D sky130_fd_sc_hd__and3_1
*I *2153:X O *D sky130_fd_sc_hd__o211a_1
*CAP
1 *2159:B1 0.000724368
2 *2162:B 0
3 *2166:B 0.000616468
4 *2153:X 0.000622936
5 *414:16 0.000777758
6 *414:10 0.00150859
7 *2159:B1 *667:DIODE 1.55885e-05
8 *2159:B1 *2164:B1 0.000169451
9 *2159:B1 *601:36 4.58194e-05
10 *2159:B1 *615:165 1.39726e-05
11 *2159:B1 *615:177 0.000800522
12 *2166:B *2166:C 6.33946e-06
13 *2166:B *601:36 0
14 *2166:B *621:173 0
15 *414:10 *2341:CLK 4.56823e-05
16 *414:10 *472:12 3.69697e-05
17 *414:10 *472:14 2.16719e-05
18 *414:10 *615:156 0
19 *414:10 *645:16 9.05964e-05
20 *414:16 *601:36 0
21 *414:16 *615:156 0
22 *414:16 *648:21 5.33433e-05
23 *1996:B *414:10 0.00021387
24 *2045:A *414:10 0.000329351
25 *2081:A3 *2159:B1 4.8671e-05
26 *2091:C1 *2166:B 0
27 *2341:D *414:10 9.0573e-05
28 *2341:D *414:16 0.00020455
29 *170:48 *2166:B 0
30 *170:70 *2166:B 0
31 *271:16 *414:10 0.000191246
32 *286:69 *2159:B1 0.0010122
33 *316:8 *414:10 5.74562e-05
34 *379:8 *414:10 7.49615e-05
*RES
1 *2153:X *414:10 26.7286 
2 *414:10 *414:16 8.30357 
3 *414:16 *2166:B 27.6571 
4 *414:16 *2162:B 9.3 
5 *414:10 *2159:B1 30.8 
*END

*D_NET *415 0.00229263
*CONN
*I *2157:A2 I *D sky130_fd_sc_hd__o21a_1
*I *2158:B2 I *D sky130_fd_sc_hd__a221o_1
*I *2155:A3 I *D sky130_fd_sc_hd__o31a_1
*I *2154:X O *D sky130_fd_sc_hd__and2_1
*CAP
1 *2157:A2 0.000101094
2 *2158:B2 4.94028e-06
3 *2155:A3 0.000300922
4 *2154:X 6.37079e-05
5 *415:16 0.000407505
6 *415:10 0.000266445
7 *2155:A3 *2155:A2 3.18676e-05
8 *2155:A3 *2156:A2 2.56601e-05
9 *2155:A3 *2158:C1 9.25014e-06
10 *2155:A3 *2159:A1 0
11 *2157:A2 *2158:C1 8.46829e-05
12 *2158:B2 *2158:A1 6.26774e-06
13 *415:16 *2158:C1 0.000205856
14 *2089:C *2155:A3 0
15 *2089:D_N *2158:B2 1.28809e-05
16 *2154:B *415:10 0.000148196
17 *2158:B1 *2155:A3 1.76039e-05
18 *2158:B1 *415:16 2.16719e-05
19 *2163:A1 *415:16 5.52302e-05
20 *282:10 *2157:A2 0.000268403
21 *282:10 *415:16 4.18895e-05
22 *316:34 *415:10 0
23 *316:34 *415:16 4.29272e-05
24 *364:12 *2155:A3 0
25 *373:10 *415:10 0.000170661
26 *373:10 *415:16 4.97121e-06
*RES
1 *2154:X *415:10 20.55 
2 *415:10 *415:16 7.69643 
3 *415:16 *2155:A3 18.8357 
4 *415:16 *2158:B2 13.9295 
5 *415:10 *2157:A2 11.8893 
*END

*D_NET *416 0.00026768
*CONN
*I *2156:A2 I *D sky130_fd_sc_hd__o21a_1
*I *2155:X O *D sky130_fd_sc_hd__o31a_1
*CAP
1 *2156:A2 9.33951e-05
2 *2155:X 9.33951e-05
3 *2156:A2 *540:52 5.52302e-05
4 *2155:A3 *2156:A2 2.56601e-05
5 *364:12 *2156:A2 0
*RES
1 *2155:X *2156:A2 29.1714 
*END

*D_NET *417 0.000817583
*CONN
*I *2159:A1 I *D sky130_fd_sc_hd__o21a_1
*I *2156:X O *D sky130_fd_sc_hd__o21a_1
*CAP
1 *2159:A1 0.000201243
2 *2156:X 0.000201243
3 *2159:A1 *2164:B1 5.52238e-05
4 *2159:A1 *621:203 0.000218734
5 *2155:A3 *2159:A1 0
6 *2158:B1 *2159:A1 0
7 *286:69 *2159:A1 4.87854e-05
8 *316:34 *2159:A1 5.94737e-05
9 *364:12 *2159:A1 3.28804e-05
*RES
1 *2156:X *2159:A1 32.6179 
*END

*D_NET *418 0.000692941
*CONN
*I *2158:C1 I *D sky130_fd_sc_hd__a221o_1
*I *2157:X O *D sky130_fd_sc_hd__o21a_1
*CAP
1 *2158:C1 0.000176938
2 *2157:X 0.000176938
3 *2158:C1 *579:26 0
4 *2089:C *2158:C1 0
5 *2155:A3 *2158:C1 9.25014e-06
6 *2157:A2 *2158:C1 8.46829e-05
7 *373:10 *2158:C1 3.92757e-05
8 *415:16 *2158:C1 0.000205856
*RES
1 *2157:X *2158:C1 30.9036 
*END

*D_NET *419 0.00055204
*CONN
*I *2159:A2 I *D sky130_fd_sc_hd__o21a_1
*I *2158:X O *D sky130_fd_sc_hd__a221o_1
*CAP
1 *2159:A2 0.000162042
2 *2158:X 0.000162042
3 *2159:A2 *2164:B1 5.52238e-05
4 *2159:A2 *615:177 0
5 *2159:A2 *621:203 7.6644e-05
6 *2158:B1 *2159:A2 9.60875e-05
*RES
1 *2158:X *2159:A2 30.1179 
*END

*D_NET *420 0.00160057
*CONN
*I *2161:A3 I *D sky130_fd_sc_hd__o32a_1
*I *2160:X O *D sky130_fd_sc_hd__or3_1
*CAP
1 *2161:A3 0.000443737
2 *2160:X 0.000443737
3 *2161:A3 *540:69 0
4 *2161:A3 *546:23 5.52238e-05
5 *2161:A3 *546:31 0.000281843
6 *2161:A3 *554:59 5.80706e-06
7 *2092:B1_N *2161:A3 0.000172375
8 *2161:A1 *2161:A3 0.000105582
9 *2164:A1 *2161:A3 0
10 *361:18 *2161:A3 0
11 *367:12 *2161:A3 9.22701e-05
*RES
1 *2160:X *2161:A3 37.0643 
*END

*D_NET *421 0.00264485
*CONN
*I *2162:A_N I *D sky130_fd_sc_hd__and2b_1
*I *2161:X O *D sky130_fd_sc_hd__o32a_1
*CAP
1 *2162:A_N 0.000478544
2 *2161:X 0.000478544
3 *2162:A_N *2084:A 4.27935e-05
4 *2162:A_N *2084:B 2.14757e-05
5 *2162:A_N *601:36 0.000111562
6 *2162:A_N *621:167 0.000446597
7 *2162:A_N *621:197 0.000266479
8 *2162:A_N *648:21 0.00049041
9 *2090:C_N *2162:A_N 5.52238e-05
10 *2093:A2 *2162:A_N 0.000150847
11 *2342:D *2162:A_N 8.00806e-05
12 *320:6 *2162:A_N 2.22891e-05
*RES
1 *2161:X *2162:A_N 40.6536 
*END

*D_NET *422 0.0016367
*CONN
*I *2164:B1 I *D sky130_fd_sc_hd__a31o_1
*I *2163:X O *D sky130_fd_sc_hd__a32o_1
*CAP
1 *2164:B1 0.00037771
2 *2163:X 0.00037771
3 *2164:B1 *615:177 0.000386079
4 *2159:A1 *2164:B1 5.52238e-05
5 *2159:A2 *2164:B1 5.52238e-05
6 *2159:B1 *2164:B1 0.000169451
7 *286:69 *2164:B1 4.69993e-05
8 *361:18 *2164:B1 0.000168301
*RES
1 *2163:X *2164:B1 37.0286 
*END

*D_NET *423 0.000546443
*CONN
*I *2165:B1 I *D sky130_fd_sc_hd__a31o_1
*I *2164:X O *D sky130_fd_sc_hd__a31o_1
*CAP
1 *2165:B1 0.000122857
2 *2164:X 0.000122857
3 *2165:B1 *2155:A1 1.02504e-05
4 *2165:B1 *2156:B1 0.000125724
5 *2165:B1 *540:52 9.60875e-05
6 *2165:B1 *554:96 1.02504e-05
7 *2082:A *2165:B1 5.84171e-05
*RES
1 *2164:X *2165:B1 30.1893 
*END

*D_NET *424 0.00339784
*CONN
*I *2166:C I *D sky130_fd_sc_hd__and3_1
*I *2165:X O *D sky130_fd_sc_hd__a31o_1
*CAP
1 *2166:C 0.0010117
2 *2165:X 0.0010117
3 *2166:C *2155:A1 0
4 *2166:C *2156:B1 9.20553e-05
5 *2166:C *554:96 2.05484e-05
6 *2166:C *615:177 2.1527e-05
7 *2076:B1 *2166:C 1.73279e-05
8 *2078:B *2166:C 2.16719e-05
9 *2164:A1 *2166:C 5.41794e-05
10 *2164:A2 *2166:C 3.25078e-05
11 *2164:A3 *2166:C 5.59013e-05
12 *2165:A2 *2166:C 8.43535e-06
13 *2165:A3 *2166:C 1.24368e-05
14 *2166:A *2166:C 0.000137983
15 *2166:B *2166:C 6.33946e-06
16 *355:21 *2166:C 7.81028e-05
17 *375:12 *2166:C 0.000815421
*RES
1 *2165:X *2166:C 42.6714 
*END

*D_NET *425 0.000808458
*CONN
*I *2170:B1 I *D sky130_fd_sc_hd__a2111o_1
*I *2167:X O *D sky130_fd_sc_hd__a2bb2o_1
*CAP
1 *2170:B1 0.000133279
2 *2167:X 0.000133279
3 *2170:B1 *2169:B2 3.69697e-05
4 *2170:B1 *2170:C1 5.52302e-05
5 *2170:B1 *2172:C1 0.000175519
6 *2170:B1 *621:36 0.000267807
7 *2170:B1 *651:55 6.37408e-06
*RES
1 *2167:X *2170:B1 31.6 
*END

*D_NET *426 0.000458705
*CONN
*I *2172:B1 I *D sky130_fd_sc_hd__a211o_1
*I *2168:Y O *D sky130_fd_sc_hd__o22ai_1
*CAP
1 *2172:B1 0.00011112
2 *2168:Y 0.00011112
3 *2172:B1 *2172:C1 7.02999e-05
4 *2172:B1 *621:34 0.000146876
5 *2168:B2 *2172:B1 1.92905e-05
*RES
1 *2168:Y *2172:B1 30.0821 
*END

*D_NET *427 0.000620399
*CONN
*I *2170:C1 I *D sky130_fd_sc_hd__a2111o_1
*I *2169:Y O *D sky130_fd_sc_hd__o22ai_1
*CAP
1 *2170:C1 0.000203697
2 *2169:Y 0.000203697
3 *2170:C1 *2169:B2 8.66164e-05
4 *2170:C1 *2170:D1 2.89016e-05
5 *2169:B1 *2170:C1 4.22563e-05
6 *2170:B1 *2170:C1 5.52302e-05
*RES
1 *2169:Y *2170:C1 22.1536 
*END

*D_NET *428 0.000405029
*CONN
*I *2171:C1 I *D sky130_fd_sc_hd__a221o_1
*I *2170:X O *D sky130_fd_sc_hd__a2111o_1
*CAP
1 *2171:C1 0.00017621
2 *2170:X 0.00017621
3 *2171:C1 *465:129 0
4 *2171:C1 *651:27 0
5 *2171:B1 *2171:C1 5.26091e-05
*RES
1 *2170:X *2171:C1 30.0821 
*END

*D_NET *429 0.0021232
*CONN
*I *2172:C1 I *D sky130_fd_sc_hd__a211o_1
*I *2171:X O *D sky130_fd_sc_hd__a221o_1
*CAP
1 *2172:C1 0.000355315
2 *2171:X 0.000355315
3 *2172:C1 *465:171 1.07719e-05
4 *2172:C1 *472:55 2.89016e-05
5 *2172:C1 *621:34 6.62299e-06
6 *2172:C1 *621:36 0.000234036
7 *2172:C1 *651:40 5.52302e-05
8 *2172:C1 *651:55 0.000802292
9 *2170:B1 *2172:C1 0.000175519
10 *2172:B1 *2172:C1 7.02999e-05
11 *273:42 *2172:C1 2.89016e-05
*RES
1 *2171:X *2172:C1 39.1179 
*END

*D_NET *430 0.00426646
*CONN
*I *2386:A I *D sky130_fd_sc_hd__clkbuf_2
*I *2385:A I *D sky130_fd_sc_hd__buf_2
*I *2172:X O *D sky130_fd_sc_hd__a211o_1
*CAP
1 *2386:A 0.000422062
2 *2385:A 0.000152106
3 *2172:X 0.000813639
4 *430:10 0.00138781
5 *2385:A *604:122 0.000195386
6 *2386:A *2208:B1 0.000256698
7 *2386:A *2213:A 0
8 *2386:A *603:16 0.000271345
9 *2386:A *604:122 0.000113005
10 *2386:A *605:25 1.76135e-05
11 *430:10 *1933:A 0.000149911
12 *430:10 *2424:A 0
13 *430:10 *490:65 0.000138005
14 *430:10 *621:34 0
15 *2000:A2 *430:10 0.000232066
16 *2176:C *430:10 0
17 *169:12 *430:10 2.84009e-05
18 *272:10 *430:10 3.25247e-05
19 *291:99 *2386:A 0
20 *296:48 *430:10 5.58941e-05
21 *360:16 *430:10 0
*RES
1 *2172:X *430:10 34.8179 
2 *430:10 *2385:A 12.7107 
3 *430:10 *2386:A 27.8536 
*END

*D_NET *431 0.00139995
*CONN
*I *2187:B I *D sky130_fd_sc_hd__nor2_1
*I *2185:A I *D sky130_fd_sc_hd__or2_1
*I *2173:X O *D sky130_fd_sc_hd__and3_1
*CAP
1 *2187:B 8.44246e-05
2 *2185:A 0.000333838
3 *2173:X 0
4 *431:6 0.000418262
5 *2185:A *1971:A 6.42242e-05
6 *2185:A *2173:B 5.80706e-06
7 *2185:A *2185:B 0
8 *2185:A *2186:A1 0.000156946
9 *2185:A *486:49 3.57844e-05
10 *2187:B *2173:B 7.48356e-05
11 *2187:B *2184:A2 5.03772e-05
12 *2187:B *2186:B1 9.71197e-05
13 *2187:B *486:49 7.83366e-05
*RES
1 *2173:X *431:6 13.8 
2 *431:6 *2185:A 19.3714 
3 *431:6 *2187:B 16.6929 
*END

*D_NET *432 0.00878871
*CONN
*I *2190:B I *D sky130_fd_sc_hd__xnor2_1
*I *2176:D I *D sky130_fd_sc_hd__and4_1
*I *2192:A2 I *D sky130_fd_sc_hd__a21oi_1
*I *2175:C I *D sky130_fd_sc_hd__and3_1
*I *2188:A I *D sky130_fd_sc_hd__or2_1
*I *2174:X O *D sky130_fd_sc_hd__and4_1
*CAP
1 *2190:B 0.000108279
2 *2176:D 0.000400075
3 *2192:A2 1.67212e-05
4 *2175:C 0
5 *2188:A 4.62133e-05
6 *2174:X 0.00017915
7 *432:47 0.00079408
8 *432:36 0.000464802
9 *432:25 0.00113604
10 *432:12 0.00119905
11 *2176:D *2176:B 0
12 *2176:D *2204:A_N 0.000123852
13 *2176:D *489:14 3.17148e-05
14 *2176:D *560:100 0
15 *2188:A *2189:A2 6.05161e-06
16 *2188:A *2346:CLK 9.60875e-05
17 *2190:B *2191:A2 0
18 *2190:B *489:14 0.000216064
19 *2190:B *490:55 0
20 *2192:A2 *2175:B 1.04232e-05
21 *432:12 *2189:A2 0.000121573
22 *432:12 *479:40 0.000101545
23 *432:12 *603:70 0.000171375
24 *432:12 *603:83 0.000148903
25 *432:25 *1983:A 0.000173157
26 *432:25 *2189:A2 1.98839e-05
27 *432:25 *2346:CLK 5.52302e-05
28 *432:25 *488:10 2.59355e-05
29 *432:36 *1983:A 0.00010858
30 *432:36 *2175:B 6.54622e-05
31 *432:36 *2192:A1 5.52238e-05
32 *432:36 *490:16 4.38128e-05
33 *432:47 *2175:B 0.000117563
34 *432:47 *2176:B 5.33005e-05
35 *432:47 *2192:A1 0.000125547
36 *432:47 *2201:A 0.000358971
37 *432:47 *2201:B 0.000235242
38 *432:47 *489:16 0.00135003
39 *432:47 *490:55 7.12625e-05
40 *432:47 *493:12 0.000387404
41 *2176:C *2176:D 5.62995e-05
42 *2346:D *432:25 1.64343e-05
43 *163:18 *432:12 4.21584e-05
44 *169:12 *2190:B 0
45 *291:63 *432:12 5.52238e-05
*RES
1 *2174:X *432:12 22.9071 
2 *432:12 *2188:A 10.2464 
3 *432:12 *432:25 14.875 
4 *432:25 *2175:C 9.3 
5 *432:25 *432:36 3.21429 
6 *432:36 *2192:A2 9.72857 
7 *432:36 *432:47 19 
8 *432:47 *2176:D 20.9429 
9 *432:47 *2190:B 16.6571 
*END

*D_NET *433 0.00395364
*CONN
*I *2193:A I *D sky130_fd_sc_hd__or2_1
*I *2197:C I *D sky130_fd_sc_hd__and3_1
*I *2195:B I *D sky130_fd_sc_hd__xnor2_1
*I *2198:A2 I *D sky130_fd_sc_hd__a21oi_1
*I *2175:X O *D sky130_fd_sc_hd__and3_1
*CAP
1 *2193:A 0.000156356
2 *2197:C 0.0004137
3 *2195:B 0.000219704
4 *2198:A2 5.95588e-05
5 *2175:X 0
6 *433:19 0.000633404
7 *433:8 0.000259188
8 *433:6 0.000355986
9 *2193:A *706:DIODE 7.77751e-05
10 *2193:A *2194:A2 9.90431e-05
11 *2193:A *465:81 0.000154762
12 *2193:A *490:10 0
13 *2193:A *541:12 0
14 *2195:B *2196:A1 0.000180188
15 *2195:B *2196:A2 9.28838e-05
16 *2195:B *603:47 0.000114824
17 *2197:C *2197:A 1.39841e-05
18 *2197:C *2199:A 0.000139907
19 *2197:C *2200:A2 3.41484e-05
20 *2197:C *603:47 2.38723e-05
21 *2198:A2 *1983:A 6.42338e-05
22 *2198:A2 *465:81 0.000125717
23 *433:8 *1983:A 0.000208069
24 *433:8 *465:81 0.000507042
25 *433:8 *541:12 0
26 *2349:D *2195:B 1.92905e-05
*RES
1 *2175:X *433:6 13.8 
2 *433:6 *433:8 6.5 
3 *433:8 *2198:A2 15.4429 
4 *433:8 *433:19 4.5 
5 *433:19 *2195:B 14.8179 
6 *433:19 *2197:C 14.2375 
7 *433:6 *2193:A 17.8179 
*END

*D_NET *434 0.00479599
*CONN
*I *2211:A3 I *D sky130_fd_sc_hd__a31oi_1
*I *2178:D I *D sky130_fd_sc_hd__and4_1
*I *2177:B I *D sky130_fd_sc_hd__nand2_1
*I *2206:B I *D sky130_fd_sc_hd__or2_1
*I *2204:A_N I *D sky130_fd_sc_hd__nand2b_1
*I *2176:X O *D sky130_fd_sc_hd__and4_1
*CAP
1 *2211:A3 0
2 *2178:D 6.48655e-05
3 *2177:B 7.18529e-05
4 *2206:B 0.000243122
5 *2204:A_N 0.000288419
6 *2176:X 0
7 *434:60 0.000167511
8 *434:47 0.000448334
9 *434:25 0.000640857
10 *434:4 0.000754856
11 *2177:B *2211:A1 2.65105e-05
12 *2177:B *2211:A2 5.52302e-05
13 *2177:B *2212:A2 5.83688e-05
14 *2177:B *2212:B1 0
15 *2177:B *435:10 1.3701e-05
16 *2178:D *2211:A2 7.5779e-05
17 *2178:D *2211:B1 0
18 *2178:D *2212:A1 1.01417e-05
19 *2178:D *2212:B1 1.43288e-05
20 *2204:A_N *490:55 0
21 *2204:A_N *560:100 0
22 *2206:B *2008:A1 0
23 *2206:B *2208:B1 0.00016345
24 *2206:B *2212:A1 3.18704e-07
25 *2206:B *480:44 9.71197e-05
26 *2206:B *603:16 0.000162282
27 *434:25 *2176:A 5.33005e-05
28 *434:25 *2213:A 0.000262394
29 *434:25 *2213:B 0.00019782
30 *434:47 *2211:A1 5.23443e-05
31 *434:47 *2211:A2 1.02821e-05
32 *434:47 *2211:B1 5.74659e-05
33 *434:47 *2212:A2 0.000144773
34 *434:47 *2212:B1 1.24368e-05
35 *434:47 *2213:B 0.000165127
36 *434:47 *605:25 0
37 *434:60 *2008:A1 0
38 *434:60 *2212:A1 1.52978e-05
39 *434:60 *2212:B1 5.80706e-06
40 *2176:C *2204:A_N 7.28341e-05
41 *2176:C *434:25 0.000144773
42 *2176:D *2204:A_N 0.000123852
43 *291:95 *2204:A_N 0.000120439
*RES
1 *2176:X *434:4 9.3 
2 *434:4 *2204:A_N 24.3893 
3 *434:4 *434:25 9.71429 
4 *434:25 *434:47 10.1696 
5 *434:47 *2206:B 19.5411 
6 *434:47 *434:60 0.544643 
7 *434:60 *2177:B 15.5857 
8 *434:60 *2178:D 15.1393 
9 *434:25 *2211:A3 9.3 
*END

*D_NET *435 0.00193662
*CONN
*I *2209:B I *D sky130_fd_sc_hd__xor2_1
*I *2207:A I *D sky130_fd_sc_hd__nand2_1
*I *2177:Y O *D sky130_fd_sc_hd__nand2_1
*CAP
1 *2209:B 0
2 *2207:A 0.000306311
3 *2177:Y 0.000173532
4 *435:10 0.000479843
5 *2207:A *2070:B 0.000171368
6 *2207:A *2178:B 0.000123153
7 *2207:A *2207:B 2.15824e-05
8 *2207:A *2208:A2 1.15172e-05
9 *2207:A *2211:A1 3.17148e-05
10 *2207:A *465:191 0.000218491
11 *2207:A *489:75 0.000266659
12 *435:10 *2209:A 1.5546e-05
13 *435:10 *2210:A2 0
14 *435:10 *2211:A1 6.23362e-05
15 *435:10 *2212:A2 0
16 *435:10 *481:52 4.08637e-05
17 *2177:B *435:10 1.3701e-05
*RES
1 *2177:Y *435:10 12.3357 
2 *435:10 *2207:A 26.3357 
3 *435:10 *2209:B 9.3 
*END

*D_NET *436 0.00407478
*CONN
*I *2212:A1 I *D sky130_fd_sc_hd__o21a_1
*I *2214:B I *D sky130_fd_sc_hd__xnor2_1
*I *2179:C I *D sky130_fd_sc_hd__and3_1
*I *2216:A2 I *D sky130_fd_sc_hd__a21oi_1
*I *2178:X O *D sky130_fd_sc_hd__and4_1
*CAP
1 *2212:A1 0.000250392
2 *2214:B 0.000127705
3 *2179:C 6.91245e-05
4 *2216:A2 0
5 *2178:X 0
6 *436:14 0.000205173
7 *436:10 0.000805773
8 *436:4 0.000792411
9 *2179:C *2179:B 5.23057e-05
10 *2179:C *2217:B1 7.67669e-05
11 *2179:C *605:49 0.000232932
12 *2212:A1 *2008:A1 9.37128e-05
13 *2212:A1 *2211:A2 7.5779e-05
14 *2212:A1 *473:24 4.51526e-05
15 *2212:A1 *480:16 0.00015656
16 *2212:A1 *483:23 2.26327e-05
17 *2214:B *2214:A 9.76491e-05
18 *2214:B *2215:A2 0.000166976
19 *2214:B *473:48 0.000102197
20 *2214:B *483:21 0
21 *436:10 *2215:A1 0.000125717
22 *436:10 *2215:A2 1.02504e-05
23 *436:10 *473:24 4.01768e-05
24 *436:10 *483:23 0
25 *436:10 *605:25 0
26 *436:14 *2179:B 1.92905e-05
27 *436:14 *605:34 9.90431e-05
28 *436:14 *605:49 0.000317082
29 *2178:D *2212:A1 1.01417e-05
30 *2206:B *2212:A1 3.18704e-07
31 *2356:D *2214:B 6.42242e-05
32 *434:60 *2212:A1 1.52978e-05
*RES
1 *2178:X *436:4 9.3 
2 *436:4 *436:10 14.375 
3 *436:10 *436:14 8.32143 
4 *436:14 *2216:A2 9.3 
5 *436:14 *2179:C 12.5143 
6 *436:10 *2214:B 18.1214 
7 *436:4 *2212:A1 23.2286 
*END

*D_NET *437 0.00287637
*CONN
*I *2217:A2 I *D sky130_fd_sc_hd__a211oi_1
*I *2218:A2 I *D sky130_fd_sc_hd__o21ba_1
*I *2180:B I *D sky130_fd_sc_hd__nand2_2
*I *2179:X O *D sky130_fd_sc_hd__and3_1
*CAP
1 *2217:A2 3.25667e-05
2 *2218:A2 0.000417741
3 *2180:B 0
4 *2179:X 0.000213551
5 *437:18 0.000512201
6 *437:12 0.000340577
7 *2218:A2 *2218:A1 0
8 *2218:A2 *484:14 0.000438128
9 *2218:A2 *485:10 0.000103334
10 *2218:A2 *485:14 0.000449539
11 *437:12 *2210:B1 3.61224e-05
12 *437:12 *605:49 2.44318e-05
13 *437:18 *2210:B1 5.58941e-05
14 *437:18 *484:14 5.71472e-05
15 *437:18 *485:14 5.52302e-05
16 *2357:D *437:12 0.000139907
17 *2358:D *2218:A2 0
*RES
1 *2179:X *437:12 16.7911 
2 *437:12 *437:18 6.52679 
3 *437:18 *2180:B 9.3 
4 *437:18 *2218:A2 29.6393 
5 *437:12 *2217:A2 14.3804 
*END

*D_NET *438 0.0092588
*CONN
*I *2212:B1 I *D sky130_fd_sc_hd__o21a_1
*I *2205:A1 I *D sky130_fd_sc_hd__a21oi_1
*I *2210:A1 I *D sky130_fd_sc_hd__a21oi_1
*I *2384:A I *D sky130_fd_sc_hd__buf_2
*I *2215:A1 I *D sky130_fd_sc_hd__a21oi_1
*I *2180:Y O *D sky130_fd_sc_hd__nand2_2
*CAP
1 *2212:B1 6.90088e-05
2 *2205:A1 0.00173493
3 *2210:A1 0
4 *2384:A 0.000205449
5 *2215:A1 0.000387882
6 *2180:Y 0
7 *438:49 0.00251129
8 *438:25 0.000240489
9 *438:23 0.00107418
10 *438:4 0.000719665
11 *2205:A1 *2352:CLK 4.55333e-05
12 *2205:A1 *471:125 2.35167e-05
13 *2205:A1 *604:12 9.25014e-06
14 *2212:B1 *2211:A2 2.89114e-05
15 *2212:B1 *2211:B1 1.78394e-05
16 *2212:B1 *2212:A2 2.93083e-05
17 *2215:A1 *2216:B1 0.000195386
18 *2215:A1 *483:23 0
19 *2215:A1 *484:14 0.000316184
20 *2215:A1 *489:75 0.000241294
21 *2215:A1 *605:34 5.33005e-05
22 *2384:A *2208:A2 0.000120645
23 *2384:A *2208:B1 2.97137e-05
24 *2384:A *2354:CLK 4.1331e-06
25 *2384:A *481:12 0
26 *2384:A *603:6 0.00010096
27 *438:23 *2070:A 0.000609761
28 *438:23 *2070:B 0
29 *438:23 *2208:A2 0.000121714
30 *438:23 *2210:B1 4.96991e-05
31 *438:23 *465:191 0
32 *438:25 *2208:A2 2.69154e-05
33 *438:25 *2210:B1 2.05413e-05
34 *438:25 *2354:CLK 9.10431e-06
35 *2177:B *2212:B1 0
36 *2178:D *2212:B1 1.43288e-05
37 *2352:D *2205:A1 2.46387e-05
38 *2353:D *2384:A 1.32552e-05
39 *164:16 *2205:A1 6.60111e-05
40 *356:10 *2384:A 0
41 *434:47 *2212:B1 1.24368e-05
42 *434:60 *2212:B1 5.80706e-06
43 *436:10 *2215:A1 0.000125717
*RES
1 *2180:Y *438:4 9.3 
2 *438:4 *2215:A1 28.4071 
3 *438:4 *438:23 13.5804 
4 *438:23 *438:25 0.883929 
5 *438:25 *2384:A 18.3357 
6 *438:25 *2210:A1 13.8 
7 *438:23 *438:49 4.7542 
8 *438:49 *2205:A1 22.1358 
9 *438:49 *2212:B1 18.7546 
*END

*D_NET *439 0.00123462
*CONN
*I *2183:A2 I *D sky130_fd_sc_hd__a21oi_1
*I *2182:Y O *D sky130_fd_sc_hd__xnor2_1
*CAP
1 *2183:A2 0.000357799
2 *2182:Y 0.000357799
3 *2183:A2 *2182:A 0
4 *2183:A2 *471:36 5.71472e-05
5 *2183:A2 *486:25 1.41706e-05
6 *2183:A2 *560:76 1.33125e-05
7 *2343:D *2183:A2 0.000103267
8 *2344:D *2183:A2 0.000331122
*RES
1 *2182:Y *2183:A2 35.3679 
*END

*D_NET *440 0.000979887
*CONN
*I *2185:B I *D sky130_fd_sc_hd__or2_1
*I *2184:Y O *D sky130_fd_sc_hd__a21oi_1
*CAP
1 *2185:B 0.000280455
2 *2184:Y 0.000280455
3 *2185:B *1974:A 0
4 *2185:B *2173:B 3.69697e-05
5 *2185:B *2184:A2 9.41642e-05
6 *2185:B *560:76 0.000287842
7 *2185:A *2185:B 0
*RES
1 *2184:Y *2185:B 32.3143 
*END

*D_NET *441 9.34293e-05
*CONN
*I *2186:A2 I *D sky130_fd_sc_hd__a21oi_1
*I *2185:X O *D sky130_fd_sc_hd__or2_1
*CAP
1 *2186:A2 1.8141e-05
2 *2185:X 1.8141e-05
3 *2186:A2 *2186:A1 5.71472e-05
*RES
1 *2185:X *2186:A2 19.1357 
*END

*D_NET *442 0.000220742
*CONN
*I *2188:B I *D sky130_fd_sc_hd__or2_1
*I *2187:Y O *D sky130_fd_sc_hd__nor2_1
*CAP
1 *2188:B 5.32588e-05
2 *2187:Y 5.32588e-05
3 *2188:B *479:25 0.000104974
4 *2188:B *486:49 9.25014e-06
5 *2188:B *560:76 0
*RES
1 *2187:Y *2188:B 28.9393 
*END

*D_NET *443 0.0004664
*CONN
*I *2189:A2 I *D sky130_fd_sc_hd__a21oi_1
*I *2188:X O *D sky130_fd_sc_hd__or2_1
*CAP
1 *2189:A2 9.78015e-05
2 *2188:X 9.78015e-05
3 *2188:A *2189:A2 6.05161e-06
4 *163:18 *2189:A2 0.000123288
5 *432:12 *2189:A2 0.000121573
6 *432:25 *2189:A2 1.98839e-05
*RES
1 *2188:X *2189:A2 29.7786 
*END

*D_NET *444 0.000453014
*CONN
*I *2191:A2 I *D sky130_fd_sc_hd__a21oi_1
*I *2190:Y O *D sky130_fd_sc_hd__xnor2_1
*CAP
1 *2191:A2 0.000161796
2 *2190:Y 0.000161796
3 *2191:A2 *473:44 1.92789e-05
4 *2191:A2 *489:8 5.19842e-06
5 *2191:A2 *490:55 5.83233e-05
6 *2190:B *2191:A2 0
7 *169:12 *2191:A2 4.66203e-05
*RES
1 *2190:Y *2191:A2 30.4929 
*END

*D_NET *445 0.000456056
*CONN
*I *2193:B I *D sky130_fd_sc_hd__or2_1
*I *2192:Y O *D sky130_fd_sc_hd__a21oi_1
*CAP
1 *2193:B 9.66972e-05
2 *2192:Y 9.66972e-05
3 *2193:B *2175:B 2.89114e-05
4 *2193:B *490:10 0.000150625
5 *2193:B *490:55 9.25014e-06
6 *168:12 *2193:B 7.38748e-05
*RES
1 *2192:Y *2193:B 30.0821 
*END

*D_NET *446 0.000512908
*CONN
*I *2194:A2 I *D sky130_fd_sc_hd__a21oi_1
*I *2193:X O *D sky130_fd_sc_hd__or2_1
*CAP
1 *2194:A2 0.000206932
2 *2193:X 0.000206932
3 *2194:A2 *490:10 0
4 *2194:A2 *541:12 0
5 *2193:A *2194:A2 9.90431e-05
6 *168:12 *2194:A2 0
*RES
1 *2193:X *2194:A2 30.6 
*END

*D_NET *447 0.000192977
*CONN
*I *2196:A2 I *D sky130_fd_sc_hd__a21oi_1
*I *2195:Y O *D sky130_fd_sc_hd__xnor2_1
*CAP
1 *2196:A2 3.86757e-05
2 *2195:Y 3.86757e-05
3 *2196:A2 *603:47 2.27416e-05
4 *2195:B *2196:A2 9.28838e-05
*RES
1 *2195:Y *2196:A2 19.8679 
*END

*D_NET *448 0.00422067
*CONN
*I *2201:B I *D sky130_fd_sc_hd__xnor2_1
*I *2199:A I *D sky130_fd_sc_hd__or2_1
*I *2203:A2 I *D sky130_fd_sc_hd__a21o_1
*I *2197:X O *D sky130_fd_sc_hd__and3_1
*CAP
1 *2201:B 0.00023775
2 *2199:A 3.31565e-05
3 *2203:A2 0.000632573
4 *2197:X 0
5 *448:8 0.000692939
6 *448:6 0.00026496
7 *2199:A *2197:A 4.43256e-05
8 *2199:A *2200:A2 5.52238e-05
9 *2201:B *1980:A 0.000290271
10 *2201:B *2175:B 9.82297e-05
11 *2201:B *490:55 0.000448691
12 *2203:A2 *1980:A 0.000388146
13 *2203:A2 *604:12 0.000138994
14 *448:8 *1980:A 7.83659e-05
15 *2197:C *2199:A 0.000139907
16 *2350:D *2203:A2 1.76204e-05
17 *168:12 *2201:B 0.000179863
18 *168:12 *2203:A2 0.000206307
19 *168:12 *448:8 3.81e-05
20 *432:47 *2201:B 0.000235242
*RES
1 *2197:X *448:6 13.8 
2 *448:6 *448:8 1.03571 
3 *448:8 *2203:A2 27.2643 
4 *448:8 *2199:A 15.1571 
5 *448:6 *2201:B 23.1214 
*END

*D_NET *449 0.00056123
*CONN
*I *2199:B I *D sky130_fd_sc_hd__or2_1
*I *2198:Y O *D sky130_fd_sc_hd__a21oi_1
*CAP
1 *2199:B 0.000156147
2 *2198:Y 0.000156147
3 *2199:B *2197:A 0.000100831
4 *2199:B *465:81 0
5 *2199:B *491:30 0.000148106
*RES
1 *2198:Y *2199:B 30.3277 
*END

*D_NET *450 0.000574325
*CONN
*I *2200:A2 I *D sky130_fd_sc_hd__a21oi_1
*I *2199:X O *D sky130_fd_sc_hd__or2_1
*CAP
1 *2200:A2 8.02174e-05
2 *2199:X 8.02174e-05
3 *2200:A2 *2197:A 0.000324518
4 *2197:C *2200:A2 3.41484e-05
5 *2199:A *2200:A2 5.52238e-05
*RES
1 *2199:X *2200:A2 21.1893 
*END

*D_NET *451 0.000741813
*CONN
*I *2202:A2 I *D sky130_fd_sc_hd__a21oi_1
*I *2201:Y O *D sky130_fd_sc_hd__xnor2_1
*CAP
1 *2202:A2 0.000197927
2 *2201:Y 0.000197927
3 *2202:A2 *471:123 0
4 *2202:A2 *471:125 0
5 *2202:A2 *603:39 2.59355e-05
6 *164:16 *2202:A2 0.000320024
*RES
1 *2201:Y *2202:A2 32.2071 
*END

*D_NET *452 0.000707215
*CONN
*I *2204:B I *D sky130_fd_sc_hd__nand2b_1
*I *2203:X O *D sky130_fd_sc_hd__a21o_1
*CAP
1 *2204:B 0.000120406
2 *2203:X 0.000120406
3 *2204:B *494:10 0.00010811
4 *2204:B *560:100 0.000316989
5 *2204:B *620:18 3.74829e-05
6 *291:95 *2204:B 3.82227e-06
*RES
1 *2203:X *2204:B 31.8009 
*END

*D_NET *453 0.000754913
*CONN
*I *2205:A2 I *D sky130_fd_sc_hd__a21oi_1
*I *2204:Y O *D sky130_fd_sc_hd__nand2b_1
*CAP
1 *2205:A2 0.000265925
2 *2204:Y 0.000265925
3 *2205:A2 *2352:CLK 1.52392e-05
4 *2205:A2 *493:23 0
5 *2352:D *2205:A2 6.24566e-05
6 *164:16 *2205:A2 0.000122697
7 *291:95 *2205:A2 2.26714e-05
*RES
1 *2204:Y *2205:A2 31.5643 
*END

*D_NET *454 0.00164879
*CONN
*I *2207:B I *D sky130_fd_sc_hd__nand2_1
*I *2206:X O *D sky130_fd_sc_hd__or2_1
*CAP
1 *2207:B 0.000312797
2 *2206:X 0.000312797
3 *2207:B *2208:A2 0.000237164
4 *2207:B *2374:A 2.59355e-05
5 *2207:B *465:191 0.000471568
6 *2207:A *2207:B 2.15824e-05
7 *356:10 *2207:B 0.00026695
*RES
1 *2206:X *2207:B 36.2964 
*END

*D_NET *455 0.00174162
*CONN
*I *2208:A2 I *D sky130_fd_sc_hd__a21oi_1
*I *2207:Y O *D sky130_fd_sc_hd__nand2_1
*CAP
1 *2208:A2 0.000525451
2 *2207:Y 0.000525451
3 *2207:A *2208:A2 1.15172e-05
4 *2207:B *2208:A2 0.000237164
5 *2384:A *2208:A2 0.000120645
6 *356:10 *2208:A2 0.000172767
7 *438:23 *2208:A2 0.000121714
8 *438:25 *2208:A2 2.69154e-05
*RES
1 *2207:Y *2208:A2 37.8143 
*END

*D_NET *456 0.000312045
*CONN
*I *2210:A2 I *D sky130_fd_sc_hd__a21oi_1
*I *2209:X O *D sky130_fd_sc_hd__xor2_1
*CAP
1 *2210:A2 7.98769e-05
2 *2209:X 7.98769e-05
3 *2210:A2 *481:52 0.000152291
4 *435:10 *2210:A2 0
*RES
1 *2209:X *2210:A2 20.3857 
*END

*D_NET *457 0.000659219
*CONN
*I *2212:A2 I *D sky130_fd_sc_hd__o21a_1
*I *2211:Y O *D sky130_fd_sc_hd__a31oi_1
*CAP
1 *2212:A2 8.66056e-05
2 *2211:Y 8.66056e-05
3 *2212:A2 *2211:A1 0.000246075
4 *2212:A2 *2211:A2 7.48301e-06
5 *2177:B *2212:A2 5.83688e-05
6 *2212:B1 *2212:A2 2.93083e-05
7 *434:47 *2212:A2 0.000144773
8 *435:10 *2212:A2 0
*RES
1 *2211:Y *2212:A2 22.0464 
*END

*D_NET *458 0.00100039
*CONN
*I *2213:B I *D sky130_fd_sc_hd__nor2_1
*I *2212:X O *D sky130_fd_sc_hd__o21a_1
*CAP
1 *2213:B 0.000176381
2 *2212:X 0.000176381
3 *2213:B *2211:A2 0.000229456
4 *2213:B *2211:B1 5.52238e-05
5 *434:25 *2213:B 0.00019782
6 *434:47 *2213:B 0.000165127
*RES
1 *2212:X *2213:B 23.7964 
*END

*D_NET *459 0.00035201
*CONN
*I *2215:A2 I *D sky130_fd_sc_hd__a21oi_1
*I *2214:Y O *D sky130_fd_sc_hd__xnor2_1
*CAP
1 *2215:A2 8.73918e-05
2 *2214:Y 8.73918e-05
3 *2214:B *2215:A2 0.000166976
4 *436:10 *2215:A2 1.02504e-05
*RES
1 *2214:Y *2215:A2 29.85 
*END

*D_NET *460 0.000575774
*CONN
*I *2217:B1 I *D sky130_fd_sc_hd__a211oi_1
*I *2216:Y O *D sky130_fd_sc_hd__a21oi_1
*CAP
1 *2217:B1 0.000126977
2 *2216:Y 0.000126977
3 *2217:B1 *2179:B 0.000144773
4 *2217:B1 *605:49 8.4681e-05
5 *2179:C *2217:B1 7.67669e-05
6 *2357:D *2217:B1 1.56e-05
*RES
1 *2216:Y *2217:B1 22.0107 
*END

*D_NET *461 0.0018768
*CONN
*I *2224:C1 I *D sky130_fd_sc_hd__o211a_1
*I *2222:B1 I *D sky130_fd_sc_hd__o211a_1
*I *2219:X O *D sky130_fd_sc_hd__o21a_1
*CAP
1 *2224:C1 0
2 *2222:B1 0.000273462
3 *2219:X 0.000390311
4 *461:10 0.000663773
5 *2222:B1 *2220:A1 3.43705e-05
6 *2222:B1 *2221:A2 0
7 *2222:B1 *2222:A2 1.02504e-05
8 *2222:B1 *2222:C1 5.80706e-06
9 *2222:B1 *2223:B 0
10 *2222:B1 *462:12 0
11 *461:10 *2223:B 0
12 *461:10 *554:59 3.18676e-05
13 *363:10 *461:10 0.000466957
*RES
1 *2219:X *461:10 21.9607 
2 *461:10 *2222:B1 17.5321 
3 *461:10 *2224:C1 13.8 
*END

*D_NET *462 0.00182285
*CONN
*I *2221:A2 I *D sky130_fd_sc_hd__o21ai_1
*I *2224:A2 I *D sky130_fd_sc_hd__o211a_1
*I *2220:Y O *D sky130_fd_sc_hd__a21boi_1
*CAP
1 *2221:A2 0.000213393
2 *2224:A2 2.29403e-05
3 *2220:Y 0.000139748
4 *462:12 0.000376081
5 *2221:A2 *2220:A1 0.000216121
6 *2221:A2 *2222:A1 0
7 *2221:A2 *2222:A2 0
8 *2221:A2 *2223:B 6.94775e-05
9 *2221:A2 *2224:B1 0.000102197
10 *2221:A2 *2360:CLK 3.99614e-06
11 *2221:A2 *469:115 0.000137983
12 *2221:A2 *559:34 1.39841e-05
13 *2221:A2 *641:16 5.52238e-05
14 *2224:A2 *2224:B1 1.02778e-05
15 *462:12 *2220:A1 0.000140933
16 *462:12 *559:34 1.39726e-05
17 *462:12 *601:36 0
18 *2222:B1 *2221:A2 0
19 *2222:B1 *462:12 0
20 *2224:A1 *462:12 0.000186669
21 *2359:D *2221:A2 3.97677e-05
22 *2360:D *462:12 8.00806e-05
23 *289:35 *2224:A2 0
*RES
1 *2220:Y *462:12 21.8179 
2 *462:12 *2224:A2 9.72857 
3 *462:12 *2221:A2 24.2107 
*END

*D_NET *463 0.00157186
*CONN
*I *2223:B I *D sky130_fd_sc_hd__nand2b_1
*I *2222:C1 I *D sky130_fd_sc_hd__o211a_1
*I *2221:Y O *D sky130_fd_sc_hd__o21ai_1
*CAP
1 *2223:B 0.000141001
2 *2222:C1 0.000290198
3 *2221:Y 0
4 *463:4 0.000431198
5 *2222:C1 *2220:A1 5.80706e-06
6 *2222:C1 *2220:A2 0.000187824
7 *2222:C1 *2220:B1_N 0
8 *2222:C1 *2222:A2 1.46717e-05
9 *2222:C1 *641:16 0.000104622
10 *2223:B *2220:A1 1.25355e-05
11 *2223:B *2221:A1 4.43698e-05
12 *2223:B *2222:A2 0
13 *2223:B *2359:CLK 0.000101545
14 *2223:B *559:34 1.25355e-05
15 *2223:B *641:14 5.41794e-05
16 *2221:A2 *2223:B 6.94775e-05
17 *2222:B1 *2222:C1 5.80706e-06
18 *2222:B1 *2223:B 0
19 *2359:D *2222:C1 9.60875e-05
20 *461:10 *2223:B 0
*RES
1 *2221:Y *463:4 9.3 
2 *463:4 *2222:C1 23.4071 
3 *463:4 *2223:B 21.7196 
*END

*D_NET *464 0.000405112
*CONN
*I *2224:B1 I *D sky130_fd_sc_hd__o211a_1
*I *2223:Y O *D sky130_fd_sc_hd__nand2b_1
*CAP
1 *2224:B1 5.3497e-05
2 *2223:Y 5.3497e-05
3 *2224:B1 *559:34 0.000185643
4 *2221:A2 *2224:B1 0.000102197
5 *2224:A2 *2224:B1 1.02778e-05
*RES
1 *2223:Y *2224:B1 20.7964 
*END

*D_NET *465 0.0369445
*CONN
*I *2374:A I *D sky130_fd_sc_hd__clkbuf_16
*I *708:DIODE I *D sky130_fd_sc_hd__diode_2
*I *2373:A I *D sky130_fd_sc_hd__clkbuf_16
*I *707:DIODE I *D sky130_fd_sc_hd__diode_2
*I *2370:A I *D sky130_fd_sc_hd__clkbuf_16
*I *704:DIODE I *D sky130_fd_sc_hd__diode_2
*I *703:DIODE I *D sky130_fd_sc_hd__diode_2
*I *2369:A I *D sky130_fd_sc_hd__clkbuf_16
*I *700:DIODE I *D sky130_fd_sc_hd__diode_2
*I *2371:A I *D sky130_fd_sc_hd__clkbuf_16
*I *2372:A I *D sky130_fd_sc_hd__clkbuf_16
*I *706:DIODE I *D sky130_fd_sc_hd__diode_2
*I *705:DIODE I *D sky130_fd_sc_hd__diode_2
*I *702:DIODE I *D sky130_fd_sc_hd__diode_2
*I *701:DIODE I *D sky130_fd_sc_hd__diode_2
*I *2367:A I *D sky130_fd_sc_hd__clkbuf_16
*I *2368:A I *D sky130_fd_sc_hd__clkbuf_16
*I *2366:X O *D sky130_fd_sc_hd__clkbuf_16
*CAP
1 *2374:A 3.13685e-05
2 *708:DIODE 0
3 *2373:A 0
4 *707:DIODE 0
5 *2370:A 0.000190017
6 *704:DIODE 0
7 *703:DIODE 0
8 *2369:A 8.37072e-05
9 *700:DIODE 0
10 *2371:A 0.000355745
11 *2372:A 0
12 *706:DIODE 0.000172739
13 *705:DIODE 0
14 *702:DIODE 0
15 *701:DIODE 0.000203984
16 *2367:A 0.0002583
17 *2368:A 4.43665e-05
18 *2366:X 0
19 *465:191 0.000828788
20 *465:178 0.000817336
21 *465:171 0.00165933
22 *465:135 0.000680294
23 *465:129 0.00192621
24 *465:117 0.00289644
25 *465:110 0.000217302
26 *465:81 0.0018496
27 *465:68 0.00210523
28 *465:64 0.00224256
29 *465:33 0.00159389
30 *465:20 0.00125577
31 *465:18 0.000313915
32 *465:16 0.00356469
33 *465:4 0.001972
34 *701:DIODE *600:93 0.000316184
35 *2367:A *2025:A 0.000128875
36 *2367:A *2407:A 0.000186379
37 *2367:A *466:8 5.52238e-05
38 *2367:A *466:40 5.59013e-05
39 *2367:A *600:93 0.000918153
40 *2368:A *467:148 9.90367e-05
41 *2370:A *601:36 3.0544e-05
42 *2371:A *1966:A 0
43 *2371:A *1974:A 9.25014e-06
44 *2371:A *470:6 0.000153463
45 *2371:A *560:76 0
46 *465:16 *615:124 0
47 *465:16 *634:21 0.00011307
48 *465:18 *1955:A2 5.33978e-05
49 *465:18 *2264:A 0
50 *465:18 *640:25 0
51 *465:33 *2021:A 0.000316937
52 *465:33 *2308:CLK 0
53 *465:33 *2329:CLK 0.000281262
54 *465:33 *466:40 0.00016284
55 *465:33 *467:159 0
56 *465:33 *500:26 0.000142093
57 *465:33 *622:32 0
58 *465:64 *1966:A 0
59 *465:64 *2034:A 0
60 *465:64 *2034:B 0
61 *465:64 *2034:C 0.000160403
62 *465:64 *2267:A 0
63 *465:64 *560:40 0
64 *465:64 *560:76 0
65 *465:64 *608:65 0
66 *465:64 *608:71 0
67 *465:64 *636:10 0
68 *465:64 *636:23 0
69 *465:64 *639:10 0.000149911
70 *465:64 *640:25 0
71 *465:81 *1983:A 0.000174876
72 *465:81 *1990:B2 0
73 *465:81 *2197:A 0
74 *465:81 *490:10 0
75 *465:81 *490:14 0
76 *465:81 *492:8 0
77 *465:81 *492:45 0
78 *465:129 *2171:A1 0
79 *465:129 *2310:CLK 0
80 *465:129 *2463:A 6.19181e-05
81 *465:129 *601:36 1.22746e-05
82 *465:129 *607:53 0
83 *465:129 *651:10 0.000224231
84 *465:129 *651:27 0.000228996
85 *465:135 *2463:A 0.000406638
86 *465:135 *509:36 0
87 *465:135 *514:18 0
88 *465:135 *621:52 0
89 *465:171 *1947:B 3.43988e-06
90 *465:171 *1996:A 0.000177948
91 *465:171 *2171:B2 7.70134e-06
92 *465:171 *2341:CLK 0.00012224
93 *465:171 *472:10 8.89385e-05
94 *465:171 *472:12 4.56594e-05
95 *465:171 *472:14 4.75816e-05
96 *465:171 *648:76 2.46196e-05
97 *465:171 *649:45 0.000361932
98 *465:171 *651:27 2.24828e-05
99 *465:171 *651:40 2.65014e-05
100 *465:191 *2070:B 0.000148189
101 *465:191 *2072:B 0
102 *465:191 *2211:A1 2.49484e-05
103 *465:191 *480:48 0.000364953
104 *465:191 *480:54 0.000200413
105 *465:191 *489:75 5.15901e-05
106 *465:191 *615:212 0.00015134
107 *1973:A2 *465:64 0
108 *2000:A2 *465:171 0
109 *2000:A2 *465:178 9.90431e-05
110 *2000:A2 *465:191 0.000186662
111 *2080:A1 *465:191 9.4736e-05
112 *2081:A3 *465:191 0.000288564
113 *2087:A2 *465:191 0
114 *2087:A3 *465:191 5.33978e-05
115 *2126:A *465:135 0.00020304
116 *2126:B *2370:A 3.18676e-05
117 *2127:A_N *465:135 0.000357687
118 *2171:A2 *465:171 7.13226e-06
119 *2171:C1 *465:129 0
120 *2172:C1 *465:171 1.07719e-05
121 *2193:A *706:DIODE 7.77751e-05
122 *2193:A *465:81 0.000154762
123 *2198:A2 *465:81 0.000125717
124 *2199:B *465:81 0
125 *2207:A *465:191 0.000218491
126 *2207:B *2374:A 2.59355e-05
127 *2207:B *465:191 0.000471568
128 *2294:D *465:135 0
129 *2295:D *465:33 0
130 *2296:D *465:33 3.25247e-05
131 *2312:RESET_B *465:64 3.2534e-05
132 *2314:RESET_B *465:64 0
133 *2329:D *465:33 3.57163e-05
134 *2331:D *2367:A 4.74593e-05
135 *2334:D *465:129 0
136 *2341:D *465:171 2.84009e-05
137 *168:12 *465:81 0
138 *170:21 *465:18 0.000148189
139 *170:21 *465:20 5.59013e-05
140 *170:42 *465:16 0.00104261
141 *170:70 *465:171 0
142 *284:19 *465:171 0.000144554
143 *285:12 *465:171 0
144 *287:25 *465:171 0
145 *288:14 *465:171 0.000288557
146 *289:27 *465:129 0
147 *289:35 *465:129 0
148 *295:101 *465:178 5.33433e-05
149 *295:101 *465:191 0.000308538
150 *335:14 *465:171 0
151 *356:10 *465:191 0.00023605
152 *433:8 *465:81 0.000507042
153 *438:23 *465:191 0
*RES
1 *2366:X *465:4 9.3 
2 *465:4 *465:16 20.9353 
3 *465:16 *465:18 4.52679 
4 *465:18 *465:20 1.33929 
5 *465:20 *2368:A 14.7464 
6 *465:20 *465:33 23.7321 
7 *465:33 *2367:A 23.7107 
8 *465:33 *701:DIODE 16.8 
9 *465:18 *702:DIODE 13.8 
10 *465:16 *465:64 25.7768 
11 *465:64 *465:68 9.14286 
12 *465:68 *705:DIODE 9.3 
13 *465:68 *465:81 35.4107 
14 *465:81 *706:DIODE 12.3179 
15 *465:81 *2372:A 9.3 
16 *465:64 *2371:A 20.4786 
17 *465:4 *465:110 1.375 
18 *465:110 *700:DIODE 9.3 
19 *465:110 *465:117 1.35714 
20 *465:117 *465:129 30.9821 
21 *465:129 *465:135 23.6964 
22 *465:135 *2369:A 10.675 
23 *465:135 *703:DIODE 9.3 
24 *465:129 *704:DIODE 9.3 
25 *465:129 *2370:A 11.9071 
26 *465:117 *465:171 35.8393 
27 *465:171 *707:DIODE 9.3 
28 *465:171 *465:178 0.946429 
29 *465:178 *2373:A 9.3 
30 *465:178 *465:191 33.7143 
31 *465:191 *708:DIODE 9.3 
32 *465:191 *2374:A 9.83571 
*END

*D_NET *466 0.0145543
*CONN
*I *2329:CLK I *D sky130_fd_sc_hd__dfxtp_1
*I *2375:A I *D sky130_fd_sc_hd__clkbuf_8
*I *2298:CLK I *D sky130_fd_sc_hd__dfrtp_1
*I *2293:CLK I *D sky130_fd_sc_hd__dfrtp_1
*I *2330:CLK I *D sky130_fd_sc_hd__dfxtp_1
*I *2331:CLK I *D sky130_fd_sc_hd__dfxtp_1
*I *2299:CLK I *D sky130_fd_sc_hd__dfrtp_1
*I *2332:CLK I *D sky130_fd_sc_hd__dfxtp_1
*I *2286:CLK I *D sky130_fd_sc_hd__dfrtp_1
*I *2300:CLK I *D sky130_fd_sc_hd__dfrtp_1
*I *2290:CLK I *D sky130_fd_sc_hd__dfrtp_1
*I *2285:CLK I *D sky130_fd_sc_hd__dfrtp_1
*I *2318:CLK I *D sky130_fd_sc_hd__dfxtp_1
*I *2367:X O *D sky130_fd_sc_hd__clkbuf_16
*CAP
1 *2329:CLK 0.000338485
2 *2375:A 0
3 *2298:CLK 0.000273378
4 *2293:CLK 0.000150675
5 *2330:CLK 0
6 *2331:CLK 2.59948e-05
7 *2299:CLK 0.000417471
8 *2332:CLK 0
9 *2286:CLK 0
10 *2300:CLK 0.000407491
11 *2290:CLK 0.000296183
12 *2285:CLK 0.000346307
13 *2318:CLK 0
14 *2367:X 1.1624e-05
15 *466:128 0.000163042
16 *466:124 0.000461601
17 *466:75 0.000638817
18 *466:69 0.000594038
19 *466:61 0.000892246
20 *466:59 0.000408208
21 *466:57 0.000446006
22 *466:46 0.000329084
23 *466:44 0.000416635
24 *466:40 0.000868708
25 *466:20 0.000712905
26 *466:8 0.000524711
27 *2285:CLK *506:12 0.000199565
28 *2285:CLK *584:22 0.000120114
29 *2285:CLK *600:26 0.000173804
30 *2285:CLK *606:23 0
31 *2285:CLK *622:32 0
32 *2293:CLK *2250:A 0.000105163
33 *2298:CLK *2137:A 0.000227642
34 *2298:CLK *611:20 0
35 *2299:CLK *2256:A 0.000142856
36 *2300:CLK *2484:A 7.20217e-06
37 *2300:CLK *581:16 0.00010409
38 *2329:CLK *2039:A 0
39 *2329:CLK *500:26 0.000146474
40 *2331:CLK *2025:A 2.59355e-05
41 *2331:CLK *584:22 1.58163e-05
42 *466:8 *2407:A 5.52238e-05
43 *466:20 *2039:B 0
44 *466:20 *2101:B 5.33005e-05
45 *466:20 *499:49 0.000200413
46 *466:20 *506:12 2.74192e-05
47 *466:20 *506:16 5.52302e-05
48 *466:20 *506:37 1.00375e-05
49 *466:20 *584:22 0.000117553
50 *466:20 *622:32 0
51 *466:40 *2039:B 0
52 *466:44 *2039:A 9.71197e-05
53 *466:44 *504:36 5.33005e-05
54 *466:59 *2139:C 0.000213154
55 *466:69 *2479:A 4.55132e-05
56 *466:75 *2026:B 5.20751e-05
57 *466:75 *2026:C 5.41794e-05
58 *466:75 *2243:A 0
59 *466:75 *2479:A 0.000228514
60 *466:124 *2137:A 5.37741e-06
61 wb_dat_o[23] *2300:CLK 1.00073e-05
62 *2103:C *2285:CLK 4.03318e-05
63 *2136:A_N *2329:CLK 1.18064e-05
64 *2137:B *2293:CLK 1.803e-05
65 *2139:B *2298:CLK 0
66 *2140:B *466:44 0.000271345
67 *2142:C *2299:CLK 2.89016e-05
68 *2142:C *466:59 0.000114759
69 *2142:C *466:61 0.000148903
70 *2143:B *466:59 3.55407e-05
71 *2143:B *466:61 2.14474e-05
72 *2143:B *466:69 0.000117369
73 *2144:B *466:69 7.6644e-05
74 *2318:D *2285:CLK 5.7298e-05
75 *2329:D *2329:CLK 1.15797e-05
76 *2330:D *2290:CLK 9.0331e-05
77 *2330:D *2293:CLK 4.51416e-05
78 *2330:D *466:46 5.49544e-05
79 *2330:D *466:128 5.71472e-05
80 *2367:A *466:8 5.52238e-05
81 *2367:A *466:40 5.59013e-05
82 *151:8 *2290:CLK 0.000789094
83 *151:8 *466:44 0.00024141
84 *151:8 *466:46 4.60235e-05
85 *154:14 *2293:CLK 0.000267812
86 *154:14 *466:128 1.39726e-05
87 *329:20 *2329:CLK 2.56694e-05
88 *329:20 *466:44 0.00014285
89 *465:33 *2329:CLK 0.000281262
90 *465:33 *466:40 0.00016284
*RES
1 *2367:X *466:8 14.3357 
2 *466:8 *466:20 12.4464 
3 *466:20 *2318:CLK 9.3 
4 *466:20 *2285:CLK 26.3893 
5 *466:8 *466:40 3.16071 
6 *466:40 *466:44 12.8393 
7 *466:44 *466:46 0.946429 
8 *466:46 *2290:CLK 17.2464 
9 *466:46 *466:57 4.5 
10 *466:57 *466:59 5.28571 
11 *466:59 *466:61 2.55357 
12 *466:61 *466:69 10.9643 
13 *466:69 *466:75 9.23214 
14 *466:75 *2300:CLK 20.7107 
15 *466:75 *2286:CLK 13.8 
16 *466:69 *2332:CLK 9.3 
17 *466:61 *2299:CLK 20.9071 
18 *466:59 *2331:CLK 14.3357 
19 *466:57 *466:124 2.60714 
20 *466:124 *466:128 5.03571 
21 *466:128 *2330:CLK 9.3 
22 *466:128 *2293:CLK 14.3714 
23 *466:124 *2298:CLK 18.9429 
24 *466:44 *2375:A 9.3 
25 *466:40 *2329:CLK 20.0679 
*END

*D_NET *467 0.0153628
*CONN
*I *2309:CLK I *D sky130_fd_sc_hd__dfxtp_1
*I *2308:CLK I *D sky130_fd_sc_hd__dfxtp_1
*I *2307:CLK I *D sky130_fd_sc_hd__dfxtp_1
*I *2311:CLK I *D sky130_fd_sc_hd__dfrtp_1
*I *2275:CLK I *D sky130_fd_sc_hd__dfrtp_1
*I *2313:CLK I *D sky130_fd_sc_hd__dfrtp_1
*I *2276:CLK I *D sky130_fd_sc_hd__dfrtp_1
*I *2361:CLK I *D sky130_fd_sc_hd__dfxtp_1
*I *2302:CLK I *D sky130_fd_sc_hd__dfrtp_1
*I *2362:CLK I *D sky130_fd_sc_hd__dfxtp_1
*I *2297:CLK I *D sky130_fd_sc_hd__dfrtp_1
*I *2295:CLK I *D sky130_fd_sc_hd__dfrtp_1
*I *2289:CLK I *D sky130_fd_sc_hd__dfrtp_1
*I *2296:CLK I *D sky130_fd_sc_hd__dfrtp_1
*I *2376:A I *D sky130_fd_sc_hd__clkbuf_4
*I *2368:X O *D sky130_fd_sc_hd__clkbuf_16
*CAP
1 *2309:CLK 0
2 *2308:CLK 0.000288294
3 *2307:CLK 0
4 *2311:CLK 0.000321983
5 *2275:CLK 0
6 *2313:CLK 0.000125985
7 *2276:CLK 0
8 *2361:CLK 1.55834e-05
9 *2302:CLK 0.000515517
10 *2362:CLK 0
11 *2297:CLK 0.000115195
12 *2295:CLK 9.56815e-05
13 *2289:CLK 0.000294098
14 *2296:CLK 0.000561388
15 *2376:A 9.89184e-05
16 *2368:X 0
17 *467:159 0.00040935
18 *467:148 0.000545213
19 *467:114 0.000326283
20 *467:108 0.000494993
21 *467:89 0.000504735
22 *467:76 0.00104203
23 *467:74 0.00076468
24 *467:36 0.00107365
25 *467:32 0.000799064
26 *467:19 0.000710682
27 *467:17 0.000234885
28 *467:15 0.000196231
29 *467:6 0.000123978
30 *467:4 0.000449216
31 *2289:CLK *616:20 0
32 *2289:CLK *616:24 0
33 *2289:CLK *616:37 9.56968e-05
34 *2295:CLK *616:20 0
35 *2296:CLK *2023:A 0.000119279
36 *2296:CLK *2023:B 2.12005e-05
37 *2296:CLK *2488:A 0.000228514
38 *2296:CLK *617:33 0.000128875
39 *2296:CLK *617:37 0.000125724
40 *2296:CLK *617:54 0.000270967
41 *2297:CLK *2253:A 1.14865e-05
42 *2302:CLK *617:20 5.36687e-05
43 *2308:CLK *606:17 6.62752e-05
44 *2308:CLK *607:53 0.000271352
45 *2308:CLK *622:32 0.000146657
46 *2311:CLK *2264:A 0.000226867
47 *2311:CLK *2425:A 0
48 *2311:CLK *617:31 0
49 *2361:CLK *615:36 1.92789e-05
50 *467:17 *617:33 0.000167691
51 *467:19 *617:33 0.000308359
52 *467:36 *2253:A 3.06878e-06
53 *467:36 *2489:A 5.39629e-06
54 *467:74 *617:33 0.000162125
55 *467:76 *2264:A 5.33005e-05
56 *467:76 *617:20 7.524e-05
57 *467:76 *617:31 1.02821e-05
58 *467:89 *2225:B1 4.46186e-06
59 *467:89 *617:20 0
60 *467:89 *617:31 0
61 *467:89 *617:33 0
62 *467:89 *622:14 0
63 *467:89 *622:30 0
64 *467:108 *2225:B1 4.21295e-05
65 *467:108 *2425:A 0
66 *467:108 *615:49 0.000124729
67 *467:114 *615:49 0
68 *467:114 *615:60 0
69 *467:114 *622:14 0.000391561
70 *467:148 *622:30 7.32955e-05
71 *467:159 *622:30 2.14083e-05
72 *467:159 *622:32 6.58195e-05
73 *2276:D *2313:CLK 0.000170964
74 *2296:D *2296:CLK 7.3237e-05
75 *2297:D *467:36 1.58163e-05
76 *2297:RESET_B *2289:CLK 0
77 *2302:D *2302:CLK 3.88139e-05
78 *2302:RESET_B *467:76 2.02844e-05
79 *2361:D *2361:CLK 5.52238e-05
80 *2362:D *467:17 1.19472e-05
81 *2362:D *467:19 4.04221e-05
82 *2368:A *467:148 9.90367e-05
83 *59:21 *467:108 0.00011513
84 *170:21 *2376:A 9.63826e-05
85 *170:21 *467:6 2.12087e-05
86 *170:21 *467:148 0.000963473
87 *291:33 *2311:CLK 0.000238468
88 *465:33 *2308:CLK 0
89 *465:33 *467:159 0
*RES
1 *2368:X *467:4 9.3 
2 *467:4 *467:6 0.535714 
3 *467:6 *2376:A 11.0679 
4 *467:6 *467:15 4.5 
5 *467:15 *467:17 2.25 
6 *467:17 *467:19 4.07143 
7 *467:19 *2296:CLK 26.9429 
8 *467:19 *467:32 4.5 
9 *467:32 *467:36 12.0179 
10 *467:36 *2289:CLK 19.3893 
11 *467:36 *2295:CLK 15.4429 
12 *467:32 *2297:CLK 10.9786 
13 *467:17 *2362:CLK 13.8 
14 *467:15 *467:74 6.75 
15 *467:74 *467:76 4.23214 
16 *467:76 *2302:CLK 15.9071 
17 *467:76 *467:89 7.66071 
18 *467:89 *2361:CLK 14.3357 
19 *467:89 *467:108 10.7143 
20 *467:108 *467:114 13.9821 
21 *467:114 *2276:CLK 9.3 
22 *467:114 *2313:CLK 12.3 
23 *467:108 *2275:CLK 9.3 
24 *467:74 *2311:CLK 23.6393 
25 *467:4 *467:148 10.8214 
26 *467:148 *2307:CLK 9.3 
27 *467:148 *467:159 7.28571 
28 *467:159 *2308:CLK 21.3714 
29 *467:159 *2309:CLK 13.8 
*END

*D_NET *468 0.0174857
*CONN
*I *2324:CLK I *D sky130_fd_sc_hd__dfxtp_1
*I *2323:CLK I *D sky130_fd_sc_hd__dfxtp_1
*I *2322:CLK I *D sky130_fd_sc_hd__dfxtp_1
*I *2321:CLK I *D sky130_fd_sc_hd__dfxtp_1
*I *2377:A I *D sky130_fd_sc_hd__clkbuf_4
*I *2294:CLK I *D sky130_fd_sc_hd__dfrtp_1
*I *2320:CLK I *D sky130_fd_sc_hd__dfxtp_1
*I *2317:CLK I *D sky130_fd_sc_hd__dfxtp_1
*I *2327:CLK I *D sky130_fd_sc_hd__dfxtp_1
*I *2319:CLK I *D sky130_fd_sc_hd__dfxtp_1
*I *2287:CLK I *D sky130_fd_sc_hd__dfrtp_1
*I *2292:CLK I *D sky130_fd_sc_hd__dfrtp_1
*I *2291:CLK I *D sky130_fd_sc_hd__dfrtp_1
*I *2288:CLK I *D sky130_fd_sc_hd__dfrtp_1
*I *2369:X O *D sky130_fd_sc_hd__clkbuf_16
*CAP
1 *2324:CLK 0
2 *2323:CLK 0.000379494
3 *2322:CLK 1.91961e-05
4 *2321:CLK 0
5 *2377:A 0
6 *2294:CLK 0.000199255
7 *2320:CLK 0
8 *2317:CLK 0
9 *2327:CLK 0.000624322
10 *2319:CLK 0
11 *2287:CLK 0.000185938
12 *2292:CLK 0.000102314
13 *2291:CLK 0
14 *2288:CLK 2.06112e-05
15 *2369:X 0
16 *468:148 0.000626727
17 *468:138 0.0012154
18 *468:130 0.00080831
19 *468:72 0.00085377
20 *468:57 0.000470359
21 *468:53 0.00033076
22 *468:49 0.000621705
23 *468:33 0.00087298
24 *468:20 0.000986832
25 *468:14 0.000664896
26 *468:12 0.00044372
27 *468:10 0.00069502
28 *468:4 0.00115392
29 *2287:CLK *2013:A 9.69119e-06
30 *2287:CLK *610:26 0
31 *2322:CLK *510:8 2.44318e-05
32 *2323:CLK *511:8 0.000142856
33 *2323:CLK *621:106 0.000526407
34 *2327:CLK *499:41 2.78729e-05
35 *2327:CLK *610:26 0
36 *2327:CLK *610:95 0
37 *2327:CLK *613:57 5.93633e-05
38 *468:10 *2463:A 0
39 *468:12 *2463:A 0
40 *468:12 *621:64 0
41 *468:14 *2463:A 0
42 *468:14 *621:64 0
43 *468:20 *2463:A 0
44 *468:20 *581:12 3.05446e-05
45 *468:20 *621:64 0
46 *468:33 *581:12 5.19842e-06
47 *468:49 *2014:A 9.60939e-05
48 *468:49 *2415:A 0.00048746
49 *468:49 *499:18 6.05161e-06
50 *468:49 *508:10 0.000243791
51 *468:49 *611:76 0.000163039
52 *468:49 *611:83 0.000146292
53 *468:53 *2100:A_N 0
54 *468:53 *499:10 7.77652e-05
55 *468:53 *499:18 0.00036897
56 *468:57 *2013:A 0.000137983
57 *468:57 *2100:B 5.52302e-05
58 *468:57 *499:18 9.31893e-05
59 *468:72 *2013:A 4.03318e-05
60 *468:72 *2100:B 0
61 *468:72 *499:24 2.15363e-05
62 *468:72 *610:26 0
63 *468:130 *512:12 8.1528e-05
64 *468:130 *512:38 0
65 *468:138 *2017:A 8.07313e-05
66 *468:138 *2408:A 0.00012401
67 *468:138 *511:35 1.09026e-05
68 *468:138 *621:106 0.000354105
69 *468:148 *2111:A 0.000105696
70 *468:148 *2118:A 0
71 *468:148 *509:14 7.6644e-05
72 *468:148 *510:8 0.000446603
73 *468:148 *511:23 0.00012401
74 *468:148 *602:33 0.000184745
75 *468:148 *602:35 0
76 *2106:B *2327:CLK 6.07232e-05
77 *2106:B *468:72 9.7478e-05
78 *2106:C *468:72 7.83659e-05
79 *2117:B *468:148 8.68665e-05
80 *2121:C *468:130 3.69047e-06
81 *2287:D *2287:CLK 3.25247e-05
82 *2288:D *2288:CLK 3.99614e-06
83 *2288:D *468:33 9.7049e-06
84 *2294:D *468:10 9.56872e-05
85 *2294:D *468:12 9.47456e-05
86 *2294:RESET_B *2294:CLK 6.70624e-05
87 *2317:D *468:53 0.000110629
88 *2317:D *468:57 1.74352e-05
89 *2319:D *468:72 3.34672e-05
90 *2320:D *468:49 1.64343e-05
91 *2321:D *468:148 0.000532623
92 *2323:D *2323:CLK 1.64343e-05
93 *2324:D *468:130 0.000128086
94 *2324:D *468:138 9.25014e-06
95 *2327:D *2327:CLK 5.99424e-05
96 *154:14 *2327:CLK 6.97494e-05
97 *392:10 *468:148 0.000232216
*RES
1 *2369:X *468:4 9.3 
2 *468:4 *468:10 12.2143 
3 *468:10 *468:12 2.85714 
4 *468:12 *468:14 1.94643 
5 *468:14 *468:20 7.39286 
6 *468:20 *2288:CLK 9.72857 
7 *468:20 *468:33 9.5 
8 *468:33 *2291:CLK 9.3 
9 *468:33 *2292:CLK 11.0679 
10 *468:14 *468:49 15.3036 
11 *468:49 *468:53 7.94643 
12 *468:53 *468:57 6.67857 
13 *468:57 *2287:CLK 17.0143 
14 *468:57 *468:72 4.98214 
15 *468:72 *2319:CLK 13.8 
16 *468:72 *2327:CLK 25.2286 
17 *468:53 *2317:CLK 9.3 
18 *468:49 *2320:CLK 9.3 
19 *468:12 *2294:CLK 16.7107 
20 *468:10 *2377:A 13.8 
21 *468:4 *468:130 17.7679 
22 *468:130 *468:138 14.6607 
23 *468:138 *468:148 25.8571 
24 *468:148 *2321:CLK 9.3 
25 *468:148 *2322:CLK 9.83571 
26 *468:138 *2323:CLK 18.3357 
27 *468:130 *2324:CLK 9.3 
*END

*D_NET *469 0.0180095
*CONN
*I *2360:CLK I *D sky130_fd_sc_hd__dfxtp_1
*I *2359:CLK I *D sky130_fd_sc_hd__dfxtp_1
*I *2337:CLK I *D sky130_fd_sc_hd__dfxtp_1
*I *2310:CLK I *D sky130_fd_sc_hd__dfxtp_1
*I *2342:CLK I *D sky130_fd_sc_hd__dfxtp_1
*I *2315:CLK I *D sky130_fd_sc_hd__dfxtp_2
*I *2334:CLK I *D sky130_fd_sc_hd__dfxtp_1
*I *2378:A I *D sky130_fd_sc_hd__bufinv_16
*I *2326:CLK I *D sky130_fd_sc_hd__dfxtp_1
*I *2325:CLK I *D sky130_fd_sc_hd__dfxtp_1
*I *2328:CLK I *D sky130_fd_sc_hd__dfxtp_1
*I *2370:X O *D sky130_fd_sc_hd__clkbuf_16
*CAP
1 *2360:CLK 5.64952e-05
2 *2359:CLK 0.000145502
3 *2337:CLK 0
4 *2310:CLK 0.000663761
5 *2342:CLK 0.000162402
6 *2315:CLK 0.000203233
7 *2334:CLK 0.000216361
8 *2378:A 3.42557e-05
9 *2326:CLK 7.97494e-05
10 *2325:CLK 0.000211335
11 *2328:CLK 0.00092247
12 *2370:X 0
13 *469:115 0.000961699
14 *469:93 0.00125346
15 *469:76 0.000956013
16 *469:60 0.000419594
17 *469:58 0.000424665
18 *469:47 0.000336894
19 *469:14 0.00120653
20 *469:10 0.00032826
21 *469:8 0.000511609
22 *469:4 0.00101364
23 *2310:CLK *1960:D_N 0.000111448
24 *2310:CLK *1993:A1 1.56e-05
25 *2310:CLK *2058:B 0.000196427
26 *2310:CLK *498:6 0.000125412
27 *2310:CLK *615:102 0
28 *2310:CLK *615:124 0
29 *2310:CLK *634:21 5.52238e-05
30 *2325:CLK *2122:A 8.44201e-05
31 *2325:CLK *602:8 4.8843e-05
32 *2326:CLK *2127:C 5.10256e-05
33 *2326:CLK *514:10 8.3722e-05
34 *2328:CLK *1936:A 5.52238e-05
35 *2328:CLK *2015:C 3.9991e-05
36 *2328:CLK *2054:A1 5.33005e-05
37 *2328:CLK *513:10 0.000602243
38 *2328:CLK *602:8 4.70048e-05
39 *2328:CLK *606:118 8.90199e-05
40 *2328:CLK *606:131 2.95726e-05
41 *2359:CLK *2221:A1 1.52978e-05
42 *2359:CLK *641:14 6.14193e-05
43 *2359:CLK *641:53 0
44 *2360:CLK *2221:A1 5.52238e-05
45 *2378:A *559:8 0.00018372
46 *469:8 *601:36 1.3277e-05
47 *469:10 *621:52 0.000148701
48 *469:14 *2127:C 3.34672e-05
49 *469:14 *513:43 3.17148e-05
50 *469:14 *621:52 4.33438e-05
51 *469:47 *621:52 5.84171e-05
52 *469:58 *621:46 9.01334e-05
53 *469:58 *621:52 0.000113877
54 *469:76 *1938:A 0
55 *469:76 *621:46 0.000208379
56 *469:93 *1940:A 5.71472e-05
57 *469:93 *2149:A 0.000488486
58 *469:93 *2149:B 3.99614e-06
59 *469:93 *621:42 9.90367e-05
60 *469:93 *621:46 0.000132198
61 *469:93 *621:158 8.46829e-05
62 *469:115 *2220:A2 0.000119539
63 *469:115 *601:36 0.000239369
64 *469:115 *641:16 7.32955e-05
65 *2041:C *2328:CLK 7.49387e-06
66 *2051:A2 *2328:CLK 0.000643113
67 *2054:B1 *2328:CLK 7.96236e-05
68 *2054:C1 *2328:CLK 3.99614e-06
69 *2093:A1 *2342:CLK 0.000144205
70 *2126:B *469:8 0.000123673
71 *2126:B *469:10 0
72 *2126:B *469:14 0
73 *2221:A2 *2360:CLK 3.99614e-06
74 *2221:A2 *469:115 0.000137983
75 *2223:B *2359:CLK 0.000101545
76 *2310:D *2310:CLK 5.95099e-05
77 *2325:D *2325:CLK 0.000190955
78 *2326:D *2326:CLK 0.00012908
79 *2334:D *2334:CLK 1.64343e-05
80 *2337:D *469:93 0.000126291
81 *2342:D *2342:CLK 0.000129087
82 *2359:D *2359:CLK 7.60306e-05
83 *2359:D *2360:CLK 1.02936e-05
84 *2360:D *2360:CLK 0.000150336
85 *2360:D *469:115 0.000523464
86 *2383:A *2328:CLK 4.51641e-05
87 *170:48 *469:76 0
88 *276:12 *469:76 0
89 *276:12 *469:93 0
90 *278:10 *469:93 5.71472e-05
91 *289:35 *2378:A 0.00018372
92 *329:24 *2328:CLK 0.000509452
93 *398:8 *2325:CLK 0.000405733
94 *465:129 *2310:CLK 0
*RES
1 *2370:X *469:4 9.3 
2 *469:4 *469:8 7.91071 
3 *469:8 *469:10 3.76786 
4 *469:10 *469:14 6.14286 
5 *469:14 *2328:CLK 30.5143 
6 *469:14 *2325:CLK 15.6036 
7 *469:10 *2326:CLK 16.4071 
8 *469:8 *469:47 1.64286 
9 *469:47 *2378:A 15.5679 
10 *469:47 *469:58 4.98214 
11 *469:58 *469:60 4.5 
12 *469:60 *2334:CLK 12.7107 
13 *469:60 *2315:CLK 12.7107 
14 *469:58 *469:76 4.98214 
15 *469:76 *2342:CLK 17.6214 
16 *469:76 *469:93 18.4821 
17 *469:93 *2310:CLK 31.3536 
18 *469:93 *2337:CLK 9.3 
19 *469:4 *469:115 16.5714 
20 *469:115 *2359:CLK 21.6929 
21 *469:115 *2360:CLK 11.0857 
*END

*D_NET *470 0.0177926
*CONN
*I *2379:A I *D sky130_fd_sc_hd__clkinv_2
*I *2345:CLK I *D sky130_fd_sc_hd__dfxtp_1
*I *2270:CLK I *D sky130_fd_sc_hd__dfrtp_1
*I *2305:CLK I *D sky130_fd_sc_hd__dfrtp_1
*I *2306:CLK I *D sky130_fd_sc_hd__dfrtp_1
*I *2271:CLK I *D sky130_fd_sc_hd__dfrtp_1
*I *2314:CLK I *D sky130_fd_sc_hd__dfrtp_1
*I *2363:CLK I *D sky130_fd_sc_hd__dfrtp_1
*I *2304:CLK I *D sky130_fd_sc_hd__dfrtp_1
*I *2339:CLK I *D sky130_fd_sc_hd__dfxtp_1
*I *2312:CLK I *D sky130_fd_sc_hd__dfrtp_1
*I *2269:CLK I *D sky130_fd_sc_hd__dfrtp_1
*I *2371:X O *D sky130_fd_sc_hd__clkbuf_16
*CAP
1 *2379:A 3.82418e-05
2 *2345:CLK 2.38116e-05
3 *2270:CLK 0.000223367
4 *2305:CLK 0
5 *2306:CLK 0.000390531
6 *2271:CLK 0
7 *2314:CLK 6.71205e-05
8 *2363:CLK 0
9 *2304:CLK 0.00115553
10 *2339:CLK 0.000913371
11 *2312:CLK 9.1005e-05
12 *2269:CLK 0.000108149
13 *2371:X 0.00018151
14 *470:139 0.00034524
15 *470:115 0.000848642
16 *470:96 0.000889496
17 *470:92 0.000620375
18 *470:39 0.00107104
19 *470:37 0.0016012
20 *470:22 0.000593008
21 *470:18 0.000344637
22 *470:12 0.000519652
23 *470:10 0.000464493
24 *470:6 0.00037957
25 *2269:CLK *697:DIODE 1.13883e-05
26 *2304:CLK *2403:A 1.21258e-05
27 *2306:CLK *2461:A 0.000399841
28 *2312:CLK *2312:D 4.04221e-05
29 *2312:CLK *618:91 2.93215e-05
30 *2339:CLK *1975:A1 3.80079e-05
31 *2339:CLK *1990:B1 0.000178847
32 *2339:CLK *1990:B2 2.28598e-05
33 *2339:CLK *2312:D 0.000271345
34 *2339:CLK *637:29 1.21258e-05
35 *2339:CLK *650:58 0.000691785
36 *470:6 *1952:B1_N 9.99644e-06
37 *470:6 *1974:A 6.81335e-05
38 *470:10 *1952:B1_N 2.72967e-05
39 *470:10 *2428:A 4.58194e-05
40 *470:12 *2428:A 3.85148e-05
41 *470:12 *618:30 0
42 *470:18 *1946:B1_N 0.000131647
43 *470:22 *1946:B1_N 9.06726e-05
44 *470:37 *1946:B1_N 7.86956e-05
45 *470:37 *475:12 8.84979e-05
46 *470:37 *556:48 1.24368e-05
47 *470:92 *618:30 0
48 *470:115 *618:43 7.26935e-05
49 *470:115 *622:14 1.57688e-05
50 *470:139 *618:24 0
51 *470:139 *618:30 0
52 group_error *2306:CLK 3.91668e-05
53 *736:DIODE *2306:CLK 0
54 *2032:B *2306:CLK 2.89016e-05
55 *2269:D *2269:CLK 4.85049e-06
56 *2269:D *470:18 9.98518e-06
57 *2269:D *470:22 4.43604e-05
58 *2270:D *2270:CLK 0.000258027
59 *2270:D *2345:CLK 5.33005e-05
60 *2304:RESET_B *2304:CLK 0.000220865
61 *2305:D *2306:CLK 7.15962e-05
62 *2371:A *470:6 0.000153463
63 *2405:A *470:37 3.42301e-05
64 *2405:A *470:39 2.93215e-05
65 *2431:A *470:37 2.96143e-05
66 *160:12 *470:6 0.000794157
67 *160:12 *470:10 0.000482404
68 *160:12 *470:115 4.79842e-05
69 *273:16 *2304:CLK 9.46168e-05
70 *273:16 *470:115 0
71 *273:28 *2304:CLK 0.000112953
72 *273:28 *2339:CLK 0.000961593
73 *291:29 *2312:CLK 0
74 *291:29 *470:12 0.000353909
75 *291:29 *470:18 0.000132198
76 *291:29 *470:22 2.97788e-05
77 *291:29 *470:37 0
78 *291:29 *470:39 0
79 *291:29 *470:92 0.000173797
80 *291:29 *470:139 0.000173804
81 *291:63 *2345:CLK 3.69047e-06
82 *292:31 *2339:CLK 5.52302e-05
83 *292:44 *2339:CLK 0.000140625
84 *324:22 *2306:CLK 0
*RES
1 *2371:X *470:6 16.8179 
2 *470:6 *470:10 9.14286 
3 *470:10 *470:12 5.58929 
4 *470:12 *470:18 5.64286 
5 *470:18 *470:22 7.35714 
6 *470:22 *2269:CLK 11.0857 
7 *470:22 *470:37 11.6786 
8 *470:37 *470:39 1.33929 
9 *470:39 *2312:CLK 15.7464 
10 *470:39 *2339:CLK 34.0679 
11 *470:37 *2304:CLK 28.8714 
12 *470:18 *2363:CLK 13.8 
13 *470:12 *2314:CLK 14.7464 
14 *470:10 *470:92 2.25 
15 *470:92 *470:96 11.1964 
16 *470:96 *2271:CLK 9.3 
17 *470:96 *470:115 17.8571 
18 *470:115 *2306:CLK 26.925 
19 *470:115 *2305:CLK 9.3 
20 *470:92 *470:139 6.75 
21 *470:139 *2270:CLK 14.3714 
22 *470:139 *2345:CLK 9.83571 
23 *470:6 *2379:A 10.0321 
*END

*D_NET *471 0.0173577
*CONN
*I *2273:CLK I *D sky130_fd_sc_hd__dfrtp_1
*I *2351:CLK I *D sky130_fd_sc_hd__dfxtp_1
*I *2352:CLK I *D sky130_fd_sc_hd__dfxtp_1
*I *2349:CLK I *D sky130_fd_sc_hd__dfxtp_1
*I *2350:CLK I *D sky130_fd_sc_hd__dfxtp_1
*I *2277:CLK I *D sky130_fd_sc_hd__dfrtp_1
*I *2272:CLK I *D sky130_fd_sc_hd__dfrtp_1
*I *2344:CLK I *D sky130_fd_sc_hd__dfxtp_1
*I *2343:CLK I *D sky130_fd_sc_hd__dfxtp_1
*I *2303:CLK I *D sky130_fd_sc_hd__dfrtp_1
*I *2301:CLK I *D sky130_fd_sc_hd__dfrtp_1
*I *2346:CLK I *D sky130_fd_sc_hd__dfxtp_1
*I *2274:CLK I *D sky130_fd_sc_hd__dfrtp_1
*I *2348:CLK I *D sky130_fd_sc_hd__dfxtp_1
*I *2372:X O *D sky130_fd_sc_hd__clkbuf_16
*CAP
1 *2273:CLK 0
2 *2351:CLK 8.61506e-05
3 *2352:CLK 0.000160491
4 *2349:CLK 0.000637676
5 *2350:CLK 6.32938e-05
6 *2277:CLK 0
7 *2272:CLK 0
8 *2344:CLK 2.52229e-05
9 *2343:CLK 0
10 *2303:CLK 0
11 *2301:CLK 0.00039721
12 *2346:CLK 0.000351472
13 *2274:CLK 0
14 *2348:CLK 0.000271864
15 *2372:X 5.89812e-05
16 *471:136 0.000798167
17 *471:125 0.000552793
18 *471:123 0.00103658
19 *471:115 0.000951776
20 *471:108 0.000987987
21 *471:63 0.00128422
22 *471:48 0.00135493
23 *471:46 0.000278039
24 *471:42 0.000368
25 *471:36 0.000759241
26 *471:21 0.000578057
27 *471:19 0.000557388
28 *471:8 0.000391094
29 *2301:CLK *1962:C 0
30 *2301:CLK *1963:A_N 0.000218026
31 *2301:CLK *2402:A 5.33433e-05
32 *2301:CLK *553:10 0.000174805
33 *2301:CLK *618:20 7.03243e-05
34 *2301:CLK *622:14 0.000162743
35 *2346:CLK *479:25 0
36 *2346:CLK *560:76 6.58195e-05
37 *2348:CLK *2194:A1 0.00057215
38 *2349:CLK *2198:B1 7.77652e-05
39 *2349:CLK *491:21 7.24996e-05
40 *2349:CLK *491:30 0.000114816
41 *2349:CLK *604:18 5.33334e-05
42 *2350:CLK *604:12 6.74911e-05
43 *2352:CLK *604:18 5.03772e-05
44 *471:8 *542:12 7.50601e-05
45 *471:19 *542:12 0.000109809
46 *471:36 *2181:A1 0
47 *471:36 *2181:A2 5.03787e-05
48 *471:36 *2183:B1 5.33005e-05
49 *471:36 *558:20 5.71472e-05
50 *471:42 *2181:A1 7.83587e-05
51 *471:42 *2181:A2 0.000359997
52 *471:46 *2413:A 0
53 *471:46 *560:76 6.2349e-05
54 *471:48 *2413:A 0
55 *471:48 *479:25 0
56 *471:48 *560:76 6.25608e-05
57 *471:63 *475:12 0.000235186
58 *471:108 *2027:A 0.000180777
59 *471:108 *2027:B 2.89016e-05
60 *471:108 *2231:A 9.90431e-05
61 *471:108 *542:10 1.17968e-05
62 *471:108 *542:12 9.14882e-05
63 *471:108 *558:20 0
64 *471:123 *603:39 0
65 *471:125 *603:39 0
66 *471:125 *604:12 2.94103e-05
67 *471:125 *604:18 9.34004e-05
68 *471:125 *604:33 0.000132442
69 *1961:A *471:8 0.000149911
70 *1961:A *471:19 0.000192585
71 *1961:A *471:36 0.00014285
72 *2183:A2 *471:36 5.71472e-05
73 *2188:A *2346:CLK 9.60875e-05
74 *2202:A2 *471:123 0
75 *2202:A2 *471:125 0
76 *2205:A1 *2352:CLK 4.55333e-05
77 *2205:A1 *471:125 2.35167e-05
78 *2205:A2 *2352:CLK 1.52392e-05
79 *2274:RESET_B *471:108 1.56e-05
80 *2277:RESET_B *471:123 0
81 *2301:RESET_B *2301:CLK 0.000128914
82 *2303:D *2301:CLK 0
83 *2303:D *471:63 7.48091e-05
84 *2303:RESET_B *471:63 0.000120226
85 *2343:D *471:42 0
86 *2343:D *471:46 0
87 *2344:D *2344:CLK 5.52238e-05
88 *2344:D *471:36 2.90075e-05
89 *2348:D *2348:CLK 4.43256e-05
90 *2350:D *2350:CLK 5.5782e-05
91 *2350:D *471:125 1.50181e-05
92 *2352:D *2352:CLK 2.69708e-05
93 *137:12 *2301:CLK 5.07157e-05
94 *164:16 *2350:CLK 0
95 *164:16 *471:123 0
96 *164:16 *471:125 0
97 *168:12 *471:115 7.32272e-05
98 *323:22 *471:42 0.000329883
99 *323:22 *471:108 4.43256e-05
100 *432:25 *2346:CLK 5.52302e-05
*RES
1 *2372:X *471:8 15.7464 
2 *471:8 *2348:CLK 20.0857 
3 *471:8 *471:19 2.55357 
4 *471:19 *471:21 4.5 
5 *471:21 *2274:CLK 9.3 
6 *471:21 *471:36 19.3036 
7 *471:36 *471:42 10.4643 
8 *471:42 *471:46 3.08929 
9 *471:46 *471:48 2.55357 
10 *471:48 *2346:CLK 20.2821 
11 *471:48 *471:63 20.6429 
12 *471:63 *2301:CLK 29.0143 
13 *471:63 *2303:CLK 9.3 
14 *471:46 *2343:CLK 13.8 
15 *471:42 *2344:CLK 14.3357 
16 *471:36 *2272:CLK 9.3 
17 *471:19 *471:108 14.1607 
18 *471:108 *2277:CLK 9.3 
19 *471:108 *471:115 8.33929 
20 *471:115 *471:123 12.875 
21 *471:123 *471:125 10.1429 
22 *471:125 *2350:CLK 15.7464 
23 *471:125 *471:136 4.5 
24 *471:136 *2349:CLK 20.1393 
25 *471:136 *2352:CLK 12.4429 
26 *471:123 *2351:CLK 15.1571 
27 *471:115 *2273:CLK 9.3 
*END

*D_NET *472 0.0174113
*CONN
*I *2279:CLK I *D sky130_fd_sc_hd__dfrtp_1
*I *2280:CLK I *D sky130_fd_sc_hd__dfrtp_1
*I *2380:A I *D sky130_fd_sc_hd__clkinvlp_4
*I *2338:CLK I *D sky130_fd_sc_hd__dfxtp_1
*I *2316:CLK I *D sky130_fd_sc_hd__dfxtp_1
*I *2333:CLK I *D sky130_fd_sc_hd__dfxtp_1
*I *2335:CLK I *D sky130_fd_sc_hd__dfxtp_1
*I *2340:CLK I *D sky130_fd_sc_hd__dfxtp_1
*I *2336:CLK I *D sky130_fd_sc_hd__dfxtp_1
*I *2341:CLK I *D sky130_fd_sc_hd__dfxtp_1
*I *2373:X O *D sky130_fd_sc_hd__clkbuf_16
*CAP
1 *2279:CLK 0.000105714
2 *2280:CLK 0.000153593
3 *2380:A 0
4 *2338:CLK 3.82418e-05
5 *2316:CLK 0.000229651
6 *2333:CLK 7.02482e-05
7 *2335:CLK 0.000210954
8 *2340:CLK 0.000102314
9 *2336:CLK 0
10 *2341:CLK 0.000248928
11 *2373:X 0
12 *472:114 0.00131903
13 *472:61 0.000421548
14 *472:59 0.000565289
15 *472:55 0.00154912
16 *472:39 0.000696057
17 *472:14 0.000996383
18 *472:12 0.00152332
19 *472:10 0.000575526
20 *472:4 0.00158123
21 *2280:CLK *620:66 0
22 *2280:CLK *620:84 0
23 *2280:CLK *621:203 0.000322453
24 *2316:CLK *1969:B2 0.000101545
25 *2316:CLK *1978:B2 5.52238e-05
26 *2316:CLK *1993:A1 0
27 *2316:CLK *1999:A1 0
28 *2333:CLK *650:58 0.000222666
29 *2335:CLK *1969:B2 2.04825e-05
30 *2335:CLK *615:142 0.000188937
31 *2338:CLK *1999:A1 0
32 *2341:CLK *1996:A 5.83304e-05
33 *472:14 *1996:A 0.000117903
34 *472:39 *1932:A 1.24368e-05
35 *472:39 *613:87 0.00122243
36 *472:39 *650:18 0
37 *472:55 *1949:A 2.89114e-05
38 *472:55 *647:8 7.77652e-05
39 *472:59 *1999:A1 0.00021124
40 *472:61 *1969:B2 0.000267672
41 *472:61 *1993:A1 0
42 *472:61 *615:142 6.3803e-05
43 *472:61 *615:226 9.60337e-06
44 *472:61 *615:239 4.04863e-05
45 *472:114 *2003:A1 0.000108709
46 *472:114 *2003:A2 1.32552e-05
47 *472:114 *2004:A 2.89114e-05
48 *472:114 *613:113 7.6644e-05
49 *1950:C *472:55 6.75203e-05
50 *2000:A2 *472:10 0
51 *2004:B *472:114 6.62761e-05
52 *2045:A *472:14 0.000320815
53 *2045:A *472:55 4.88637e-05
54 *2045:B *472:55 3.40043e-05
55 *2172:C1 *472:55 2.89016e-05
56 *2279:D *2279:CLK 2.65105e-05
57 *2279:D *472:114 2.55587e-05
58 *2316:D *2316:CLK 8.15939e-05
59 *2336:D *472:39 7.99677e-06
60 *2338:D *472:55 0.000153451
61 *2341:D *2341:CLK 6.75484e-05
62 *271:16 *2341:CLK 0.000212258
63 *271:16 *472:14 1.02504e-05
64 *271:53 *472:39 0.000780443
65 *273:42 *2333:CLK 7.49615e-05
66 *273:42 *472:55 4.72352e-05
67 *284:19 *472:14 0.000144554
68 *285:12 *472:55 0.000255215
69 *286:46 *2341:CLK 9.26283e-05
70 *288:14 *472:55 5.33005e-05
71 *288:25 *472:55 9.71197e-05
72 *295:101 *472:10 0.000334483
73 *295:101 *472:114 0.000334473
74 *316:8 *472:10 0
75 *316:8 *472:12 0
76 *414:10 *2341:CLK 4.56823e-05
77 *414:10 *472:12 3.69697e-05
78 *414:10 *472:14 2.16719e-05
79 *465:171 *2341:CLK 0.00012224
80 *465:171 *472:10 8.89385e-05
81 *465:171 *472:12 4.56594e-05
82 *465:171 *472:14 4.75816e-05
*RES
1 *2373:X *472:4 9.3 
2 *472:4 *472:10 12.625 
3 *472:10 *472:12 1.33929 
4 *472:12 *472:14 4.98214 
5 *472:14 *2341:CLK 20.175 
6 *472:14 *472:39 19.8929 
7 *472:39 *2336:CLK 9.3 
8 *472:39 *2340:CLK 11.0679 
9 *472:12 *472:55 21.4643 
10 *472:55 *472:59 7.08929 
11 *472:59 *472:61 3.46429 
12 *472:61 *2335:CLK 18.4786 
13 *472:61 *2333:CLK 15.9786 
14 *472:59 *2316:CLK 18.7107 
15 *472:55 *2338:CLK 10.0321 
16 *472:10 *2380:A 13.8 
17 *472:4 *472:114 23.4286 
18 *472:114 *2280:CLK 22.3714 
19 *472:114 *2279:CLK 10.9786 
*END

*D_NET *473 0.0145054
*CONN
*I *2284:CLK I *D sky130_fd_sc_hd__dfrtp_1
*I *2283:CLK I *D sky130_fd_sc_hd__dfrtp_1
*I *2282:CLK I *D sky130_fd_sc_hd__dfrtp_1
*I *2281:CLK I *D sky130_fd_sc_hd__dfrtp_1
*I *2353:CLK I *D sky130_fd_sc_hd__dfxtp_2
*I *2354:CLK I *D sky130_fd_sc_hd__dfxtp_1
*I *2381:A I *D sky130_fd_sc_hd__clkbuf_8
*I *2355:CLK I *D sky130_fd_sc_hd__dfxtp_1
*I *2347:CLK I *D sky130_fd_sc_hd__dfxtp_2
*I *2278:CLK I *D sky130_fd_sc_hd__dfrtp_1
*I *2358:CLK I *D sky130_fd_sc_hd__dfxtp_1
*I *2357:CLK I *D sky130_fd_sc_hd__dfxtp_1
*I *2356:CLK I *D sky130_fd_sc_hd__dfxtp_1
*I *2374:X O *D sky130_fd_sc_hd__clkbuf_16
*CAP
1 *2284:CLK 0
2 *2283:CLK 0.000272895
3 *2282:CLK 3.72704e-05
4 *2281:CLK 0.000440154
5 *2353:CLK 0
6 *2354:CLK 9.60887e-05
7 *2381:A 0
8 *2355:CLK 0
9 *2347:CLK 0
10 *2278:CLK 7.02086e-05
11 *2358:CLK 0
12 *2357:CLK 0.000220314
13 *2356:CLK 2.23854e-05
14 *2374:X 0.000122243
15 *473:123 0.000712891
16 *473:121 0.000508361
17 *473:119 0.000330672
18 *473:59 0.000752962
19 *473:48 0.00118379
20 *473:44 0.00100783
21 *473:38 0.000767483
22 *473:24 0.00107117
23 *473:16 0.000789738
24 *473:14 0.000425384
25 *473:10 0.000605029
26 *2278:CLK *621:10 7.252e-05
27 *2281:CLK *620:100 0
28 *2281:CLK *620:122 0
29 *2281:CLK *621:203 0.000394712
30 *2283:CLK *2009:A 0
31 *2283:CLK *609:53 0
32 *2283:CLK *620:122 0
33 *2354:CLK *2210:B1 0.000125724
34 *2354:CLK *481:10 0
35 *2354:CLK *481:12 0
36 *2356:CLK *2214:A 0
37 *2357:CLK *1931:A 0.000144773
38 *2357:CLK *2218:B1_N 6.48957e-05
39 *473:10 *2210:B1 0
40 *473:10 *613:135 0
41 *473:14 *480:10 7.62834e-05
42 *473:16 *2070:A 0.000268409
43 *473:16 *480:10 1.82549e-05
44 *473:24 *2070:A 0.000136951
45 *473:24 *2070:C 9.60939e-05
46 *473:24 *2178:B 6.71327e-05
47 *473:24 *2422:A 5.33005e-05
48 *473:24 *480:10 3.17594e-05
49 *473:24 *480:16 6.42095e-05
50 *473:24 *482:23 0.000333685
51 *473:24 *482:30 5.33005e-05
52 *473:38 *2191:B1 1.31235e-05
53 *473:38 *489:8 0.000268396
54 *473:38 *603:16 0.000314202
55 *473:38 *603:31 0.000159453
56 *473:38 *621:34 0
57 *473:44 *489:8 4.59075e-05
58 *473:44 *489:14 0
59 *473:44 *620:188 0
60 *473:44 *621:10 1.76135e-05
61 *473:48 *2214:A 2.47833e-05
62 *473:48 *621:34 6.28241e-05
63 *473:59 *2214:A 6.01267e-05
64 *473:59 *483:6 0.000106828
65 *473:119 *480:10 0.000212611
66 *473:123 *609:53 0
67 *473:123 *620:122 0
68 *473:123 *621:203 0.000117896
69 *2191:A2 *473:44 1.92789e-05
70 *2212:A1 *473:24 4.51526e-05
71 *2214:B *473:48 0.000102197
72 *2281:D *2281:CLK 8.07313e-05
73 *2281:RESET_B *2281:CLK 3.71789e-06
74 *2283:D *2283:CLK 3.5707e-05
75 *2284:D *2283:CLK 0
76 *2284:D *473:119 0.000230475
77 *2347:D *473:38 6.99766e-05
78 *2353:D *2354:CLK 0
79 *2353:D *473:119 1.64343e-05
80 *2355:D *473:24 5.95099e-05
81 *2356:D *473:59 8.95186e-05
82 *2357:D *2357:CLK 0.000161769
83 *2384:A *2354:CLK 4.1331e-06
84 *142:12 *2281:CLK 0.000381755
85 *169:12 *2278:CLK 4.57538e-05
86 *169:12 *473:44 0.000141763
87 *291:95 *473:24 3.14048e-05
88 *356:10 *473:16 4.08637e-05
89 *356:10 *473:24 5.33005e-05
90 *436:10 *473:24 4.01768e-05
91 *438:25 *2354:CLK 9.10431e-06
*RES
1 *2374:X *473:10 20.2464 
2 *473:10 *473:14 3.01786 
3 *473:14 *473:16 3.41071 
4 *473:16 *473:24 13.4286 
5 *473:24 *473:38 20.3929 
6 *473:38 *473:44 10.7321 
7 *473:44 *473:48 14.8929 
8 *473:48 *2356:CLK 9.72857 
9 *473:48 *473:59 9.48214 
10 *473:59 *2357:CLK 23.55 
11 *473:59 *2358:CLK 9.3 
12 *473:44 *2278:CLK 15.7464 
13 *473:38 *2347:CLK 9.3 
14 *473:24 *2355:CLK 9.3 
15 *473:16 *2381:A 9.3 
16 *473:14 *2354:CLK 20.2464 
17 *473:10 *2353:CLK 9.3 
18 *473:10 *473:119 7.51786 
19 *473:119 *473:121 4.5 
20 *473:121 *473:123 4.67857 
21 *473:123 *2281:CLK 25.4786 
22 *473:123 *2282:CLK 14.3357 
23 *473:121 *2283:CLK 18.7821 
24 *473:119 *2284:CLK 9.3 
*END

*D_NET *474 0.00112523
*CONN
*I *2425:A I *D sky130_fd_sc_hd__dlygate4sd3_1
*I *2302:Q O *D sky130_fd_sc_hd__dfrtp_1
*CAP
1 *2425:A 0.000455038
2 *2302:Q 0.000455038
3 *2425:A *617:20 2.41665e-05
4 *2425:A *617:31 7.43578e-06
5 *2302:RESET_B *2425:A 9.99853e-05
6 *2311:CLK *2425:A 0
7 *59:21 *2425:A 8.35608e-05
8 *291:33 *2425:A 0
9 *467:108 *2425:A 0
*RES
1 *2302:Q *2425:A 35.2071 
*END

*D_NET *475 0.00450058
*CONN
*I *1954:B1_N I *D sky130_fd_sc_hd__o21ba_1
*I *2303:Q O *D sky130_fd_sc_hd__dfrtp_1
*CAP
1 *1954:B1_N 0
2 *2303:Q 0.00141927
3 *475:12 0.00141927
4 *475:12 *1952:B1_N 7.17146e-05
5 *475:12 *1954:A2 4.1331e-06
6 *475:12 *2034:A 0
7 *475:12 *2184:B1 0
8 *475:12 *2186:B1 0.000188667
9 *475:12 *2461:A 0.000206665
10 *475:12 *486:25 0.000272658
11 *475:12 *560:76 0
12 *475:12 *636:23 0
13 *475:12 *638:8 0
14 *2270:D *475:12 0
15 *2345:D *475:12 0.000100823
16 *2429:A *475:12 0.000176096
17 *2431:A *475:12 0.000317602
18 *291:29 *475:12 0
19 *470:37 *475:12 8.84979e-05
20 *471:63 *475:12 0.000235186
*RES
1 *2303:Q *475:12 48.7643 
2 *475:12 *1954:B1_N 9.3 
*END

*D_NET *476 0.000221191
*CONN
*I *2403:A I *D sky130_fd_sc_hd__dlygate4sd3_1
*I *2304:Q O *D sky130_fd_sc_hd__dfrtp_1
*CAP
1 *2403:A 4.00189e-05
2 *2304:Q 4.00189e-05
3 *2304:CLK *2403:A 1.21258e-05
4 *2304:RESET_B *2403:A 5.33334e-05
5 *273:16 *2403:A 7.56943e-05
*RES
1 *2304:Q *2403:A 19.9571 
*END

*D_NET *477 0.000541409
*CONN
*I *2428:A I *D sky130_fd_sc_hd__dlygate4sd3_1
*I *2305:Q O *D sky130_fd_sc_hd__dfrtp_1
*CAP
1 *2428:A 0.00020653
2 *2305:Q 0.00020653
3 *160:12 *2428:A 4.40153e-05
4 *470:10 *2428:A 4.58194e-05
5 *470:12 *2428:A 3.85148e-05
*RES
1 *2305:Q *2428:A 31.4214 
*END

*D_NET *478 0.000308239
*CONN
*I *2430:A I *D sky130_fd_sc_hd__dlygate4sd3_1
*I *2306:Q O *D sky130_fd_sc_hd__dfrtp_1
*CAP
1 *2430:A 0.00015412
2 *2306:Q 0.00015412
*RES
1 *2306:Q *2430:A 21.1893 
*END

*D_NET *479 0.00844677
*CONN
*I *2413:A I *D sky130_fd_sc_hd__dlygate4sd3_1
*I *2173:C I *D sky130_fd_sc_hd__and3_1
*I *2174:D I *D sky130_fd_sc_hd__and4_1
*I *1966:A I *D sky130_fd_sc_hd__and3_1
*I *2184:A2 I *D sky130_fd_sc_hd__a21oi_1
*I *2182:B I *D sky130_fd_sc_hd__xnor2_1
*I *2343:Q O *D sky130_fd_sc_hd__dfxtp_1
*CAP
1 *2413:A 0.000134057
2 *2173:C 0.000130657
3 *2174:D 0
4 *1966:A 0.000467609
5 *2184:A2 0.000336036
6 *2182:B 0.00024794
7 *2343:Q 0.000162708
8 *479:53 0.000155157
9 *479:40 0.000659715
10 *479:25 0.000773936
11 *479:21 0.0010133
12 *479:6 0.0010196
13 *1966:A *1974:A 0
14 *1966:A *2186:A1 6.42338e-05
15 *1966:A *603:70 2.84398e-05
16 *2173:C *2174:A 5.52302e-05
17 *2173:C *2174:C 0.000142856
18 *2173:C *2184:B1 1.19495e-05
19 *2173:C *487:32 6.81315e-05
20 *2182:B *2182:A 0.000125731
21 *2182:B *486:25 0.000170289
22 *2184:A2 *2174:A 2.59355e-05
23 *2184:A2 *2184:B1 6.7e-06
24 *2184:A2 *2186:B1 0.000143515
25 *2413:A *603:83 4.87227e-05
26 *2413:A *603:96 5.86867e-05
27 *479:25 *2174:A 5.66157e-05
28 *479:25 *486:49 1.721e-05
29 *479:25 *560:76 0
30 *479:25 *603:70 4.02462e-05
31 *479:25 *603:83 0.00025596
32 *479:40 *2174:A 6.05161e-06
33 *479:40 *488:63 0.000111458
34 *479:40 *603:70 2.8046e-05
35 *479:53 *603:53 9.71197e-05
36 *1973:A2 *1966:A 0.000750422
37 *2185:B *2184:A2 9.41642e-05
38 *2187:B *2184:A2 5.03772e-05
39 *2188:B *479:25 0.000104974
40 *2343:D *2182:B 0
41 *2343:D *479:21 0.000103034
42 *2346:CLK *479:25 0
43 *2371:A *1966:A 0
44 *163:18 *1966:A 0.000136366
45 *163:18 *479:40 0.000171375
46 *291:63 *2173:C 0.000226339
47 *291:63 *479:53 4.43256e-05
48 *432:12 *479:40 0.000101545
49 *465:64 *1966:A 0
50 *471:46 *2413:A 0
51 *471:48 *2413:A 0
52 *471:48 *479:25 0
*RES
1 *2343:Q *479:6 11.0679 
2 *479:6 *2182:B 24.1929 
3 *479:6 *479:21 11.6071 
4 *479:21 *479:25 11.6071 
5 *479:25 *2184:A2 15.4964 
6 *479:25 *479:40 8.51786 
7 *479:40 *1966:A 25.4607 
8 *479:40 *479:53 5.44643 
9 *479:53 *2174:D 9.3 
10 *479:53 *2173:C 13.9071 
11 *479:21 *2413:A 16.9607 
*END

*D_NET *480 0.010377
*CONN
*I *2177:A I *D sky130_fd_sc_hd__nand2_1
*I *2206:A I *D sky130_fd_sc_hd__or2_1
*I *2079:B1 I *D sky130_fd_sc_hd__a41o_1
*I *2075:A1 I *D sky130_fd_sc_hd__a31o_1
*I *2087:A1 I *D sky130_fd_sc_hd__o31a_1
*I *2003:A1 I *D sky130_fd_sc_hd__a22o_1
*I *2178:C I *D sky130_fd_sc_hd__and4_1
*I *2211:A2 I *D sky130_fd_sc_hd__a31oi_1
*I *2353:Q O *D sky130_fd_sc_hd__dfxtp_2
*CAP
1 *2177:A 0
2 *2206:A 0
3 *2079:B1 0
4 *2075:A1 2.52843e-05
5 *2087:A1 0
6 *2003:A1 0.000537192
7 *2178:C 0
8 *2211:A2 0.00031313
9 *2353:Q 0.00109015
10 *480:58 0.000660199
11 *480:54 0.000288543
12 *480:48 0.00026059
13 *480:44 0.000237039
14 *480:38 0.000212154
15 *480:16 0.00046053
16 *480:10 0.00133301
17 *2003:A1 *2003:A2 5.95604e-05
18 *2003:A1 *2005:A1 0
19 *2003:A1 *2005:B2 0
20 *2003:A1 *554:123 0
21 *2003:A1 *613:113 0
22 *2075:A1 *609:29 1.56e-05
23 *480:10 *2070:A 0.000146651
24 *480:10 *2070:B 5.52302e-05
25 *480:10 *2070:C 4.27935e-05
26 *480:16 *2070:C 5.33005e-05
27 *480:38 *2008:A1 0.000179582
28 *480:38 *2422:A 0.000144903
29 *480:38 *483:23 3.17148e-05
30 *480:38 *489:75 3.25078e-05
31 *480:44 *2008:A1 0.000247064
32 *480:44 *2208:B1 2.95726e-05
33 *480:44 *2422:A 0.000199698
34 *480:44 *489:75 2.26424e-05
35 *480:44 *603:16 0.00018372
36 *480:48 *489:75 0.000186388
37 *480:54 *2072:B 0
38 *480:54 *489:75 3.07555e-05
39 *480:54 *489:79 6.65302e-05
40 *480:54 *609:29 5.5674e-05
41 *480:58 *2005:A1 0
42 *2003:B2 *2003:A1 0.000399193
43 *2075:A2 *480:58 6.8646e-06
44 *2075:A3 *2075:A1 8.36572e-05
45 *2075:A3 *480:54 0.000186662
46 *2080:A1 *480:54 5.71472e-05
47 *2080:B1 *2075:A1 5.33005e-05
48 *2080:B1 *480:54 9.90367e-05
49 *2081:A3 *2003:A1 0
50 *2081:A3 *480:58 0
51 *2087:A2 *480:58 0.000148911
52 *2094:A *2003:A1 2.19651e-06
53 *2177:B *2211:A2 5.52302e-05
54 *2178:D *2211:A2 7.5779e-05
55 *2206:B *480:44 9.71197e-05
56 *2212:A1 *2211:A2 7.5779e-05
57 *2212:A1 *480:16 0.00015656
58 *2212:A2 *2211:A2 7.48301e-06
59 *2212:B1 *2211:A2 2.89114e-05
60 *2213:B *2211:A2 0.000229456
61 *2284:D *480:10 5.33433e-05
62 *316:16 *2003:A1 5.33005e-05
63 *316:28 *2003:A1 3.17148e-05
64 *319:76 *2003:A1 4.43256e-05
65 *360:29 *480:54 0.00014183
66 *434:47 *2211:A2 1.02821e-05
67 *465:191 *480:48 0.000364953
68 *465:191 *480:54 0.000200413
69 *472:114 *2003:A1 0.000108709
70 *473:14 *480:10 7.62834e-05
71 *473:16 *480:10 1.82549e-05
72 *473:24 *480:10 3.17594e-05
73 *473:24 *480:16 6.42095e-05
74 *473:119 *480:10 0.000212611
*RES
1 *2353:Q *480:10 24.3536 
2 *480:10 *480:16 7.60714 
3 *480:16 *2211:A2 18.6571 
4 *480:16 *2178:C 13.8 
5 *480:10 *480:38 7.35714 
6 *480:38 *480:44 9.42857 
7 *480:44 *480:48 9.17857 
8 *480:48 *480:54 10.0536 
9 *480:54 *480:58 7.05357 
10 *480:58 *2003:A1 25.6393 
11 *480:58 *2087:A1 13.8 
12 *480:54 *2075:A1 10.2464 
13 *480:48 *2079:B1 13.8 
14 *480:44 *2206:A 9.3 
15 *480:38 *2177:A 13.8 
*END

*D_NET *481 0.00769282
*CONN
*I *2178:B I *D sky130_fd_sc_hd__and4_1
*I *2211:A1 I *D sky130_fd_sc_hd__a31oi_1
*I *2209:A I *D sky130_fd_sc_hd__xor2_1
*I *2071:A I *D sky130_fd_sc_hd__or2_1
*I *2005:A1 I *D sky130_fd_sc_hd__a22o_1
*I *2354:Q O *D sky130_fd_sc_hd__dfxtp_1
*CAP
1 *2178:B 0.000251326
2 *2211:A1 0.000535598
3 *2209:A 8.87059e-06
4 *2071:A 8.86283e-05
5 *2005:A1 0.000460986
6 *2354:Q 0.000336352
7 *481:61 0.000786924
8 *481:52 0.000492168
9 *481:12 0.000958846
10 *481:10 0.00122888
11 *2005:A1 *2005:B2 5.71472e-05
12 *2005:A1 *613:124 1.56e-05
13 *2005:A1 *613:135 0
14 *2178:B *2422:A 4.08637e-05
15 *2178:B *482:23 9.71197e-05
16 *2178:B *482:30 4.08637e-05
17 *2178:B *489:75 0.00011461
18 *2211:A1 *2213:A 1.3701e-05
19 *2211:A1 *489:75 8.08022e-05
20 *481:12 *613:135 0
21 *2003:A1 *2005:A1 0
22 *2075:A2 *2005:A1 0
23 *2177:B *2211:A1 2.65105e-05
24 *2207:A *2178:B 0.000123153
25 *2207:A *2211:A1 3.17148e-05
26 *2210:A2 *481:52 0.000152291
27 *2212:A2 *2211:A1 0.000246075
28 *2281:D *2071:A 0.000537165
29 *2353:D *481:10 2.94103e-05
30 *2353:D *481:12 7.92879e-05
31 *2354:CLK *481:10 0
32 *2354:CLK *481:12 0
33 *2354:D *481:52 0.000160857
34 *2384:A *481:12 0
35 *142:12 *2071:A 0.000211066
36 *295:101 *2005:A1 6.87146e-05
37 *357:10 *2005:A1 0
38 *361:18 *2005:A1 0.000154114
39 *434:47 *2211:A1 5.23443e-05
40 *435:10 *2209:A 1.5546e-05
41 *435:10 *2211:A1 6.23362e-05
42 *435:10 *481:52 4.08637e-05
43 *465:191 *2211:A1 2.49484e-05
44 *473:24 *2178:B 6.71327e-05
45 *480:58 *2005:A1 0
*RES
1 *2354:Q *481:10 17.9429 
2 *481:10 *481:12 7.71429 
3 *481:12 *2005:A1 22.3714 
4 *481:12 *2071:A 18.8536 
5 *481:10 *481:52 14.2321 
6 *481:52 *2209:A 9.45625 
7 *481:52 *481:61 4.5 
8 *481:61 *2211:A1 21.8536 
9 *481:61 *2178:B 18.0321 
*END

*D_NET *482 0.00238156
*CONN
*I *2422:A I *D sky130_fd_sc_hd__dlygate4sd3_1
*I *2070:D I *D sky130_fd_sc_hd__or4_1
*I *2178:A I *D sky130_fd_sc_hd__and4_1
*I *2211:B1 I *D sky130_fd_sc_hd__a31oi_1
*I *2355:Q O *D sky130_fd_sc_hd__dfxtp_1
*CAP
1 *2422:A 0.000148204
2 *2070:D 0
3 *2178:A 0
4 *2211:B1 0.000126328
5 *2355:Q 0
6 *482:30 0.000163179
7 *482:23 0.000203152
8 *482:4 0.000314505
9 *2211:B1 *605:25 0
10 *2422:A *489:75 0.000331929
11 *2178:B *2422:A 4.08637e-05
12 *2178:B *482:23 9.71197e-05
13 *2178:B *482:30 4.08637e-05
14 *2178:D *2211:B1 0
15 *2212:B1 *2211:B1 1.78394e-05
16 *2213:B *2211:B1 5.52238e-05
17 *434:47 *2211:B1 5.74659e-05
18 *473:24 *2422:A 5.33005e-05
19 *473:24 *482:23 0.000333685
20 *473:24 *482:30 5.33005e-05
21 *480:38 *2422:A 0.000144903
22 *480:44 *2422:A 0.000199698
*RES
1 *2355:Q *482:4 9.3 
2 *482:4 *2211:B1 20.4786 
3 *482:4 *482:23 3.96429 
4 *482:23 *2178:A 9.3 
5 *482:23 *482:30 0.535714 
6 *482:30 *2070:D 9.3 
7 *482:30 *2422:A 23.2107 
*END

*D_NET *483 0.00693218
*CONN
*I *2179:B I *D sky130_fd_sc_hd__and3_1
*I *2216:A1 I *D sky130_fd_sc_hd__a21oi_1
*I *2070:C I *D sky130_fd_sc_hd__or4_1
*I *2008:A1 I *D sky130_fd_sc_hd__o221a_1
*I *2214:A I *D sky130_fd_sc_hd__xnor2_1
*I *2356:Q O *D sky130_fd_sc_hd__dfxtp_1
*CAP
1 *2179:B 0.000209748
2 *2216:A1 6.59538e-05
3 *2070:C 2.46036e-05
4 *2008:A1 0.000545693
5 *2214:A 0.00046756
6 *2356:Q 0.000240378
7 *483:23 0.000966974
8 *483:21 0.000562707
9 *483:19 0.000377154
10 *483:6 0.000775267
11 *2008:A1 *2007:A1 0.000104249
12 *2008:A1 *2079:A1 2.95726e-05
13 *2008:A1 *489:75 0.000109229
14 *2216:A1 *605:49 9.90431e-05
15 *483:23 *489:75 0.000225601
16 *2007:A2 *2008:A1 0.000276211
17 *2007:B2 *2008:A1 1.90469e-05
18 *2008:B2 *2008:A1 5.33368e-06
19 *2079:A4 *2008:A1 2.14757e-05
20 *2179:C *2179:B 5.23057e-05
21 *2206:B *2008:A1 0
22 *2212:A1 *2008:A1 9.37128e-05
23 *2212:A1 *483:23 2.26327e-05
24 *2214:B *2214:A 9.76491e-05
25 *2214:B *483:21 0
26 *2215:A1 *483:23 0
27 *2217:B1 *2179:B 0.000144773
28 *2281:D *2008:A1 5.71472e-05
29 *2356:CLK *2214:A 0
30 *2356:D *2214:A 3.29354e-05
31 *2356:D *483:19 0
32 *2356:D *483:21 0
33 *142:12 *2008:A1 0.000443648
34 *434:60 *2008:A1 0
35 *436:10 *483:23 0
36 *436:14 *2179:B 1.92905e-05
37 *473:24 *2070:C 9.60939e-05
38 *473:48 *2214:A 2.47833e-05
39 *473:59 *2214:A 6.01267e-05
40 *473:59 *483:6 0.000106828
41 *480:10 *2070:C 4.27935e-05
42 *480:16 *2070:C 5.33005e-05
43 *480:38 *2008:A1 0.000179582
44 *480:38 *483:23 3.17148e-05
45 *480:44 *2008:A1 0.000247064
*RES
1 *2356:Q *483:6 12.7107 
2 *483:6 *2214:A 15.8 
3 *483:6 *483:19 5.53571 
4 *483:19 *483:21 1.64286 
5 *483:21 *483:23 8.92857 
6 *483:23 *2008:A1 29.3268 
7 *483:23 *2070:C 14.7464 
8 *483:21 *2216:A1 14.7464 
9 *483:19 *2179:B 16.8 
*END

*D_NET *484 0.00423481
*CONN
*I *2410:A I *D sky130_fd_sc_hd__dlygate4sd3_1
*I *2179:A I *D sky130_fd_sc_hd__and3_1
*I *2070:B I *D sky130_fd_sc_hd__or4_1
*I *2357:Q O *D sky130_fd_sc_hd__dfxtp_1
*CAP
1 *2410:A 0.000151443
2 *2179:A 0.000104487
3 *2070:B 0.000275982
4 *2357:Q 8.68466e-05
5 *484:14 0.000934298
6 *484:10 0.000792118
7 *2070:B *489:75 0.00018344
8 *2179:A *2210:B1 0
9 *2179:A *2216:B1 0.000100831
10 *2179:A *489:75 3.22834e-05
11 *2410:A *522:6 3.69047e-06
12 *484:10 *2009:A 8.15095e-05
13 *484:10 *2426:A 3.48235e-05
14 *484:14 *2216:B1 2.24079e-05
15 *484:14 *2426:A 0.000117621
16 *484:14 *485:14 0.000114655
17 *484:14 *522:6 1.21258e-05
18 *2207:A *2070:B 0.000171368
19 *2215:A1 *484:14 0.000316184
20 *2218:A2 *484:14 0.000438128
21 *437:18 *484:14 5.71472e-05
22 *438:23 *2070:B 0
23 *465:191 *2070:B 0.000148189
24 *480:10 *2070:B 5.52302e-05
*RES
1 *2357:Q *484:10 20.2464 
2 *484:10 *484:14 17.3571 
3 *484:14 *2070:B 20.8357 
4 *484:14 *2179:A 16.05 
5 *484:10 *2410:A 11.8893 
*END

*D_NET *485 0.00620602
*CONN
*I *2411:A I *D sky130_fd_sc_hd__dlygate4sd3_1
*I *2426:A I *D sky130_fd_sc_hd__dlygate4sd3_1
*I *2180:A I *D sky130_fd_sc_hd__nand2_2
*I *2070:A I *D sky130_fd_sc_hd__or4_1
*I *2358:Q O *D sky130_fd_sc_hd__dfxtp_1
*CAP
1 *2411:A 0.000228562
2 *2426:A 0.000352688
3 *2180:A 0
4 *2070:A 0.000275133
5 *2358:Q 0
6 *485:14 0.000411853
7 *485:10 0.000614418
8 *485:4 0.000353572
9 *2070:A *2210:B1 0.000611483
10 *2426:A *1931:A 0
11 *2426:A *2009:A 3.17148e-05
12 *2426:A *2010:A 9.36751e-05
13 *2426:A *2216:B1 0.000225616
14 *2426:A *2218:A1 1.76039e-05
15 *2426:A *537:6 3.18676e-05
16 *485:10 *1931:A 0.000153054
17 *485:10 *2010:A 6.42242e-05
18 *485:14 *2216:B1 0.000703582
19 *2218:A2 *485:10 0.000103334
20 *2218:A2 *485:14 0.000449539
21 *437:18 *485:14 5.52302e-05
22 *438:23 *2070:A 0.000609761
23 *473:16 *2070:A 0.000268409
24 *473:24 *2070:A 0.000136951
25 *480:10 *2070:A 0.000146651
26 *484:10 *2426:A 3.48235e-05
27 *484:14 *2426:A 0.000117621
28 *484:14 *485:14 0.000114655
*RES
1 *2358:Q *485:4 9.3 
2 *485:4 *485:10 12.7679 
3 *485:10 *485:14 7.125 
4 *485:14 *2070:A 29.8357 
5 *485:14 *2180:A 9.3 
6 *485:10 *2426:A 26.55 
7 *485:4 *2411:A 13.0321 
*END

*D_NET *486 0.00618661
*CONN
*I *2174:C I *D sky130_fd_sc_hd__and4_1
*I *1971:A I *D sky130_fd_sc_hd__and3_1
*I *2173:B I *D sky130_fd_sc_hd__and3_1
*I *2184:A1 I *D sky130_fd_sc_hd__a21oi_1
*I *2182:A I *D sky130_fd_sc_hd__xnor2_1
*I *2344:Q O *D sky130_fd_sc_hd__dfxtp_1
*CAP
1 *2174:C 4.03347e-05
2 *1971:A 0.000495886
3 *2173:B 9.46444e-05
4 *2184:A1 0
5 *2182:A 6.9929e-05
6 *2344:Q 0.000258113
7 *486:49 0.000777469
8 *486:32 0.000514739
9 *486:25 0.000725359
10 *486:8 0.000874555
11 *1971:A *1971:C 6.28435e-05
12 *1971:A *1973:B1 0.000222805
13 *1971:A *1974:A 3.69697e-05
14 *1971:A *2186:A1 9.7659e-05
15 *1971:A *603:70 0
16 *2173:B *560:76 4.06782e-05
17 *2174:C *487:32 5.03772e-05
18 *486:8 *560:76 2.9654e-05
19 *486:25 *2186:B1 0.000144773
20 *486:25 *560:76 0
21 *486:32 *2186:B1 0.000258011
22 *486:49 *2174:A 0.000171375
23 *486:49 *2186:B1 0.000172309
24 *2173:C *2174:C 0.000142856
25 *2182:B *2182:A 0.000125731
26 *2182:B *486:25 0.000170289
27 *2183:A2 *2182:A 0
28 *2183:A2 *486:25 1.41706e-05
29 *2185:A *1971:A 6.42242e-05
30 *2185:A *2173:B 5.80706e-06
31 *2185:A *486:49 3.57844e-05
32 *2185:B *2173:B 3.69697e-05
33 *2187:B *2173:B 7.48356e-05
34 *2187:B *486:49 7.83366e-05
35 *2188:B *486:49 9.25014e-06
36 *2343:D *2182:A 0
37 *2343:D *486:25 0
38 *475:12 *486:25 0.000272658
39 *479:25 *486:49 1.721e-05
*RES
1 *2344:Q *486:8 16.8 
2 *486:8 *2182:A 15.4429 
3 *486:8 *486:25 16.2321 
4 *486:25 *2184:A1 9.3 
5 *486:25 *486:32 2.58929 
6 *486:32 *2173:B 20.8536 
7 *486:32 *486:49 9.73214 
8 *486:49 *1971:A 21.3357 
9 *486:49 *2174:C 15.1571 
*END

*D_NET *487 0.00347382
*CONN
*I *2174:B I *D sky130_fd_sc_hd__and4_1
*I *1974:A I *D sky130_fd_sc_hd__and3_1
*I *2184:B1 I *D sky130_fd_sc_hd__a21oi_1
*I *2173:A I *D sky130_fd_sc_hd__and3_1
*I *2345:Q O *D sky130_fd_sc_hd__dfxtp_1
*CAP
1 *2174:B 0
2 *1974:A 0.000672847
3 *2184:B1 0.000186241
4 *2173:A 0
5 *2345:Q 4.11098e-05
6 *487:32 0.000929735
7 *487:8 0.000208627
8 *487:6 0.000320384
9 *1974:A *1974:B 2.22999e-05
10 *1974:A *1974:C 0.000342556
11 *1974:A *1976:B1 5.52302e-05
12 *1974:A *2186:A1 6.19181e-05
13 *1974:A *560:76 0
14 *2184:B1 *2186:B1 1.37693e-05
15 *2184:B1 *560:76 0.000218734
16 *1966:A *1974:A 0
17 *1971:A *1974:A 3.69697e-05
18 *1976:A1 *1974:A 3.18676e-05
19 *2173:C *2184:B1 1.19495e-05
20 *2173:C *487:32 6.81315e-05
21 *2174:C *487:32 5.03772e-05
22 *2184:A2 *2184:B1 6.7e-06
23 *2185:B *1974:A 0
24 *2270:D *2184:B1 6.05161e-06
25 *2371:A *1974:A 9.25014e-06
26 *160:12 *1974:A 6.45518e-05
27 *291:63 *2184:B1 2.79421e-05
28 *291:63 *487:32 1.84407e-05
29 *470:6 *1974:A 6.81335e-05
30 *475:12 *2184:B1 0
*RES
1 *2345:Q *487:6 9.83571 
2 *487:6 *487:8 0.428571 
3 *487:8 *2173:A 9.3 
4 *487:8 *2184:B1 22.6705 
5 *487:6 *487:32 3.41071 
6 *487:32 *1974:A 31.3179 
7 *487:32 *2174:B 9.3 
*END

*D_NET *488 0.0137972
*CONN
*I *2187:A I *D sky130_fd_sc_hd__nor2_1
*I *2174:A I *D sky130_fd_sc_hd__and4_1
*I *2086:A2 I *D sky130_fd_sc_hd__o211a_1
*I *2079:A3 I *D sky130_fd_sc_hd__a41o_1
*I *1977:A I *D sky130_fd_sc_hd__and3_1
*I *2346:Q O *D sky130_fd_sc_hd__dfxtp_1
*CAP
1 *2187:A 0
2 *2174:A 0.000109259
3 *2086:A2 0
4 *2079:A3 0.000141565
5 *1977:A 0
6 *2346:Q 0.000134086
7 *488:63 0.000386221
8 *488:37 0.00224327
9 *488:16 0.00274613
10 *488:10 0.00105547
11 *2079:A3 *2072:B 1.02504e-05
12 *2079:A3 *2079:A1 5.52302e-05
13 *2079:A3 *489:79 3.52562e-05
14 *2174:A *2186:B1 5.33005e-05
15 *2174:A *603:70 3.75052e-05
16 *488:16 *1971:C 0
17 *488:16 *1973:B1 0
18 *488:16 *542:22 1.40415e-05
19 *488:16 *542:24 2.51343e-06
20 *488:16 *608:10 0
21 *488:37 *1943:A 5.52302e-05
22 *488:37 *1967:A 7.02611e-05
23 *488:37 *1968:A 1.21289e-05
24 *488:37 *1968:B 5.97398e-05
25 *488:37 *2073:B 9.90431e-05
26 *488:37 *542:22 5.78602e-05
27 *488:37 *542:82 2.80368e-05
28 *488:37 *560:10 1.21289e-05
29 *488:63 *2186:B1 8.62444e-05
30 *488:63 *2189:A1 9.76261e-05
31 *488:63 *604:35 0.000270264
32 *488:63 *604:44 1.02821e-05
33 *1961:A *488:10 0.000148911
34 *1961:A *488:16 0.00109614
35 *1976:A2 *488:16 0
36 *1979:A1 *488:37 0
37 *1982:B1 *488:37 0.000358971
38 *2007:B1 *488:37 0.000532305
39 *2079:A4 *2079:A3 2.9357e-05
40 *2173:C *2174:A 5.52302e-05
41 *2184:A2 *2174:A 2.59355e-05
42 *2389:A *488:16 0
43 *280:6 *488:37 0.000186662
44 *280:25 *488:37 0.000343591
45 *281:14 *488:37 1.55885e-05
46 *291:63 *2174:A 5.33005e-05
47 *291:95 *488:16 0
48 *291:95 *488:63 0.000148105
49 *296:6 *488:37 8.87196e-05
50 *296:15 *488:37 0.000408172
51 *296:40 *488:37 0.000343591
52 *360:16 *488:37 0.0016466
53 *360:29 *488:37 6.16313e-05
54 *432:25 *488:10 2.59355e-05
55 *479:25 *2174:A 5.66157e-05
56 *479:40 *2174:A 6.05161e-06
57 *479:40 *488:63 0.000111458
58 *486:49 *2174:A 0.000171375
*RES
1 *2346:Q *488:10 16.2821 
2 *488:10 *488:16 19.125 
3 *488:16 *1977:A 9.3 
4 *488:16 *488:37 41.7321 
5 *488:37 *2079:A3 20.4786 
6 *488:37 *2086:A2 9.3 
7 *488:10 *488:63 12.5714 
8 *488:63 *2174:A 21.6214 
9 *488:63 *2187:A 9.3 
*END

*D_NET *489 0.0165581
*CONN
*I *2079:A2 I *D sky130_fd_sc_hd__a41o_1
*I *2086:A1 I *D sky130_fd_sc_hd__o211a_1
*I *2072:B I *D sky130_fd_sc_hd__or2_1
*I *2190:A I *D sky130_fd_sc_hd__xnor2_1
*I *2176:B I *D sky130_fd_sc_hd__and4_1
*I *2175:B I *D sky130_fd_sc_hd__and3_1
*I *1980:A I *D sky130_fd_sc_hd__or2_1
*I *2192:A1 I *D sky130_fd_sc_hd__a21oi_1
*I *2347:Q O *D sky130_fd_sc_hd__dfxtp_2
*CAP
1 *2079:A2 0
2 *2086:A1 0
3 *2072:B 0.000218845
4 *2190:A 0
5 *2176:B 0.000397385
6 *2175:B 0.00022632
7 *1980:A 0.000507182
8 *2192:A1 0.000132812
9 *2347:Q 0
10 *489:79 0.000357341
11 *489:75 0.0013627
12 *489:25 0.000733502
13 *489:16 0.00100858
14 *489:14 0.00139882
15 *489:8 0.000880771
16 *489:4 0.00197932
17 *1980:A *1987:B2 0.000336915
18 *1980:A *1990:B2 0
19 *1980:A *2197:B 0.000207054
20 *1980:A *491:32 0.000454299
21 *1980:A *603:39 0
22 *2072:B *2072:A 5.52238e-05
23 *2175:B *1983:A 5.62995e-05
24 *2175:B *490:16 2.89016e-05
25 *2175:B *490:55 6.20435e-05
26 *2176:B *490:55 0.000509779
27 *489:14 *493:12 5.26277e-05
28 *489:14 *560:100 0
29 *489:75 *2007:A1 0
30 *489:75 *2216:B1 9.25014e-06
31 *1994:B1 *1980:A 0.000128154
32 *2008:A1 *489:75 0.000109229
33 *2070:B *489:75 0.00018344
34 *2079:A3 *2072:B 1.02504e-05
35 *2079:A3 *489:79 3.52562e-05
36 *2079:A4 *489:75 0
37 *2087:A3 *2072:B 3.79467e-05
38 *2176:D *2176:B 0
39 *2176:D *489:14 3.17148e-05
40 *2178:B *489:75 0.00011461
41 *2179:A *489:75 3.22834e-05
42 *2190:B *489:14 0.000216064
43 *2191:A2 *489:8 5.19842e-06
44 *2192:A2 *2175:B 1.04232e-05
45 *2193:B *2175:B 2.89114e-05
46 *2201:B *1980:A 0.000290271
47 *2201:B *2175:B 9.82297e-05
48 *2203:A2 *1980:A 0.000388146
49 *2207:A *489:75 0.000266659
50 *2211:A1 *489:75 8.08022e-05
51 *2215:A1 *489:75 0.000241294
52 *2422:A *489:75 0.000331929
53 *168:12 *1980:A 0.000100481
54 *169:12 *489:14 0
55 *281:35 *1980:A 3.25078e-05
56 *291:95 *1980:A 3.25078e-05
57 *432:36 *2175:B 6.54622e-05
58 *432:36 *2192:A1 5.52238e-05
59 *432:47 *2175:B 0.000117563
60 *432:47 *2176:B 5.33005e-05
61 *432:47 *2192:A1 0.000125547
62 *432:47 *489:16 0.00135003
63 *448:8 *1980:A 7.83659e-05
64 *465:191 *2072:B 0
65 *465:191 *489:75 5.15901e-05
66 *473:38 *489:8 0.000268396
67 *473:44 *489:8 4.59075e-05
68 *473:44 *489:14 0
69 *480:38 *489:75 3.25078e-05
70 *480:44 *489:75 2.26424e-05
71 *480:48 *489:75 0.000186388
72 *480:54 *2072:B 0
73 *480:54 *489:75 3.07555e-05
74 *480:54 *489:79 6.65302e-05
75 *483:23 *489:75 0.000225601
*RES
1 *2347:Q *489:4 9.3 
2 *489:4 *489:8 9.48214 
3 *489:8 *489:14 12.4643 
4 *489:14 *489:16 12.8571 
5 *489:16 *2192:A1 11.0679 
6 *489:16 *489:25 4.5 
7 *489:25 *1980:A 30.0143 
8 *489:25 *2175:B 19.6393 
9 *489:14 *2176:B 26.3714 
10 *489:8 *2190:A 9.3 
11 *489:4 *489:75 30.6607 
12 *489:75 *489:79 2.58929 
13 *489:79 *2072:B 17.4964 
14 *489:79 *2086:A1 13.8 
15 *489:75 *2079:A2 13.8 
*END

*D_NET *490 0.0138567
*CONN
*I *2176:A I *D sky130_fd_sc_hd__and4_1
*I *2079:A1 I *D sky130_fd_sc_hd__a41o_1
*I *2086:C1 I *D sky130_fd_sc_hd__o211a_1
*I *2072:A I *D sky130_fd_sc_hd__or2_1
*I *2192:B1 I *D sky130_fd_sc_hd__a21oi_1
*I *2175:A I *D sky130_fd_sc_hd__and3_1
*I *1983:A I *D sky130_fd_sc_hd__and3_1
*I *2348:Q O *D sky130_fd_sc_hd__dfxtp_1
*CAP
1 *2176:A 3.34103e-05
2 *2079:A1 0.000191008
3 *2086:C1 1.16062e-05
4 *2072:A 0.000324917
5 *2192:B1 0
6 *2175:A 0
7 *1983:A 0.000712099
8 *2348:Q 0.000541254
9 *490:67 0.000438672
10 *490:65 0.0014978
11 *490:55 0.00250712
12 *490:16 0.000722757
13 *490:14 5.43811e-05
14 *490:10 0.00185404
15 *1983:A *1990:B2 0
16 *1983:A *2196:B1 0.000245335
17 *1983:A *541:12 0
18 *1983:A *542:82 0
19 *1983:A *614:10 0
20 *2086:C1 *609:29 5.52302e-05
21 *490:55 *2191:A1 2.51343e-06
22 *490:55 *2201:A 0.000195386
23 *490:55 *493:12 0.000212314
24 *490:65 *2007:A1 0.000148182
25 *711:DIODE *490:65 5.39166e-06
26 *2007:B1 *2072:A 0
27 *2007:B1 *490:65 0
28 *2007:B1 *490:67 0
29 *2008:A1 *2079:A1 2.95726e-05
30 *2072:B *2072:A 5.52238e-05
31 *2079:A3 *2079:A1 5.52302e-05
32 *2079:A4 *2079:A1 9.90431e-05
33 *2079:A4 *490:65 1.18064e-05
34 *2079:A4 *490:67 8.47672e-05
35 *2175:B *1983:A 5.62995e-05
36 *2175:B *490:16 2.89016e-05
37 *2175:B *490:55 6.20435e-05
38 *2176:B *490:55 0.000509779
39 *2176:C *490:55 0
40 *2176:C *490:65 0
41 *2190:B *490:55 0
42 *2191:A2 *490:55 5.83233e-05
43 *2193:A *490:10 0
44 *2193:B *490:10 0.000150625
45 *2193:B *490:55 9.25014e-06
46 *2194:A2 *490:10 0
47 *2198:A2 *1983:A 6.42338e-05
48 *2201:B *490:55 0.000448691
49 *2204:A_N *490:55 0
50 *2281:D *2079:A1 9.31893e-05
51 *2349:D *1983:A 8.33751e-05
52 *168:12 *490:10 4.16021e-05
53 *168:12 *490:14 2.03438e-05
54 *168:12 *490:55 4.53834e-05
55 *169:12 *490:55 0.000653834
56 *169:12 *490:65 0.000415476
57 *360:16 *2086:C1 5.52302e-05
58 *430:10 *490:65 0.000138005
59 *432:25 *1983:A 0.000173157
60 *432:36 *1983:A 0.00010858
61 *432:36 *490:16 4.38128e-05
62 *432:47 *490:55 7.12625e-05
63 *433:8 *1983:A 0.000208069
64 *434:25 *2176:A 5.33005e-05
65 *465:81 *1983:A 0.000174876
66 *465:81 *490:10 0
67 *465:81 *490:14 0
*RES
1 *2348:Q *490:10 21.9518 
2 *490:10 *490:14 5.38393 
3 *490:14 *490:16 0.535714 
4 *490:16 *1983:A 35.5857 
5 *490:16 *2175:A 9.3 
6 *490:14 *2192:B1 9.3 
7 *490:10 *490:55 36.3661 
8 *490:55 *490:65 27.3393 
9 *490:65 *490:67 1.94643 
10 *490:67 *2072:A 19.2464 
11 *490:67 *2086:C1 14.3357 
12 *490:65 *2079:A1 17.6393 
13 *490:55 *2176:A 14.3357 
*END

*D_NET *491 0.0101071
*CONN
*I *2197:B I *D sky130_fd_sc_hd__and3_1
*I *2074:D I *D sky130_fd_sc_hd__and4_1
*I *1987:B2 I *D sky130_fd_sc_hd__a22o_1
*I *2198:A1 I *D sky130_fd_sc_hd__a21oi_1
*I *2195:A I *D sky130_fd_sc_hd__xnor2_1
*I *2349:Q O *D sky130_fd_sc_hd__dfxtp_1
*CAP
1 *2197:B 0.000126992
2 *2074:D 0.000508496
3 *1987:B2 0.0012733
4 *2198:A1 0
5 *2195:A 6.13565e-05
6 *2349:Q 0.000261954
7 *491:32 0.0020112
8 *491:30 0.000576967
9 *491:21 0.000657348
10 *491:6 0.000760086
11 *1987:B2 *677:DIODE 1.46624e-05
12 *1987:B2 *1972:B2 2.14757e-05
13 *1987:B2 *1990:B2 0
14 *1987:B2 *1993:A1 0
15 *1987:B2 *2420:A 6.42338e-05
16 *1987:B2 *613:27 0.000104809
17 *1987:B2 *613:34 0.00010096
18 *1987:B2 *613:47 0.000358971
19 *1987:B2 *650:58 0.000646263
20 *2074:D *492:25 0.000386371
21 *2074:D *494:16 9.41642e-05
22 *2195:A *541:12 0.000123295
23 *2197:B *603:39 0
24 *491:6 *1971:B 5.70688e-05
25 *491:30 *2198:B1 0.00014285
26 *1980:A *1987:B2 0.000336915
27 *1980:A *2197:B 0.000207054
28 *1980:A *491:32 0.000454299
29 *1982:B1 *1987:B2 0
30 *2145:A2 *1987:B2 0
31 *2199:B *491:30 0.000148106
32 *2274:D *2195:A 0.000125731
33 *2333:D *1987:B2 0
34 *2349:CLK *491:21 7.24996e-05
35 *2349:CLK *491:30 0.000114816
36 *2349:D *491:21 4.80221e-05
37 *2350:D *2197:B 0
38 *2350:D *491:32 0
39 *280:51 *1987:B2 0
40 *291:95 *2197:B 1.02504e-05
41 *334:68 *1987:B2 0.000236538
*RES
1 *2349:Q *491:6 12.3 
2 *491:6 *2195:A 19.9429 
3 *491:6 *491:21 5.48214 
4 *491:21 *2198:A1 9.3 
5 *491:21 *491:30 9.14286 
6 *491:30 *491:32 5.89286 
7 *491:32 *1987:B2 40.3893 
8 *491:32 *2074:D 23.9429 
9 *491:30 *2197:B 16.6571 
*END

*D_NET *492 0.00870074
*CONN
*I *2197:A I *D sky130_fd_sc_hd__and3_1
*I *2198:B1 I *D sky130_fd_sc_hd__a21oi_1
*I *2074:C I *D sky130_fd_sc_hd__and4_1
*I *2073:C I *D sky130_fd_sc_hd__and3_1
*I *1990:B2 I *D sky130_fd_sc_hd__a22o_1
*I *2350:Q O *D sky130_fd_sc_hd__dfxtp_1
*CAP
1 *2197:A 0.000258546
2 *2198:B1 2.58191e-05
3 *2074:C 0
4 *2073:C 0.000273303
5 *1990:B2 0.000952249
6 *2350:Q 0
7 *492:45 0.000419212
8 *492:25 0.000917131
9 *492:8 0.00165418
10 *492:6 0.000192945
11 *1990:B2 *677:DIODE 3.25078e-05
12 *1990:B2 *1981:A1 0.000242913
13 *1990:B2 *1981:B1 5.84171e-05
14 *1990:B2 *555:10 0.000285078
15 *1990:B2 *556:8 1.52978e-05
16 *1990:B2 *556:16 9.71197e-05
17 *1990:B2 *556:48 0.000169262
18 *1990:B2 *614:10 5.10822e-05
19 *1990:B2 *615:245 8.359e-05
20 *1990:B2 *650:58 0.000219711
21 *2073:C *2073:A 5.52238e-05
22 *2073:C *2073:B 0.00014101
23 *2073:C *494:16 5.59013e-05
24 *2073:C *560:10 6.28499e-05
25 *2073:C *560:100 9.55467e-05
26 *2073:C *620:18 0.000133556
27 *2197:A *2200:A1 7.43844e-05
28 *2197:A *603:47 0.000336068
29 *492:25 *2074:B 9.41642e-05
30 *1980:A *1990:B2 0
31 *1983:A *1990:B2 0
32 *1987:B2 *1990:B2 0
33 *1994:B1 *1990:B2 0
34 *2074:D *492:25 0.000386371
35 *2197:C *2197:A 1.39841e-05
36 *2199:A *2197:A 4.43256e-05
37 *2199:B *2197:A 0.000100831
38 *2200:A2 *2197:A 0.000324518
39 *2339:CLK *1990:B2 2.28598e-05
40 *2339:D *1990:B2 0.000105246
41 *2349:CLK *2198:B1 7.77652e-05
42 *168:12 *1990:B2 9.56968e-05
43 *168:12 *2197:A 0.000100969
44 *168:12 *492:8 5.33978e-05
45 *168:12 *492:45 0.000148851
46 *280:25 *1990:B2 5.41794e-05
47 *281:35 *1990:B2 2.15363e-05
48 *296:40 *2073:C 1.02936e-05
49 *465:81 *1990:B2 0
50 *465:81 *2197:A 0
51 *465:81 *492:8 0
52 *465:81 *492:45 0
53 *491:30 *2198:B1 0.00014285
*RES
1 *2350:Q *492:6 13.8 
2 *492:6 *492:8 1.33929 
3 *492:8 *1990:B2 35.9071 
4 *492:8 *492:25 16.1429 
5 *492:25 *2073:C 24.1036 
6 *492:25 *2074:C 9.3 
7 *492:6 *492:45 3.46429 
8 *492:45 *2198:B1 15.1571 
9 *492:45 *2197:A 22.2643 
*END

*D_NET *493 0.0070109
*CONN
*I *2203:A1 I *D sky130_fd_sc_hd__a21o_1
*I *2074:B I *D sky130_fd_sc_hd__and4_1
*I *2073:B I *D sky130_fd_sc_hd__and3_1
*I *1992:A1 I *D sky130_fd_sc_hd__a21o_1
*I *2201:A I *D sky130_fd_sc_hd__xnor2_1
*I *2351:Q O *D sky130_fd_sc_hd__dfxtp_1
*CAP
1 *2203:A1 0
2 *2074:B 7.70325e-05
3 *2073:B 0.000269305
4 *1992:A1 0.000129864
5 *2201:A 6.4995e-05
6 *2351:Q 0.000177783
7 *493:33 0.00060192
8 *493:25 0.000346991
9 *493:23 0.000462121
10 *493:12 0.000637692
11 *1992:A1 *1999:A1 6.05161e-06
12 *1992:A1 *1999:B1 0.000621848
13 *1992:A1 *560:24 3.30237e-05
14 *1992:A1 *614:103 3.57366e-05
15 *2073:B *1999:A1 7.50757e-05
16 *2073:B *1999:B1 0.000219711
17 *2073:B *560:10 0.000131377
18 *2073:B *560:100 3.42764e-05
19 *2073:B *620:18 5.63831e-05
20 *493:12 *560:100 0
21 *493:23 *620:18 0.000767879
22 *493:25 *620:18 0.000128154
23 *493:33 *494:20 0.000146474
24 *493:33 *620:18 6.86791e-05
25 *1999:B2 *2073:B 5.52238e-05
26 *2073:C *2073:B 0.00014101
27 *2205:A2 *493:23 0
28 *2352:D *493:23 2.03715e-05
29 *164:16 *493:23 0
30 *164:16 *493:25 0
31 *164:16 *493:33 0
32 *280:62 *1992:A1 0.000291733
33 *280:68 *1992:A1 1.02821e-05
34 *296:40 *2073:B 0
35 *432:47 *2201:A 0.000358971
36 *432:47 *493:12 0.000387404
37 *488:37 *2073:B 9.90431e-05
38 *489:14 *493:12 5.26277e-05
39 *490:55 *2201:A 0.000195386
40 *490:55 *493:12 0.000212314
41 *492:25 *2074:B 9.41642e-05
*RES
1 *2351:Q *493:12 24.0679 
2 *493:12 *2201:A 12.7107 
3 *493:12 *493:23 14.3393 
4 *493:23 *493:25 1.64286 
5 *493:25 *493:33 8.32143 
6 *493:33 *1992:A1 15.6036 
7 *493:33 *2073:B 24.8893 
8 *493:25 *2074:B 14.7464 
9 *493:23 *2203:A1 13.8 
*END

*D_NET *494 0.00326688
*CONN
*I *2203:B1 I *D sky130_fd_sc_hd__a21o_1
*I *2074:A I *D sky130_fd_sc_hd__and4_1
*I *1998:A I *D sky130_fd_sc_hd__or2_1
*I *2073:A I *D sky130_fd_sc_hd__and3_1
*I *2352:Q O *D sky130_fd_sc_hd__dfxtp_1
*CAP
1 *2203:B1 0
2 *2074:A 0
3 *1998:A 0
4 *2073:A 0.000153582
5 *2352:Q 0.000452996
6 *494:20 0.000220117
7 *494:16 0.000217234
8 *494:10 0.000603695
9 *2073:A *1999:A1 0.000124649
10 *2073:A *620:18 0.000145407
11 *494:10 *560:100 2.6949e-05
12 *494:10 *620:18 0.000265354
13 *494:16 *560:100 5.75803e-05
14 *494:16 *620:18 0.000220448
15 *494:20 *620:18 0.000169454
16 *2073:C *2073:A 5.52238e-05
17 *2073:C *494:16 5.59013e-05
18 *2074:D *494:16 9.41642e-05
19 *2176:C *494:10 5.03772e-05
20 *2204:B *494:10 0.00010811
21 *164:16 *494:20 0
22 *296:15 *2073:A 2.89016e-05
23 *296:40 *2073:A 7.02611e-05
24 *493:33 *494:20 0.000146474
*RES
1 *2352:Q *494:10 21.4964 
2 *494:10 *494:16 8.30357 
3 *494:16 *494:20 6.75 
4 *494:20 *2073:A 17.5143 
5 *494:20 *1998:A 13.8 
6 *494:16 *2074:A 9.3 
7 *494:10 *2203:B1 13.8 
*END

*D_NET *495 0.00334666
*CONN
*I *2036:D_N I *D sky130_fd_sc_hd__or4b_2
*I *1958:A I *D sky130_fd_sc_hd__or4b_4
*I *1984:B2 I *D sky130_fd_sc_hd__a22o_1
*I *1960:A I *D sky130_fd_sc_hd__or4b_2
*I *2049:A I *D sky130_fd_sc_hd__or4b_2
*I *2307:Q O *D sky130_fd_sc_hd__dfxtp_1
*CAP
1 *2036:D_N 0.000158068
2 *1958:A 0
3 *1984:B2 0.000305833
4 *1960:A 0
5 *2049:A 3.99391e-05
6 *2307:Q 9.15741e-05
7 *495:51 0.000210659
8 *495:25 0.000403436
9 *495:21 0.000225393
10 *495:10 0.000206713
11 *1984:B2 *1986:A 5.34764e-05
12 *1984:B2 *496:41 7.75022e-05
13 *1984:B2 *635:40 5.52238e-05
14 *2036:D_N *496:8 0
15 *2036:D_N *496:21 3.91486e-05
16 *2036:D_N *496:30 2.10446e-05
17 *2036:D_N *498:46 9.90367e-05
18 *2036:D_N *613:57 0
19 *2049:A *2049:C 5.33334e-05
20 *495:10 *497:8 1.02504e-05
21 *495:10 *497:19 6.81083e-05
22 *495:10 *497:30 4.66511e-05
23 *495:10 *497:41 2.31791e-05
24 *495:10 *615:102 0
25 *495:21 *1958:D_N 2.14757e-05
26 *495:21 *2049:C 8.43535e-06
27 *495:21 *2049:D_N 0.000232399
28 *495:25 *496:41 0.000145161
29 *495:25 *497:41 0
30 *495:51 *2049:D_N 4.18895e-05
31 *495:51 *498:46 1.02936e-05
32 *1984:B1 *1984:B2 5.52238e-05
33 *1988:A1 *1984:B2 7.2754e-05
34 *290:12 *1984:B2 5.61135e-05
35 *290:12 *495:25 0
36 *338:10 *2036:D_N 6.73527e-05
37 *338:10 *495:21 0.000315158
38 *338:10 *495:51 0.000131831
*RES
1 *2307:Q *495:10 20.2464 
2 *495:10 *2049:A 10.2464 
3 *495:10 *495:21 3.42857 
4 *495:21 *495:25 6.44643 
5 *495:25 *1960:A 13.8 
6 *495:25 *1984:B2 20.3893 
7 *495:21 *495:51 1.67857 
8 *495:51 *1958:A 9.3 
9 *495:51 *2036:D_N 21.8 
*END

*D_NET *496 0.00316821
*CONN
*I *2098:A I *D sky130_fd_sc_hd__xnor2_1
*I *1986:A I *D sky130_fd_sc_hd__and2_1
*I *1960:B I *D sky130_fd_sc_hd__or4b_2
*I *2049:D_N I *D sky130_fd_sc_hd__or4b_2
*I *1958:B I *D sky130_fd_sc_hd__or4b_4
*I *2036:A I *D sky130_fd_sc_hd__or4b_2
*I *2308:Q O *D sky130_fd_sc_hd__dfxtp_1
*CAP
1 *2098:A 9.63228e-05
2 *1986:A 8.67653e-05
3 *1960:B 4.70928e-05
4 *2049:D_N 5.16273e-05
5 *1958:B 0
6 *2036:A 0
7 *2308:Q 0
8 *496:41 0.000313283
9 *496:30 0.000291822
10 *496:21 0.000193848
11 *496:8 0.000565446
12 *496:4 0.000528691
13 *1960:B *634:21 2.59355e-05
14 *1986:A *613:57 0
15 *2049:D_N *1958:D_N 5.71472e-05
16 *2049:D_N *2049:C 4.58976e-05
17 *2049:D_N *498:46 2.89016e-05
18 *2049:D_N *498:48 5.33433e-05
19 *2098:A *607:53 8.79338e-05
20 *496:8 *2036:C 5.80706e-06
21 *496:8 *497:8 0
22 *496:8 *617:71 0
23 *496:21 *2036:C 5.03545e-05
24 *496:30 *2036:C 7.79781e-06
25 *496:30 *497:41 0
26 *496:30 *613:57 0
27 *496:41 *497:41 0
28 *496:41 *613:57 0
29 *1984:B2 *1986:A 5.34764e-05
30 *1984:B2 *496:41 7.75022e-05
31 *2036:D_N *496:8 0
32 *2036:D_N *496:21 3.91486e-05
33 *2036:D_N *496:30 2.10446e-05
34 *2057:B *496:41 1.95772e-05
35 *2098:B *496:8 0
36 *2308:D *496:8 0
37 *495:21 *2049:D_N 0.000232399
38 *495:25 *496:41 0.000145161
39 *495:51 *2049:D_N 4.18895e-05
*RES
1 *2308:Q *496:4 9.3 
2 *496:4 *496:8 12.2143 
3 *496:8 *2036:A 13.8 
4 *496:8 *496:21 2.60714 
5 *496:21 *1958:B 13.8 
6 *496:21 *496:30 1.03571 
7 *496:30 *2049:D_N 16.3893 
8 *496:30 *496:41 3.16071 
9 *496:41 *1960:B 14.3357 
10 *496:41 *1986:A 15.7464 
11 *496:4 *2098:A 11.3893 
*END

*D_NET *497 0.00303854
*CONN
*I *1989:A I *D sky130_fd_sc_hd__and2_1
*I *1960:C I *D sky130_fd_sc_hd__or4b_2
*I *1958:D_N I *D sky130_fd_sc_hd__or4b_4
*I *2049:B I *D sky130_fd_sc_hd__or4b_2
*I *2036:B I *D sky130_fd_sc_hd__or4b_2
*I *2309:Q O *D sky130_fd_sc_hd__dfxtp_1
*CAP
1 *1989:A 0.000177074
2 *1960:C 4.1878e-05
3 *1958:D_N 1.85405e-05
4 *2049:B 9.93976e-05
5 *2036:B 0.000152833
6 *2309:Q 0.00015064
7 *497:41 0.000374396
8 *497:30 0.000207266
9 *497:19 0.000182764
10 *497:8 0.000353558
11 *1958:D_N *2049:C 9.90431e-05
12 *1960:C *634:21 0.000139907
13 *2036:B *615:102 0.000227539
14 *2049:B *2049:C 0.0001399
15 *497:8 *2036:C 0
16 *497:8 *615:102 0
17 *1986:B *1989:A 8.66063e-05
18 *2049:D_N *1958:D_N 5.71472e-05
19 *290:12 *1960:C 5.33433e-05
20 *290:12 *1989:A 0.000195412
21 *290:12 *497:41 5.83233e-05
22 *295:49 *1989:A 5.33005e-05
23 *495:10 *497:8 1.02504e-05
24 *495:10 *497:19 6.81083e-05
25 *495:10 *497:30 4.66511e-05
26 *495:10 *497:41 2.31791e-05
27 *495:21 *1958:D_N 2.14757e-05
28 *495:25 *497:41 0
29 *496:8 *497:8 0
30 *496:30 *497:41 0
31 *496:41 *497:41 0
*RES
1 *2309:Q *497:8 16.3536 
2 *497:8 *2036:B 15.9786 
3 *497:8 *497:19 1.03571 
4 *497:19 *2049:B 15.1571 
5 *497:19 *497:30 0.732143 
6 *497:30 *1958:D_N 14.7464 
7 *497:30 *497:41 2.55357 
8 *497:41 *1960:C 15.1571 
9 *497:41 *1989:A 17.7107 
*END

*D_NET *498 0.0102786
*CONN
*I *1993:A1 I *D sky130_fd_sc_hd__o211a_1
*I *1958:C I *D sky130_fd_sc_hd__or4b_4
*I *2036:C I *D sky130_fd_sc_hd__or4b_2
*I *2049:C I *D sky130_fd_sc_hd__or4b_2
*I *2096:B1 I *D sky130_fd_sc_hd__a31o_1
*I *1960:D_N I *D sky130_fd_sc_hd__or4b_2
*I *2310:Q O *D sky130_fd_sc_hd__dfxtp_1
*CAP
1 *1993:A1 0.00103259
2 *1958:C 0
3 *2036:C 0.000145976
4 *2049:C 0.000208808
5 *2096:B1 0.000253714
6 *1960:D_N 0.000585321
7 *2310:Q 0
8 *498:48 0.000399039
9 *498:46 0.000601199
10 *498:21 0.00101607
11 *498:6 0.00105073
12 *498:4 0.00129258
13 *1960:D_N *634:21 0.000162703
14 *1993:A1 *1993:C1 7.50697e-05
15 *1993:A1 *1999:A1 0
16 *1993:A1 *2420:A 0
17 *1993:A1 *615:124 0.000171484
18 *1993:A1 *615:142 0.000263105
19 *1993:A1 *615:226 7.05143e-06
20 *1993:A1 *615:239 3.67356e-05
21 *2049:C *615:102 1.24368e-05
22 *498:21 *2058:A 0
23 *498:21 *2058:B 0
24 *1958:D_N *2049:C 9.90431e-05
25 *1982:B1 *1993:A1 0
26 *1987:B2 *1993:A1 0
27 *2036:D_N *498:46 9.90367e-05
28 *2049:A *2049:C 5.33334e-05
29 *2049:B *2049:C 0.0001399
30 *2049:D_N *2049:C 4.58976e-05
31 *2049:D_N *498:46 2.89016e-05
32 *2049:D_N *498:48 5.33433e-05
33 *2058:C *498:46 0.00021023
34 *2066:A2 *498:21 2.0953e-05
35 *2066:A3 *2096:B1 0.000118986
36 *2066:A3 *498:21 8.07951e-05
37 *2097:B *2096:B1 0
38 *2097:D_N *2096:B1 4.46186e-06
39 *2145:A2 *1993:A1 0.000836151
40 *2310:CLK *1960:D_N 0.000111448
41 *2310:CLK *1993:A1 1.56e-05
42 *2310:CLK *498:6 0.000125412
43 *2316:CLK *1993:A1 0
44 *164:16 *1993:A1 0
45 *289:6 *498:46 5.71472e-05
46 *289:17 *498:46 0.000168831
47 *326:8 *2096:B1 3.99614e-06
48 *334:10 *498:21 0.000263551
49 *334:16 *2096:B1 6.56954e-05
50 *334:16 *498:21 1.81805e-05
51 *334:31 *2096:B1 0.000106997
52 *335:22 *2096:B1 0
53 *338:10 *498:46 3.98559e-05
54 *345:6 *2096:B1 1.74352e-05
55 *346:6 *498:46 9.60875e-05
56 *472:61 *1993:A1 0
57 *495:21 *2049:C 8.43535e-06
58 *495:51 *498:46 1.02936e-05
59 *496:8 *2036:C 5.80706e-06
60 *496:21 *2036:C 5.03545e-05
61 *496:30 *2036:C 7.79781e-06
62 *497:8 *2036:C 0
*RES
1 *2310:Q *498:4 9.3 
2 *498:4 *498:6 3.41071 
3 *498:6 *1960:D_N 17.4429 
4 *498:6 *498:21 9.10714 
5 *498:21 *2096:B1 18.6929 
6 *498:21 *498:46 13.3929 
7 *498:46 *498:48 0.946429 
8 *498:48 *2049:C 13.8536 
9 *498:48 *2036:C 20.55 
10 *498:46 *1958:C 9.3 
11 *498:4 *1993:A1 41.1571 
*END

*D_NET *499 0.00783013
*CONN
*I *2107:D I *D sky130_fd_sc_hd__and4_1
*I *2108:A3 I *D sky130_fd_sc_hd__a31o_1
*I *2100:A_N I *D sky130_fd_sc_hd__and2b_1
*I *2104:C I *D sky130_fd_sc_hd__nand3_1
*I *2102:B I *D sky130_fd_sc_hd__or2_1
*I *2101:B I *D sky130_fd_sc_hd__nand2_1
*I *2011:A I *D sky130_fd_sc_hd__and3_1
*I *2105:A2 I *D sky130_fd_sc_hd__a21o_1
*I *2317:Q O *D sky130_fd_sc_hd__dfxtp_1
*CAP
1 *2107:D 0.000147863
2 *2108:A3 0
3 *2100:A_N 3.82418e-05
4 *2104:C 0
5 *2102:B 0
6 *2101:B 2.78874e-05
7 *2011:A 0.000135544
8 *2105:A2 6.14063e-05
9 *2317:Q 0.000163645
10 *499:92 0.000230566
11 *499:49 0.000348518
12 *499:43 0.000563553
13 *499:41 0.0004961
14 *499:24 0.000426536
15 *499:18 0.000907032
16 *499:10 0.000867644
17 *2011:A *2011:B 2.51343e-06
18 *2011:A *2012:A 6.5339e-05
19 *2011:A *2039:B 0
20 *2011:A *606:31 0
21 *2011:A *606:60 1.40306e-05
22 *2011:A *610:49 3.17148e-05
23 *2011:A *610:57 5.52238e-05
24 *2105:A2 *506:56 2.44318e-05
25 *2105:A2 *506:69 5.71472e-05
26 *2105:A2 *584:22 3.67142e-05
27 *2105:A2 *610:26 0
28 *2107:D *2107:C 6.05161e-06
29 *2107:D *2108:A2 1.91414e-05
30 *2107:D *507:19 1.02504e-05
31 *2107:D *507:27 0.000149904
32 *2107:D *584:22 1.92905e-05
33 *499:18 *2013:A 1.02821e-05
34 *499:18 *2100:B 5.33005e-05
35 *499:18 *508:10 0.00014285
36 *499:24 *2013:A 4.01768e-05
37 *499:24 *610:26 0
38 *499:41 *610:26 0
39 *499:43 *2104:B 0.000955054
40 *499:43 *506:37 9.60875e-05
41 *499:49 *2012:A 4.46186e-06
42 *499:49 *2039:B 0
43 *499:49 *506:37 0.000253466
44 *499:92 *2108:A2 2.26973e-05
45 *499:92 *508:10 3.65926e-05
46 *2106:B *499:24 0.000236539
47 *2106:B *499:41 0.000161858
48 *2109:A_N *2107:D 0
49 *2320:D *499:10 2.88424e-05
50 *2320:D *499:92 3.2534e-05
51 *2327:CLK *499:41 2.78729e-05
52 *466:20 *2101:B 5.33005e-05
53 *466:20 *499:49 0.000200413
54 *468:49 *499:18 6.05161e-06
55 *468:53 *2100:A_N 0
56 *468:53 *499:10 7.77652e-05
57 *468:53 *499:18 0.00036897
58 *468:57 *499:18 9.31893e-05
59 *468:72 *499:24 2.15363e-05
*RES
1 *2317:Q *499:10 16.4964 
2 *499:10 *499:18 15.0357 
3 *499:18 *499:24 9.36607 
4 *499:24 *2105:A2 15.5589 
5 *499:24 *499:41 7.50893 
6 *499:41 *499:43 9.98214 
7 *499:43 *499:49 9.53571 
8 *499:49 *2011:A 16.9429 
9 *499:49 *2101:B 14.3357 
10 *499:43 *2102:B 9.3 
11 *499:41 *2104:C 9.3 
12 *499:18 *2100:A_N 10.0321 
13 *499:10 *499:92 1.94643 
14 *499:92 *2108:A3 13.8 
15 *499:92 *2107:D 16.8893 
*END

*D_NET *500 0.0117036
*CONN
*I *2129:A I *D sky130_fd_sc_hd__or2_1
*I *2134:C I *D sky130_fd_sc_hd__and4_1
*I *2021:A I *D sky130_fd_sc_hd__and3_1
*I *2041:B I *D sky130_fd_sc_hd__or3_1
*I *2054:A1 I *D sky130_fd_sc_hd__a311o_1
*I *2040:A I *D sky130_fd_sc_hd__nor2_1
*I *2128:A I *D sky130_fd_sc_hd__nand2_1
*I *2327:Q O *D sky130_fd_sc_hd__dfxtp_1
*CAP
1 *2129:A 0
2 *2134:C 2.50472e-05
3 *2021:A 0.000275191
4 *2041:B 8.64845e-05
5 *2054:A1 0.000108588
6 *2040:A 2.23854e-05
7 *2128:A 1.56322e-05
8 *2327:Q 0.000130547
9 *500:70 0.000612333
10 *500:49 0.00105935
11 *500:30 0.000925433
12 *500:26 0.000700931
13 *500:22 0.000670596
14 *500:16 0.000640449
15 *2021:A *2021:C 0.000204011
16 *2041:B *2042:A 1.98839e-05
17 *2134:C *2039:D 9.41642e-05
18 *500:16 *2130:A 2.8266e-06
19 *500:16 *2134:B 0.000415221
20 *500:16 *600:20 5.59013e-05
21 *500:22 *2039:D 0
22 *500:22 *2134:B 3.8274e-05
23 *500:30 *2136:C 0.000248986
24 *500:49 *1935:A 5.52302e-05
25 *2040:B *500:70 0
26 *2042:B *2041:B 5.52302e-05
27 *2042:B *500:70 5.52238e-05
28 *2051:A1 *500:49 4.52179e-05
29 *2051:A1 *500:70 8.32266e-05
30 *2051:A2 *2041:B 0.000169366
31 *2051:A2 *500:70 0.000215641
32 *2051:A4 *500:70 0.00018372
33 *2051:B1 *500:70 0.000121554
34 *2054:B1 *2054:A1 5.52238e-05
35 *2059:A2 *500:70 4.46186e-06
36 *2128:B *500:30 9.90431e-05
37 *2131:A *2128:A 9.41946e-06
38 *2131:A *500:49 0.000449567
39 *2131:B *2128:A 1.11677e-05
40 *2131:B *500:49 3.68008e-05
41 *2132:B *500:49 9.09664e-06
42 *2134:D *2134:C 5.33005e-05
43 *2134:D *500:22 0.000526407
44 *2136:A_N *500:26 0.000391568
45 *2136:B *500:30 0.000235154
46 *2327:D *500:22 0
47 *2328:CLK *2054:A1 5.33005e-05
48 *2329:CLK *500:26 0.000146474
49 *2383:A *2040:A 0
50 *2383:A *2054:A1 0.00012401
51 *2383:A *500:49 0.000232399
52 *2383:A *500:70 0.000259934
53 *150:14 *500:70 0.000101545
54 *154:14 *500:16 0.000307773
55 *274:6 *500:49 0.000511899
56 *331:6 *2041:B 8.46829e-05
57 *332:8 *2054:A1 4.66203e-05
58 *337:8 *2054:A1 0.000114111
59 *402:6 *500:30 3.18676e-05
60 *402:6 *500:49 1.21289e-05
61 *406:10 *500:22 0
62 *465:33 *2021:A 0.000316937
63 *465:33 *500:26 0.000142093
*RES
1 *2327:Q *500:16 23.4071 
2 *500:16 *500:22 7.44643 
3 *500:22 *500:26 9.78571 
4 *500:26 *500:30 12.0179 
5 *500:30 *2128:A 9.72857 
6 *500:30 *500:49 22.625 
7 *500:49 *2040:A 9.72857 
8 *500:49 *500:70 18.125 
9 *500:70 *2054:A1 21.6929 
10 *500:70 *2041:B 11.9071 
11 *500:26 *2021:A 21.5143 
12 *500:22 *2134:C 10.2464 
13 *500:16 *2129:A 9.3 
*END

*D_NET *501 0.0101986
*CONN
*I *1935:A I *D sky130_fd_sc_hd__inv_2
*I *2418:A I *D sky130_fd_sc_hd__dlygate4sd3_1
*I *2053:A I *D sky130_fd_sc_hd__or3_1
*I *2041:A I *D sky130_fd_sc_hd__or3_1
*I *2134:B I *D sky130_fd_sc_hd__and4_1
*I *2328:Q O *D sky130_fd_sc_hd__dfxtp_1
*CAP
1 *1935:A 0.000292417
2 *2418:A 9.91124e-05
3 *2053:A 0.00013111
4 *2041:A 0
5 *2134:B 0.000301796
6 *2328:Q 0
7 *501:31 0.00153612
8 *501:21 0.00159324
9 *501:19 0.000492349
10 *501:6 0.000412615
11 *2053:A *2042:A 0.000132892
12 *2134:B *2039:D 0.00010096
13 *2134:B *2130:A 5.52238e-05
14 *2134:B *502:12 0.000300798
15 *2134:B *610:95 0.000150625
16 *2418:A *610:95 0.000134664
17 *501:19 *610:95 0.00023267
18 *501:21 *610:95 0.000138946
19 *501:31 *607:53 0.000126439
20 *2041:C *2053:A 5.52238e-05
21 *2130:C *2134:B 5.15407e-05
22 *2133:B *501:19 5.94923e-05
23 *2134:D *2134:B 0.000443648
24 *2327:D *2134:B 0.000229456
25 *2382:A *1935:A 0.000186662
26 *2383:A *1935:A 0.000244535
27 *150:14 *2418:A 0.000271339
28 *150:14 *501:31 0.00118066
29 *154:14 *2134:B 0.000123147
30 *274:6 *1935:A 0.000486447
31 *343:8 *501:31 0.000125724
32 *383:10 *501:21 0
33 *500:16 *2134:B 0.000415221
34 *500:22 *2134:B 3.8274e-05
35 *500:49 *1935:A 5.52302e-05
*RES
1 *2328:Q *501:6 13.8 
2 *501:6 *2134:B 25.7286 
3 *501:6 *501:19 3.16071 
4 *501:19 *501:21 1.94643 
5 *501:21 *501:31 32.9286 
6 *501:31 *2041:A 9.3 
7 *501:31 *2053:A 12.3 
8 *501:21 *2418:A 17.1214 
9 *501:19 *1935:A 20.6214 
*END

*D_NET *502 0.00398729
*CONN
*I *2406:A I *D sky130_fd_sc_hd__dlygate4sd3_1
*I *2135:A I *D sky130_fd_sc_hd__or2_1
*I *2134:A I *D sky130_fd_sc_hd__and4_1
*I *2039:D I *D sky130_fd_sc_hd__or4_1
*I *2329:Q O *D sky130_fd_sc_hd__dfxtp_1
*CAP
1 *2406:A 0.000243508
2 *2135:A 6.67447e-05
3 *2134:A 0
4 *2039:D 0.000141975
5 *2329:Q 0
6 *502:30 0.000339918
7 *502:12 0.000252489
8 *502:6 0.000140179
9 *2039:D *2039:C 5.52238e-05
10 *2135:A *600:16 6.05161e-06
11 *2135:A *606:118 0.000137983
12 *2406:A *2021:C 7.64823e-05
13 *2406:A *2022:A 7.02611e-05
14 *2406:A *606:17 2.61337e-05
15 *2406:A *606:19 0.000158192
16 *2406:A *610:95 3.07495e-05
17 *502:12 *606:23 6.42338e-05
18 *502:30 *606:19 1.76135e-05
19 *502:30 *606:23 2.58997e-05
20 *2128:B *2406:A 2.59093e-05
21 *2128:B *502:12 6.42338e-05
22 *2128:B *502:30 4.25427e-05
23 *2134:B *2039:D 0.00010096
24 *2134:B *502:12 0.000300798
25 *2134:C *2039:D 9.41642e-05
26 *2134:D *2039:D 1.5424e-05
27 *2136:B *2406:A 0.000197991
28 *150:14 *2406:A 0.000356022
29 *154:14 *2039:D 0.000455097
30 *154:14 *502:12 0.000312209
31 *406:10 *2039:D 0.000168303
32 *500:22 *2039:D 0
*RES
1 *2329:Q *502:6 13.8 
2 *502:6 *502:12 9.14286 
3 *502:12 *2039:D 14.9071 
4 *502:12 *2134:A 9.3 
5 *502:6 *502:30 1.03571 
6 *502:30 *2135:A 15.1571 
7 *502:30 *2406:A 21.8893 
*END

*D_NET *503 0.00205242
*CONN
*I *2432:A I *D sky130_fd_sc_hd__dlygate4sd3_1
*I *2138:A I *D sky130_fd_sc_hd__or2_1
*I *2137:A I *D sky130_fd_sc_hd__and2_1
*I *2039:C I *D sky130_fd_sc_hd__or4_1
*I *2330:Q O *D sky130_fd_sc_hd__dfxtp_1
*CAP
1 *2432:A 3.21518e-05
2 *2138:A 0
3 *2137:A 0.000347597
4 *2039:C 5.72494e-05
5 *2330:Q 0
6 *503:25 0.000579668
7 *503:21 0.000357885
8 *503:6 0.000150912
9 *2039:C *2039:B 2.84494e-05
10 *503:21 *2039:B 5.80706e-06
11 *2039:D *2039:C 5.52238e-05
12 *2136:A_N *503:21 0
13 *2138:B *2039:C 0
14 *2138:B *503:21 0
15 *2138:B *503:25 5.33005e-05
16 *2139:B *2137:A 3.05522e-05
17 *2139:B *503:25 6.05161e-06
18 *2298:CLK *2137:A 0.000227642
19 *154:14 *2039:C 9.71197e-05
20 *406:10 *2039:C 1.74352e-05
21 *466:124 *2137:A 5.37741e-06
*RES
1 *2330:Q *503:6 13.8 
2 *503:6 *2039:C 15.4786 
3 *503:6 *503:21 6.14286 
4 *503:21 *503:25 3.83929 
5 *503:25 *2137:A 24.8179 
6 *503:25 *2138:A 9.3 
7 *503:21 *2432:A 9.83571 
*END

*D_NET *504 0.003768
*CONN
*I *2039:A I *D sky130_fd_sc_hd__or4_1
*I *2140:A I *D sky130_fd_sc_hd__nand2_1
*I *2407:A I *D sky130_fd_sc_hd__dlygate4sd3_1
*I *2141:A I *D sky130_fd_sc_hd__or2_1
*I *2331:Q O *D sky130_fd_sc_hd__dfxtp_1
*CAP
1 *2039:A 0.000115665
2 *2140:A 0
3 *2407:A 0.000215439
4 *2141:A 0.000335857
5 *2331:Q 0
6 *504:36 0.000276423
7 *504:19 0.000482139
8 *504:6 0.0004418
9 *2039:A *2039:B 8.359e-05
10 *2141:A *2039:B 0.000175519
11 *2141:A *584:22 9.06747e-05
12 *2407:A *2025:A 0.000357048
13 *2407:A *600:93 8.71761e-05
14 *504:19 *2039:B 0.000225292
15 *504:36 *2039:B 0.000238769
16 *2136:A_N *2039:A 1.19402e-05
17 *2141:B *2141:A 5.71472e-05
18 *2141:B *504:19 0
19 *2141:B *504:36 0
20 *2329:CLK *2039:A 0
21 *2367:A *2407:A 0.000186379
22 *151:8 *2039:A 8.66063e-05
23 *151:8 *504:36 5.33005e-05
24 *329:20 *2039:A 4.15914e-05
25 *466:8 *2407:A 5.52238e-05
26 *466:44 *2039:A 9.71197e-05
27 *466:44 *504:36 5.33005e-05
*RES
1 *2331:Q *504:6 13.8 
2 *504:6 *2141:A 20.2821 
3 *504:6 *504:19 2.85714 
4 *504:19 *2407:A 20.1036 
5 *504:19 *504:36 8.19643 
6 *504:36 *2140:A 9.3 
7 *504:36 *2039:A 21.4964 
*END

*D_NET *505 0.00444611
*CONN
*I *2039:B I *D sky130_fd_sc_hd__or4_1
*I *2143:A I *D sky130_fd_sc_hd__xnor2_1
*I *2412:A I *D sky130_fd_sc_hd__dlygate4sd3_1
*I *2332:Q O *D sky130_fd_sc_hd__dfxtp_1
*CAP
1 *2039:B 0.000632403
2 *2143:A 0.000137066
3 *2412:A 0.000249967
4 *2332:Q 0.000100289
5 *505:21 0.000881464
6 *505:8 0.000462251
7 *2039:B *610:49 0
8 *2039:B *611:20 0
9 *2143:A *573:14 0.000382467
10 *2143:A *606:60 0.000356857
11 *2143:A *610:57 0.000190917
12 *2412:A *2012:B 0
13 *2412:A *2144:A 0.000188586
14 *2412:A *573:14 4.46186e-06
15 *2412:A *576:18 0
16 *505:8 *2479:A 5.41494e-05
17 *505:21 *573:14 4.78056e-05
18 *505:21 *606:60 0
19 *505:21 *610:49 0
20 *2011:A *2039:B 0
21 *2039:A *2039:B 8.359e-05
22 *2039:C *2039:B 2.84494e-05
23 *2136:A_N *2039:B 0
24 *2138:B *2039:B 0
25 *2141:A *2039:B 0.000175519
26 *466:20 *2039:B 0
27 *466:40 *2039:B 0
28 *499:49 *2039:B 0
29 *503:21 *2039:B 5.80706e-06
30 *504:19 *2039:B 0.000225292
31 *504:36 *2039:B 0.000238769
*RES
1 *2332:Q *505:8 15.1571 
2 *505:8 *2412:A 18.7286 
3 *505:8 *505:21 1.94643 
4 *505:21 *2143:A 20.4964 
5 *505:21 *2039:B 26.675 
*END

*D_NET *506 0.00912935
*CONN
*I *2107:C I *D sky130_fd_sc_hd__and4_1
*I *2108:A2 I *D sky130_fd_sc_hd__a31o_1
*I *2105:A1 I *D sky130_fd_sc_hd__a21o_1
*I *2101:A I *D sky130_fd_sc_hd__nand2_1
*I *2104:B I *D sky130_fd_sc_hd__nand3_1
*I *2102:A I *D sky130_fd_sc_hd__or2_1
*I *2012:A I *D sky130_fd_sc_hd__and3_1
*I *2318:Q O *D sky130_fd_sc_hd__dfxtp_1
*CAP
1 *2107:C 8.15517e-05
2 *2108:A2 8.92315e-05
3 *2105:A1 0
4 *2101:A 0
5 *2104:B 0.000483831
6 *2102:A 0
7 *2012:A 0.000275583
8 *2318:Q 0
9 *506:69 0.000921774
10 *506:56 0.00101645
11 *506:37 0.000749283
12 *506:16 0.000561131
13 *506:12 0.000565543
14 *506:4 0.000810908
15 *2012:A *2012:B 1.41029e-05
16 *2012:A *2012:C 7.6644e-05
17 *2012:A *2144:A 5.71472e-05
18 *2012:A *610:49 0.000320738
19 *2012:A *622:32 0
20 *2107:C *2107:A 3.69047e-06
21 *2107:C *507:17 8.25843e-06
22 *2107:C *584:22 2.13481e-06
23 *2108:A2 *507:27 0.000100823
24 *2108:A2 *508:10 2.26973e-05
25 *2108:A2 *508:23 0.000148189
26 *506:12 *584:22 3.35232e-05
27 *506:37 *622:32 0
28 *506:56 *584:22 3.42639e-05
29 *506:69 *2105:B1 0.000529669
30 *506:69 *2107:A 1.58163e-05
31 *506:69 *507:17 6.05039e-05
32 *506:69 *584:22 7.48301e-06
33 *2011:A *2012:A 6.5339e-05
34 *2103:B *2012:A 0.000106299
35 *2105:A2 *506:56 2.44318e-05
36 *2105:A2 *506:69 5.71472e-05
37 *2107:D *2107:C 6.05161e-06
38 *2107:D *2108:A2 1.91414e-05
39 *2285:CLK *506:12 0.000199565
40 *2285:D *2012:A 0.000127439
41 *2285:RESET_B *2012:A 3.47737e-05
42 *2318:D *506:12 5.7298e-05
43 *2319:D *506:69 1.64343e-05
44 *466:20 *506:12 2.74192e-05
45 *466:20 *506:16 5.52302e-05
46 *466:20 *506:37 1.00375e-05
47 *499:43 *2104:B 0.000955054
48 *499:43 *506:37 9.60875e-05
49 *499:49 *2012:A 4.46186e-06
50 *499:49 *506:37 0.000253466
51 *499:92 *2108:A2 2.26973e-05
*RES
1 *2318:Q *506:4 9.3 
2 *506:4 *506:12 7.67857 
3 *506:12 *506:16 5.03571 
4 *506:16 *2012:A 21.8 
5 *506:16 *506:37 9.83929 
6 *506:37 *2102:A 9.3 
7 *506:37 *2104:B 19.2821 
8 *506:12 *2101:A 9.3 
9 *506:4 *506:56 3.41071 
10 *506:56 *2105:A1 9.3 
11 *506:56 *506:69 11.7857 
12 *506:69 *2108:A2 21.2107 
13 *506:69 *2107:C 10.2464 
*END

*D_NET *507 0.00493758
*CONN
*I *2038:A2 I *D sky130_fd_sc_hd__o211ai_1
*I *2104:A I *D sky130_fd_sc_hd__nand3_1
*I *2107:B I *D sky130_fd_sc_hd__and4_1
*I *2108:A1 I *D sky130_fd_sc_hd__a31o_1
*I *2421:A I *D sky130_fd_sc_hd__dlygate4sd3_1
*I *2105:B1 I *D sky130_fd_sc_hd__a21o_1
*I *2319:Q O *D sky130_fd_sc_hd__dfxtp_1
*CAP
1 *2038:A2 7.23837e-05
2 *2104:A 0.000564218
3 *2107:B 0
4 *2108:A1 0
5 *2421:A 0.000182989
6 *2105:B1 0.000205996
7 *2319:Q 0
8 *507:48 0.000730853
9 *507:27 0.000279409
10 *507:19 0.000125179
11 *507:17 0.000190249
12 *507:4 0.000273235
13 *2038:A2 *2048:A1 1.02504e-05
14 *2038:A2 *508:34 0.000168698
15 *2038:A2 *611:64 3.40128e-05
16 *2105:B1 *584:22 0.000299776
17 *2421:A *2109:C 0.000268672
18 *507:17 *2107:A 5.52238e-05
19 *507:17 *584:22 0.000315152
20 *507:19 *508:23 2.31791e-05
21 *507:19 *508:34 3.17148e-05
22 *507:27 *2109:C 2.89114e-05
23 *507:27 *508:23 3.70933e-05
24 *507:48 *508:34 0.000164547
25 *2107:C *507:17 8.25843e-06
26 *2107:D *507:19 1.02504e-05
27 *2107:D *507:27 0.000149904
28 *2108:A2 *507:27 0.000100823
29 *2109:A_N *507:19 0
30 *2319:D *2105:B1 1.64343e-05
31 *388:23 *2038:A2 0
32 *388:23 *507:48 0
33 *506:69 *2105:B1 0.000529669
34 *506:69 *507:17 6.05039e-05
*RES
1 *2319:Q *507:4 9.3 
2 *507:4 *2105:B1 17.55 
3 *507:4 *507:17 7.5 
4 *507:17 *507:19 0.732143 
5 *507:19 *507:27 7.41071 
6 *507:27 *2421:A 13.9429 
7 *507:27 *2108:A1 9.3 
8 *507:19 *2107:B 13.8 
9 *507:17 *507:48 2.25 
10 *507:48 *2104:A 22.9607 
11 *507:48 *2038:A2 16.05 
*END

*D_NET *508 0.00525159
*CONN
*I *2415:A I *D sky130_fd_sc_hd__dlygate4sd3_1
*I *2048:A1 I *D sky130_fd_sc_hd__o211a_1
*I *2038:A1 I *D sky130_fd_sc_hd__o211ai_1
*I *2107:A I *D sky130_fd_sc_hd__and4_1
*I *2108:B1 I *D sky130_fd_sc_hd__a31o_1
*I *2320:Q O *D sky130_fd_sc_hd__dfxtp_1
*CAP
1 *2415:A 0.000156884
2 *2048:A1 0.000267815
3 *2038:A1 0
4 *2107:A 2.31142e-05
5 *2108:B1 0
6 *2320:Q 0
7 *508:34 0.00045874
8 *508:23 0.00037235
9 *508:10 0.000777243
10 *508:4 0.000775815
11 *2048:A1 *2016:A 0.000399835
12 *2048:A1 *2016:B 3.40128e-05
13 *2048:A1 *610:18 0
14 *2048:A1 *611:64 7.39637e-05
15 *2415:A *607:63 5.62995e-05
16 *2415:A *607:70 0.000230694
17 *2415:A *611:83 3.30352e-05
18 *2038:A2 *2048:A1 1.02504e-05
19 *2038:A2 *508:34 0.000168698
20 *2107:C *2107:A 3.69047e-06
21 *2108:A2 *508:10 2.26973e-05
22 *2108:A2 *508:23 0.000148189
23 *151:8 *2048:A1 0
24 *468:49 *2415:A 0.00048746
25 *468:49 *508:10 0.000243791
26 *499:18 *508:10 0.00014285
27 *499:92 *508:10 3.65926e-05
28 *506:69 *2107:A 1.58163e-05
29 *507:17 *2107:A 5.52238e-05
30 *507:19 *508:23 2.31791e-05
31 *507:19 *508:34 3.17148e-05
32 *507:27 *508:23 3.70933e-05
33 *507:48 *508:34 0.000164547
*RES
1 *2320:Q *508:4 9.3 
2 *508:4 *508:10 13.6607 
3 *508:10 *2108:B1 13.8 
4 *508:10 *508:23 3.51786 
5 *508:23 *2107:A 14.3357 
6 *508:23 *508:34 4.67857 
7 *508:34 *2038:A1 13.8 
8 *508:34 *2048:A1 20.6036 
9 *508:4 *2415:A 15.4964 
*END

*D_NET *509 0.00955451
*CONN
*I *2111:A I *D sky130_fd_sc_hd__or2_1
*I *2110:A I *D sky130_fd_sc_hd__and2_1
*I *2113:B I *D sky130_fd_sc_hd__and3_1
*I *2037:D I *D sky130_fd_sc_hd__and4_1
*I *2125:B I *D sky130_fd_sc_hd__and4_1
*I *2048:A2 I *D sky130_fd_sc_hd__o211a_1
*I *2015:A I *D sky130_fd_sc_hd__and3_1
*I *2052:B I *D sky130_fd_sc_hd__or2_1
*I *2321:Q O *D sky130_fd_sc_hd__dfxtp_1
*CAP
1 *2111:A 0.000153645
2 *2110:A 0.000147526
3 *2113:B 0
4 *2037:D 0
5 *2125:B 0
6 *2048:A2 0.000122838
7 *2015:A 0.000264132
8 *2052:B 0
9 *2321:Q 0.000127567
10 *509:48 0.000693646
11 *509:36 0.0010683
12 *509:26 0.00102052
13 *509:16 0.000440897
14 *509:14 0.000378212
15 *509:10 0.000329896
16 *2015:A *2015:C 8.78746e-05
17 *2015:A *611:64 5.52238e-05
18 *2110:A *510:22 0.000103039
19 *2111:A *602:33 0
20 *509:10 *602:33 4.45768e-06
21 *509:26 *2047:B 5.33433e-05
22 *509:26 *2047:C 0
23 *509:26 *511:35 0.000259674
24 *509:26 *512:38 9.69119e-06
25 *509:26 *621:52 0
26 *509:36 *2037:A 0.000140933
27 *509:36 *2047:B 4.72818e-05
28 *509:36 *2047:D 0.000271352
29 *509:36 *510:57 0.000482594
30 *509:36 *510:59 8.57023e-05
31 *509:36 *514:18 0.00014285
32 *509:36 *557:22 7.65719e-05
33 *509:36 *621:52 0.000128549
34 *509:48 *2052:A 9.90367e-05
35 *509:48 *510:59 0.000268403
36 *509:48 *607:53 5.41794e-05
37 *2054:A2 *2048:A2 0.000124193
38 *2112:B *2111:A 0.000155946
39 *2112:B *509:14 5.80706e-06
40 *2114:B *2111:A 5.52302e-05
41 *2115:A_N *2110:A 0.000139913
42 *2115:A_N *509:16 5.52302e-05
43 *2120:B *509:36 0.00017309
44 *2121:A_N *509:26 0
45 *2125:D *509:48 9.25014e-06
46 *2127:A_N *509:36 0.000223558
47 *2127:A_N *509:48 0.000142856
48 *2294:D *509:36 4.46186e-06
49 *2321:D *509:10 1.58163e-05
50 *327:8 *509:36 2.95641e-05
51 *328:10 *2015:A 0.00013906
52 *328:10 *2048:A2 0
53 *337:8 *2048:A2 3.5707e-05
54 *390:10 *509:14 0
55 *390:10 *509:16 3.98559e-05
56 *390:10 *509:26 1.24368e-05
57 *392:6 *509:16 0.00014285
58 *397:8 *509:26 0.00040381
59 *400:20 *2015:A 0.000310298
60 *400:20 *509:48 3.53079e-05
61 *465:135 *509:36 0
62 *468:148 *2111:A 0.000105696
63 *468:148 *509:14 7.6644e-05
*RES
1 *2321:Q *509:10 15.2821 
2 *509:10 *509:14 5.53571 
3 *509:14 *509:16 2.58929 
4 *509:16 *509:26 16.2321 
5 *509:26 *509:36 25.5179 
6 *509:36 *509:48 14.5179 
7 *509:48 *2052:B 9.3 
8 *509:48 *2015:A 24.7643 
9 *509:48 *2048:A2 20.7821 
10 *509:36 *2125:B 9.3 
11 *509:26 *2037:D 9.3 
12 *509:16 *2113:B 9.3 
13 *509:14 *2110:A 12.3357 
14 *509:10 *2111:A 17.1929 
*END

*D_NET *510 0.0121878
*CONN
*I *2125:A I *D sky130_fd_sc_hd__and4_1
*I *2016:A I *D sky130_fd_sc_hd__and3_1
*I *2048:C1 I *D sky130_fd_sc_hd__o211a_1
*I *2052:A I *D sky130_fd_sc_hd__or2_1
*I *2114:A I *D sky130_fd_sc_hd__or2_1
*I *2113:A I *D sky130_fd_sc_hd__and3_1
*I *2037:C I *D sky130_fd_sc_hd__and4_1
*I *2322:Q O *D sky130_fd_sc_hd__dfxtp_1
*CAP
1 *2125:A 0
2 *2016:A 0.000306404
3 *2048:C1 0
4 *2052:A 1.645e-05
5 *2114:A 0
6 *2113:A 0
7 *2037:C 0.00031321
8 *2322:Q 0.000830229
9 *510:72 0.00039256
10 *510:59 0.00022788
11 *510:57 0.000943325
12 *510:40 0.00089297
13 *510:22 0.000678013
14 *510:8 0.00126995
15 *2037:C *2037:A 0.000144773
16 *2037:C *511:35 0.000159049
17 *510:22 *511:35 0.00018372
18 *510:22 *602:33 0.00027095
19 *510:57 *2020:A 0.000428268
20 *510:57 *2123:A 0.000232973
21 *510:57 *2124:A 5.33005e-05
22 *510:57 *514:18 5.97496e-05
23 *510:57 *557:22 0.00089587
24 *510:59 *2020:A 5.33005e-05
25 *510:72 *607:53 7.50601e-05
26 *2048:A1 *2016:A 0.000399835
27 *2054:A2 *510:72 6.34094e-05
28 *2110:A *510:22 0.000103039
29 *2110:B *2037:C 0
30 *2110:B *510:22 0.000238156
31 *2111:B *510:57 1.98839e-05
32 *2114:B *510:57 0.000449546
33 *2115:A_N *510:22 5.82076e-05
34 *2115:B *510:22 0.00010465
35 *2115:B *510:40 3.92854e-05
36 *2123:B *510:57 0.000274288
37 *2124:C *510:57 0.000129534
38 *2127:A_N *510:59 1.38323e-05
39 *2322:CLK *510:8 2.44318e-05
40 *2322:D *510:8 4.8032e-05
41 *336:16 *2016:A 6.20656e-05
42 *388:57 *510:22 6.28499e-05
43 *390:10 *510:22 2.28598e-05
44 *392:6 *510:22 6.73527e-05
45 *400:20 *2052:A 9.90367e-05
46 *400:20 *510:59 9.71197e-05
47 *468:148 *510:8 0.000446603
48 *509:36 *510:57 0.000482594
49 *509:36 *510:59 8.57023e-05
50 *509:48 *2052:A 9.90367e-05
51 *509:48 *510:59 0.000268403
*RES
1 *2322:Q *510:8 24.6036 
2 *510:8 *510:22 15.25 
3 *510:22 *2037:C 13.9607 
4 *510:22 *2113:A 9.3 
5 *510:8 *510:40 5.83929 
6 *510:40 *2114:A 9.3 
7 *510:40 *510:57 22.6964 
8 *510:57 *510:59 3.41071 
9 *510:59 *2052:A 10.2464 
10 *510:59 *510:72 10.9464 
11 *510:72 *2048:C1 9.3 
12 *510:72 *2016:A 15.1929 
13 *510:57 *2125:A 9.3 
*END

*D_NET *511 0.00418667
*CONN
*I *2419:A I *D sky130_fd_sc_hd__dlygate4sd3_1
*I *2116:A I *D sky130_fd_sc_hd__nand2_1
*I *2119:A1 I *D sky130_fd_sc_hd__a21o_1
*I *2037:B I *D sky130_fd_sc_hd__and4_1
*I *2047:B I *D sky130_fd_sc_hd__and4_1
*I *2117:A I *D sky130_fd_sc_hd__or2_1
*I *2323:Q O *D sky130_fd_sc_hd__dfxtp_1
*CAP
1 *2419:A 0
2 *2116:A 0.000135327
3 *2119:A1 0
4 *2037:B 0
5 *2047:B 5.75657e-05
6 *2117:A 0.000108572
7 *2323:Q 7.83071e-05
8 *511:35 0.000478513
9 *511:25 0.00056036
10 *511:23 0.000366239
11 *511:10 0.000200071
12 *511:8 7.83071e-05
13 *2047:B *2037:A 0.000227539
14 *2116:A *2119:B1 0
15 *2117:A *2118:A 0
16 *511:23 *2118:A 0
17 *511:35 *2037:A 8.76257e-05
18 *511:35 *2119:B1 6.05161e-06
19 *511:35 *2408:A 4.46186e-06
20 *2037:C *511:35 0.000159049
21 *2116:B *2116:A 0.00010096
22 *2116:B *511:25 6.42095e-05
23 *2117:B *2117:A 7.58664e-05
24 *2117:B *511:23 4.97121e-06
25 *2117:B *511:35 1.97381e-05
26 *2118:B *2116:A 1.24368e-05
27 *2121:A_N *511:35 0
28 *2121:C *511:35 3.47468e-05
29 *2323:CLK *511:8 0.000142856
30 *2324:D *511:35 8.06331e-05
31 *327:8 *2047:B 0.000144773
32 *388:57 *511:35 1.65558e-05
33 *390:10 *511:35 9.90367e-05
34 *392:10 *511:35 0.000135245
35 *397:8 *2047:B 2.77173e-05
36 *468:138 *511:35 1.09026e-05
37 *468:148 *511:23 0.00012401
38 *509:26 *2047:B 5.33433e-05
39 *509:26 *511:35 0.000259674
40 *509:36 *2047:B 4.72818e-05
41 *510:22 *511:35 0.00018372
*RES
1 *2323:Q *511:8 11.0857 
2 *511:8 *511:10 4.5 
3 *511:10 *2117:A 16.3536 
4 *511:10 *511:23 6.44643 
5 *511:23 *511:25 1.76786 
6 *511:25 *511:35 21 
7 *511:35 *2047:B 12.3 
8 *511:35 *2037:B 9.3 
9 *511:25 *2119:A1 9.3 
10 *511:23 *2116:A 11.925 
11 *511:8 *2419:A 9.3 
*END

*D_NET *512 0.00322021
*CONN
*I *2037:A I *D sky130_fd_sc_hd__and4_1
*I *2047:A I *D sky130_fd_sc_hd__and4_1
*I *2119:B1 I *D sky130_fd_sc_hd__a21o_1
*I *2408:A I *D sky130_fd_sc_hd__dlygate4sd3_1
*I *2324:Q O *D sky130_fd_sc_hd__dfxtp_1
*CAP
1 *2037:A 5.6536e-05
2 *2047:A 0
3 *2119:B1 9.70924e-05
4 *2408:A 9.28215e-05
5 *2324:Q 0
6 *512:38 0.000277525
7 *512:12 0.000810711
8 *512:6 0.000841786
9 *512:12 *621:54 0
10 *512:12 *621:56 0
11 *512:38 *621:52 0
12 *2037:C *2037:A 0.000144773
13 *2047:B *2037:A 0.000227539
14 *2116:A *2119:B1 0
15 *2117:B *2408:A 0
16 *2324:D *2119:B1 4.81734e-05
17 *2324:D *512:12 0.00016895
18 *468:130 *512:12 8.1528e-05
19 *468:130 *512:38 0
20 *468:138 *2408:A 0.00012401
21 *509:26 *512:38 9.69119e-06
22 *509:36 *2037:A 0.000140933
23 *511:35 *2037:A 8.76257e-05
24 *511:35 *2119:B1 6.05161e-06
25 *511:35 *2408:A 4.46186e-06
*RES
1 *2324:Q *512:6 13.8 
2 *512:6 *512:12 12.8393 
3 *512:12 *2408:A 20.2464 
4 *512:12 *2119:B1 11.1036 
5 *512:6 *512:38 8.26786 
6 *512:38 *2047:A 9.3 
7 *512:38 *2037:A 12.3 
*END

*D_NET *513 0.00924458
*CONN
*I *2122:A I *D sky130_fd_sc_hd__nand2_1
*I *2123:A I *D sky130_fd_sc_hd__or2_1
*I *2423:A I *D sky130_fd_sc_hd__dlygate4sd3_1
*I *2038:B1 I *D sky130_fd_sc_hd__o211ai_1
*I *2047:D I *D sky130_fd_sc_hd__and4_1
*I *2325:Q O *D sky130_fd_sc_hd__dfxtp_1
*CAP
1 *2122:A 0.000570144
2 *2123:A 0.000178235
3 *2423:A 0
4 *2038:B1 0.000277183
5 *2047:D 0.000186075
6 *2325:Q 0
7 *513:43 0.000808808
8 *513:12 0.000688463
9 *513:10 0.00069697
10 *513:4 0.000532194
11 *2038:B1 *2020:B 2.89114e-05
12 *2038:B1 *611:64 1.39841e-05
13 *2047:D *2020:A 5.41794e-05
14 *2047:D *557:10 5.41794e-05
15 *2122:A *602:8 0.000184745
16 *2123:A *2047:C 8.57023e-05
17 *2123:A *2124:A 5.33005e-05
18 *2123:A *514:18 9.90431e-05
19 *2123:A *557:22 0.000159506
20 *2123:A *602:14 0
21 *2123:A *621:52 0.000149911
22 *513:10 *2053:C 7.83587e-05
23 *513:12 *2020:A 0.000306637
24 *513:12 *2053:C 0.000117196
25 *513:12 *557:10 0.000432361
26 *513:12 *607:53 0
27 *513:43 *2127:C 0
28 *513:43 *621:52 0.000117903
29 *2038:C1 *2038:B1 0.000744452
30 *2038:C1 *2047:D 0.000440705
31 *2054:B1 *513:10 2.28428e-05
32 *2054:B1 *513:12 2.8266e-06
33 *2124:C *2123:A 0.000129534
34 *2294:D *2047:D 0.000396892
35 *2325:CLK *2122:A 8.44201e-05
36 *2325:D *2122:A 7.33018e-05
37 *2328:CLK *513:10 0.000602243
38 *327:8 *2047:D 0.000161947
39 *336:10 *2038:B1 0.0001399
40 *398:8 *2122:A 3.54839e-05
41 *469:14 *513:43 3.17148e-05
42 *509:36 *2047:D 0.000271352
43 *510:57 *2123:A 0.000232973
*RES
1 *2325:Q *513:4 9.3 
2 *513:4 *513:10 11.4107 
3 *513:10 *513:12 7.10714 
4 *513:12 *2047:D 21.6393 
5 *513:12 *2038:B1 21.3179 
6 *513:10 *2423:A 13.8 
7 *513:4 *513:43 6.14286 
8 *513:43 *2123:A 20.3893 
9 *513:43 *2122:A 22.0679 
*END

*D_NET *514 0.00554242
*CONN
*I *2042:A I *D sky130_fd_sc_hd__or3b_1
*I *1936:A I *D sky130_fd_sc_hd__inv_2
*I *2047:C I *D sky130_fd_sc_hd__and4_1
*I *2417:A I *D sky130_fd_sc_hd__dlygate4sd3_1
*I *2326:Q O *D sky130_fd_sc_hd__dfxtp_1
*CAP
1 *2042:A 0.00060571
2 *1936:A 1.40568e-05
3 *2047:C 0.000324094
4 *2417:A 0
5 *2326:Q 0.000670793
6 *514:18 0.000578339
7 *514:12 0.000376216
8 *514:10 0.00138442
9 *2042:A *2127:C 5.52238e-05
10 *2047:C *557:22 5.33334e-05
11 *2047:C *602:14 4.49293e-05
12 *2047:C *602:20 0.000100823
13 *2047:C *621:52 0
14 *514:10 *2127:C 1.63504e-05
15 *514:10 *621:52 0
16 *514:18 *557:22 0.000190848
17 *514:18 *621:52 0
18 *2041:B *2042:A 1.98839e-05
19 *2041:C *2042:A 6.56683e-05
20 *2051:A2 *2042:A 0.000181803
21 *2053:A *2042:A 0.000132892
22 *2123:A *2047:C 8.57023e-05
23 *2123:A *514:18 9.90431e-05
24 *2126:A *514:10 4.96531e-05
25 *2126:A *514:12 6.82922e-05
26 *2126:A *514:18 4.46186e-06
27 *2127:B *514:10 1.02504e-05
28 *2326:CLK *514:10 8.3722e-05
29 *2326:D *514:10 1.32552e-05
30 *2328:CLK *1936:A 5.52238e-05
31 *2383:A *1936:A 2.89016e-05
32 *2383:A *2042:A 2.59355e-05
33 *465:135 *514:18 0
34 *509:26 *2047:C 0
35 *509:36 *514:18 0.00014285
36 *510:57 *514:18 5.97496e-05
*RES
1 *2326:Q *514:10 22.2464 
2 *514:10 *514:12 1.94643 
3 *514:12 *514:18 10.4643 
4 *514:18 *2417:A 9.3 
5 *514:18 *2047:C 24.5321 
6 *514:12 *1936:A 14.3357 
7 *514:10 *2042:A 23.9607 
*END

*D_NET *515 0.000933177
*CONN
*I *2067:A I *D sky130_fd_sc_hd__or2_1
*I *2433:X O *D sky130_fd_sc_hd__clkbuf_1
*CAP
1 *2067:A 0.000450655
2 *2433:X 0.000450655
3 *733:DIODE *2067:A 3.18676e-05
4 *8:11 *2067:A 0
*RES
1 *2433:X *2067:A 34.1536 
*END

*D_NET *516 0.000365132
*CONN
*I *2067:B I *D sky130_fd_sc_hd__or2_1
*I *2434:X O *D sky130_fd_sc_hd__clkbuf_1
*CAP
1 *2067:B 0.000155867
2 *2434:X 0.000155867
3 *15:11 *2067:B 5.33978e-05
4 *353:10 *2067:B 0
*RES
1 *2434:X *2067:B 30.2964 
*END

*D_NET *517 0.000895614
*CONN
*I *2312:D I *D sky130_fd_sc_hd__dfrtp_1
*I *2405:X O *D sky130_fd_sc_hd__dlygate4sd3_1
*CAP
1 *2312:D 0.00022785
2 *2405:X 0.00022785
3 *2312:D *637:29 0.000128146
4 *2312:CLK *2312:D 4.04221e-05
5 *2339:CLK *2312:D 0.000271345
*RES
1 *2405:X *2312:D 31.8321 
*END

*D_NET *518 0.0015282
*CONN
*I *2023:A I *D sky130_fd_sc_hd__and3_1
*I *2406:X O *D sky130_fd_sc_hd__dlygate4sd3_1
*CAP
1 *2023:A 0.000442966
2 *2406:X 0.000442966
3 *2023:A *2024:B 0.000100823
4 *2023:A *617:54 0.000225069
5 *2289:D *2023:A 0.000197094
6 *2296:CLK *2023:A 0.000119279
*RES
1 *2406:X *2023:A 35.7607 
*END

*D_NET *519 0.0024948
*CONN
*I *2025:A I *D sky130_fd_sc_hd__and3_1
*I *2407:X O *D sky130_fd_sc_hd__dlygate4sd3_1
*CAP
1 *2025:A 0.000823741
2 *2407:X 0.000823741
3 *2025:A *2486:A 2.39852e-05
4 *2025:A *584:22 1.33683e-05
5 *2141:B *2025:A 7.6644e-05
6 *2331:CLK *2025:A 2.59355e-05
7 *2331:D *2025:A 0.00022146
8 *2367:A *2025:A 0.000128875
9 *2407:A *2025:A 0.000357048
*RES
1 *2407:X *2025:A 39.4125 
*END

*D_NET *520 0.000263356
*CONN
*I *2018:A I *D sky130_fd_sc_hd__and3_1
*I *2408:X O *D sky130_fd_sc_hd__dlygate4sd3_1
*CAP
1 *2018:A 0.000131678
2 *2408:X 0.000131678
3 *2291:D *2018:A 0
*RES
1 *2408:X *2018:A 29.85 
*END

*D_NET *521 0.000662987
*CONN
*I *1933:A I *D sky130_fd_sc_hd__inv_2
*I *2409:X O *D sky130_fd_sc_hd__dlygate4sd3_1
*CAP
1 *1933:A 0.000161354
2 *2409:X 0.000161354
3 *1933:A *1978:B2 0.000140933
4 *1933:A *621:34 4.94362e-05
5 *430:10 *1933:A 0.000149911
*RES
1 *2409:X *1933:A 30.9036 
*END

*D_NET *522 0.00402386
*CONN
*I *2009:A I *D sky130_fd_sc_hd__and3_1
*I *2216:B1 I *D sky130_fd_sc_hd__a21oi_1
*I *2410:X O *D sky130_fd_sc_hd__dlygate4sd3_1
*CAP
1 *2009:A 0.000279797
2 *2216:B1 0.000989922
3 *2410:X 4.91556e-05
4 *522:6 0.00131887
5 *2009:A *2010:A 0
6 *2179:A *2216:B1 0.000100831
7 *2215:A1 *2216:B1 0.000195386
8 *2283:CLK *2009:A 0
9 *2410:A *522:6 3.69047e-06
10 *2426:A *2009:A 3.17148e-05
11 *2426:A *2216:B1 0.000225616
12 *484:10 *2009:A 8.15095e-05
13 *484:14 *2216:B1 2.24079e-05
14 *484:14 *522:6 1.21258e-05
15 *485:14 *2216:B1 0.000703582
16 *489:75 *2216:B1 9.25014e-06
*RES
1 *2410:X *522:6 9.83571 
2 *522:6 *2216:B1 32.4964 
3 *522:6 *2009:A 23.5857 
*END

*D_NET *523 0.00116644
*CONN
*I *1931:A I *D sky130_fd_sc_hd__inv_2
*I *2411:X O *D sky130_fd_sc_hd__dlygate4sd3_1
*CAP
1 *1931:A 0.000303584
2 *2411:X 0.000303584
3 *1931:A *2218:A1 0
4 *2357:CLK *1931:A 0.000144773
5 *2357:D *1931:A 0.000261448
6 *2426:A *1931:A 0
7 *485:10 *1931:A 0.000153054
*RES
1 *2411:X *1931:A 34.6 
*END

*D_NET *524 0.00085127
*CONN
*I *2026:A I *D sky130_fd_sc_hd__and3_1
*I *2412:X O *D sky130_fd_sc_hd__dlygate4sd3_1
*CAP
1 *2026:A 0.000260901
2 *2412:X 0.000260901
3 *2026:A *2144:A 3.08664e-05
4 *2144:B *2026:A 0.000136867
5 *2286:D *2026:A 0.00010678
6 *2332:D *2026:A 5.49544e-05
*RES
1 *2412:X *2026:A 32.6536 
*END

*D_NET *525 0.000514177
*CONN
*I *2181:A1 I *D sky130_fd_sc_hd__a21oi_1
*I *2413:X O *D sky130_fd_sc_hd__dlygate4sd3_1
*CAP
1 *2181:A1 0.000147959
2 *2413:X 0.000147959
3 *323:22 *2181:A1 0.0001399
4 *471:36 *2181:A1 0
5 *471:42 *2181:A1 7.83587e-05
*RES
1 *2413:X *2181:A1 29.9929 
*END

*D_NET *526 0.000241395
*CONN
*I *2014:A I *D sky130_fd_sc_hd__and3_1
*I *2415:X O *D sky130_fd_sc_hd__dlygate4sd3_1
*CAP
1 *2014:A 2.46036e-05
2 *2415:X 2.46036e-05
3 *2014:A *611:83 9.60939e-05
4 *468:49 *2014:A 9.60939e-05
*RES
1 *2415:X *2014:A 19.5464 
*END

*D_NET *527 0.000666878
*CONN
*I *2088:A I *D sky130_fd_sc_hd__or4_1
*I *2435:X O *D sky130_fd_sc_hd__clkbuf_1
*CAP
1 *2088:A 0.000260454
2 *2435:X 0.000260454
3 *724:DIODE *2088:A 5.71472e-05
4 *2088:D *2088:A 8.88225e-05
*RES
1 *2435:X *2088:A 23.5107 
*END

*D_NET *528 0.00117223
*CONN
*I *2146:A I *D sky130_fd_sc_hd__or2_1
*I *2416:X O *D sky130_fd_sc_hd__dlygate4sd3_1
*CAP
1 *2146:A 0.000536599
2 *2416:X 0.000536599
3 *2146:A *672:DIODE 9.90367e-05
*RES
1 *2416:X *2146:A 26.9393 
*END

*D_NET *529 0.00259057
*CONN
*I *2020:A I *D sky130_fd_sc_hd__and3_1
*I *2417:X O *D sky130_fd_sc_hd__dlygate4sd3_1
*CAP
1 *2020:A 0.000544741
2 *2417:X 0.000544741
3 *2020:A *2020:C 2.17644e-05
4 *2020:A *607:63 9.87983e-06
5 *2020:A *611:64 9.90367e-05
6 *2038:C1 *2020:A 0.000271345
7 *2047:D *2020:A 5.41794e-05
8 *2125:C *2020:A 8.16036e-05
9 *2294:D *2020:A 9.90431e-05
10 *336:10 *2020:A 7.60306e-05
11 *510:57 *2020:A 0.000428268
12 *510:59 *2020:A 5.33005e-05
13 *513:12 *2020:A 0.000306637
*RES
1 *2417:X *2020:A 39.5107 
*END

*D_NET *530 0.000440524
*CONN
*I *2022:A I *D sky130_fd_sc_hd__and3_1
*I *2418:X O *D sky130_fd_sc_hd__dlygate4sd3_1
*CAP
1 *2022:A 5.48478e-05
2 *2418:X 5.48478e-05
3 *2022:A *610:95 0.000227532
4 *2406:A *2022:A 7.02611e-05
5 *150:14 *2022:A 3.30352e-05
*RES
1 *2418:X *2022:A 20.7786 
*END

*D_NET *531 0.0015538
*CONN
*I *2017:A I *D sky130_fd_sc_hd__and3_1
*I *2419:X O *D sky130_fd_sc_hd__dlygate4sd3_1
*CAP
1 *2017:A 0.000581343
2 *2419:X 0.000581343
3 *2017:A *621:64 0
4 *2017:A *621:106 0.000310383
5 *2291:D *2017:A 0
6 *468:138 *2017:A 8.07313e-05
*RES
1 *2419:X *2017:A 38.9036 
*END

*D_NET *532 0.000389957
*CONN
*I *2152:A2 I *D sky130_fd_sc_hd__o31a_1
*I *2420:X O *D sky130_fd_sc_hd__dlygate4sd3_1
*CAP
1 *2152:A2 4.24256e-05
2 *2420:X 4.24256e-05
3 *2152:A2 *677:DIODE 2.28499e-05
4 *2152:A2 *1969:B2 4.43256e-05
5 *2152:A2 *2152:B1 9.80173e-05
6 *2152:A3 *2152:A2 0.000139913
*RES
1 *2420:X *2152:A2 20.3679 
*END

*D_NET *533 0.00127426
*CONN
*I *2013:A I *D sky130_fd_sc_hd__and3_1
*I *2421:X O *D sky130_fd_sc_hd__dlygate4sd3_1
*CAP
1 *2013:A 0.000357417
2 *2421:X 0.000357417
3 *2013:A *2013:B 3.67142e-05
4 *2013:A *2100:B 0.000100831
5 *2013:A *610:34 5.67915e-05
6 *2287:CLK *2013:A 9.69119e-06
7 *2287:D *2013:A 0.000126629
8 *468:57 *2013:A 0.000137983
9 *468:72 *2013:A 4.03318e-05
10 *499:18 *2013:A 1.02821e-05
11 *499:24 *2013:A 4.01768e-05
*RES
1 *2421:X *2013:A 35.85 
*END

*D_NET *534 0.000850058
*CONN
*I *2007:A1 I *D sky130_fd_sc_hd__o221a_1
*I *2422:X O *D sky130_fd_sc_hd__dlygate4sd3_1
*CAP
1 *2007:A1 0.00024417
2 *2422:X 0.00024417
3 *2007:A1 *603:16 9.90367e-05
4 *2008:A1 *2007:A1 0.000104249
5 *2079:A4 *2007:A1 1.02504e-05
6 *489:75 *2007:A1 0
7 *490:65 *2007:A1 0.000148182
*RES
1 *2422:X *2007:A1 32.9214 
*END

*D_NET *535 0.0020418
*CONN
*I *2019:A I *D sky130_fd_sc_hd__and3_1
*I *2423:X O *D sky130_fd_sc_hd__dlygate4sd3_1
*CAP
1 *2019:A 0.000462255
2 *2423:X 0.000462255
3 *2019:A *2392:A 3.29722e-05
4 *2019:A *607:53 0.000128161
5 *2041:C *2019:A 9.25014e-06
6 *2054:A2 *2019:A 0
7 *2054:A3 *2019:A 7.68932e-05
8 *400:20 *2019:A 0.000870011
*RES
1 *2423:X *2019:A 38.725 
*END

*D_NET *536 0.00056305
*CONN
*I *1982:A1 I *D sky130_fd_sc_hd__o211a_1
*I *2424:X O *D sky130_fd_sc_hd__dlygate4sd3_1
*CAP
1 *1982:A1 0.000195578
2 *2424:X 0.000195578
3 *1982:A1 *1995:B 1.15281e-05
4 *1982:A1 *608:37 9.99644e-06
5 *1982:A2 *1982:A1 0.00013478
6 *1982:B1 *1982:A1 1.55885e-05
*RES
1 *2424:X *1982:A1 21.5107 
*END

*D_NET *537 0.00234251
*CONN
*I *2218:A1 I *D sky130_fd_sc_hd__o21ba_1
*I *2010:A I *D sky130_fd_sc_hd__and3_1
*I *2426:X O *D sky130_fd_sc_hd__dlygate4sd3_1
*CAP
1 *2218:A1 0.000510293
2 *2010:A 0.000502303
3 *2426:X 2.13939e-05
4 *537:6 0.00103399
5 *2010:A *613:148 6.71547e-05
6 *1931:A *2218:A1 0
7 *2009:A *2010:A 0
8 *2218:A2 *2218:A1 0
9 *2426:A *2010:A 9.36751e-05
10 *2426:A *2218:A1 1.76039e-05
11 *2426:A *537:6 3.18676e-05
12 *485:10 *2010:A 6.42242e-05
*RES
1 *2426:X *537:6 9.83571 
2 *537:6 *2010:A 27.5143 
3 *537:6 *2218:A1 27.1214 
*END

*D_NET *538 0.00339823
*CONN
*I *2226:A2 I *D sky130_fd_sc_hd__o21a_1
*I *2436:X O *D sky130_fd_sc_hd__clkbuf_1
*CAP
1 *2226:A2 0.00108876
2 *2436:X 0.00108876
3 *2226:A2 *1937:A 0.000290226
4 *2226:A2 *2226:B1 5.20669e-05
5 *2226:A2 *622:30 0.000493352
6 *654:DIODE *2226:A2 9.90367e-05
7 *725:DIODE *2226:A2 3.18676e-05
8 *2295:D *2226:A2 0.000185138
9 *2362:D *2226:A2 5.65955e-05
10 *170:21 *2226:A2 1.24368e-05
*RES
1 *2436:X *2226:A2 49.6714 
*END

*D_NET *539 0.000850394
*CONN
*I *1934:A I *D sky130_fd_sc_hd__inv_2
*I *2437:X O *D sky130_fd_sc_hd__clkbuf_1
*CAP
1 *1934:A 0.000264167
2 *2437:X 0.000264167
3 *1934:A *1962:A_N 6.97972e-05
4 *1934:A *1962:C 0.000102207
5 *730:DIODE *1934:A 3.54587e-05
6 *739:DIODE *1934:A 5.71472e-05
7 *21:11 *1934:A 9.60337e-06
8 *60:9 *1934:A 4.78466e-05
9 *324:16 *1934:A 0
*RES
1 *2437:X *1934:A 33.8679 
*END

*D_NET *540 0.00851601
*CONN
*I *2157:A1 I *D sky130_fd_sc_hd__o21a_1
*I *2160:C I *D sky130_fd_sc_hd__or3_1
*I *2090:A I *D sky130_fd_sc_hd__or3b_1
*I *2085:A I *D sky130_fd_sc_hd__or4b_1
*I *2155:A2 I *D sky130_fd_sc_hd__o31a_1
*I *1945:A I *D sky130_fd_sc_hd__inv_2
*I *2438:X O *D sky130_fd_sc_hd__dlymetal6s2s_1
*CAP
1 *2157:A1 0
2 *2160:C 0.000119446
3 *2090:A 8.53452e-05
4 *2085:A 0
5 *2155:A2 0.000351425
6 *1945:A 0
7 *2438:X 0.000227118
8 *540:69 0.000656878
9 *540:52 0.00117606
10 *540:27 0.00126721
11 *540:21 0.000344141
12 *540:10 0.000379448
13 *2090:A *2084:B 5.33005e-05
14 *2090:A *554:44 4.66203e-05
15 *2155:A2 *2088:B 0.000126439
16 *2155:A2 *2088:C 3.69047e-06
17 *2160:C *554:32 0.000195555
18 *2160:C *554:44 7.34455e-06
19 *2160:C *601:16 5.33005e-05
20 *540:10 *579:16 7.17603e-05
21 *540:10 *579:26 4.1331e-06
22 *540:10 *601:16 0
23 *540:21 *1944:A 4.57538e-05
24 *540:21 *579:26 0
25 *540:21 *601:16 0
26 *540:27 *579:26 4.78932e-05
27 *540:52 *2156:B1 6.87574e-05
28 *540:52 *2158:A1 5.52302e-05
29 *540:69 *2085:D_N 4.46186e-06
30 *540:69 *615:177 0.000482594
31 *727:DIODE *540:10 0
32 *2085:B *2090:A 7.6644e-05
33 *2085:B *540:52 1.24368e-05
34 *2085:C *540:52 0.000181796
35 *2089:C *2155:A2 4.97121e-06
36 *2089:C *540:27 1.18451e-05
37 *2089:C *540:52 0.000173804
38 *2091:A2 *540:52 1.97695e-05
39 *2093:A2 *2090:A 5.52302e-05
40 *2155:A3 *2155:A2 3.18676e-05
41 *2156:A1 *540:52 0.000402784
42 *2156:A2 *540:52 5.52302e-05
43 *2161:A3 *540:69 0
44 *2164:A1 *540:52 8.85631e-05
45 *2164:A1 *540:69 0.000168939
46 *2164:A3 *540:52 0.00038907
47 *2165:B1 *540:52 9.60875e-05
48 *2438:A *540:10 0
49 *2456:A *540:21 0
50 *2456:A *540:27 0
51 *6:11 *2155:A2 0
52 *286:63 *2160:C 2.59355e-05
53 *319:10 *2090:A 0.000171375
54 *319:10 *2160:C 0.000216304
55 *361:18 *540:69 0
56 *367:10 *540:69 0.000140933
57 *375:12 *2155:A2 0.000101545
58 *375:12 *540:27 9.25014e-06
59 *375:12 *540:52 0.000154423
60 *375:12 *540:69 5.33005e-05
*RES
1 *2438:X *540:10 18.1214 
2 *540:10 *1945:A 13.8 
3 *540:10 *540:21 3.08929 
4 *540:21 *540:27 3.82143 
5 *540:27 *2155:A2 21.2821 
6 *540:27 *540:52 30.6964 
7 *540:52 *2085:A 9.3 
8 *540:52 *540:69 23.0536 
9 *540:69 *2090:A 16.5857 
10 *540:69 *2160:C 17.1929 
11 *540:21 *2157:A1 13.8 
*END

*D_NET *541 0.00673408
*CONN
*I *2027:B I *D sky130_fd_sc_hd__and3_1
*I *1968:B I *D sky130_fd_sc_hd__or2_2
*I *1943:A I *D sky130_fd_sc_hd__inv_2
*I *1965:B I *D sky130_fd_sc_hd__nor2_1
*I *1967:B I *D sky130_fd_sc_hd__nor2_2
*I *2439:X O *D sky130_fd_sc_hd__clkbuf_2
*CAP
1 *2027:B 4.16687e-05
2 *1968:B 0.000127291
3 *1943:A 1.5966e-05
4 *1965:B 0.000126315
5 *1967:B 0
6 *2439:X 0.000190744
7 *541:36 0.000143257
8 *541:18 0.000305333
9 *541:12 0.00135282
10 *541:10 0.00140622
11 *1965:B *1981:A1 0.000193804
12 *1965:B *608:20 6.42095e-05
13 *1968:B *1968:A 0.000144773
14 *1968:B *542:82 5.52302e-05
15 *541:10 *2027:C 4.43046e-05
16 *541:10 *542:10 6.8646e-06
17 *541:10 *619:64 9.92409e-05
18 *541:10 *622:121 0.000264489
19 *541:12 *2027:C 5.33882e-05
20 *541:12 *2196:B1 0
21 *541:12 *2234:A 0
22 *541:12 *542:12 5.88598e-05
23 *541:12 *542:16 7.80714e-06
24 *541:12 *542:20 7.22427e-05
25 *541:12 *542:82 2.37761e-05
26 *541:12 *619:64 0
27 *541:18 *1967:A 0.000148189
28 *541:18 *542:20 4.25619e-05
29 *728:DIODE *541:10 2.27416e-05
30 *1983:A *541:12 0
31 *1985:A2 *541:12 0.000168939
32 *1985:A2 *541:18 1.69265e-05
33 *2193:A *541:12 0
34 *2194:A2 *541:12 0
35 *2195:A *541:12 0.000123295
36 *2274:D *541:12 0.000823322
37 *2349:D *541:12 0
38 *2393:A *1965:B 0.000227532
39 *2439:A *541:10 1.74352e-05
40 *281:14 *1943:A 1.98839e-05
41 *281:14 *1968:B 0.000180777
42 *290:12 *541:18 0
43 *433:8 *541:12 0
44 *471:108 *2027:B 2.89016e-05
45 *488:37 *1943:A 5.52302e-05
46 *488:37 *1968:B 5.97398e-05
*RES
1 *2439:X *541:10 19.2643 
2 *541:10 *541:12 27.4464 
3 *541:12 *541:18 7.89286 
4 *541:18 *1967:B 9.3 
5 *541:18 *1965:B 13.5679 
6 *541:12 *541:36 4.5 
7 *541:36 *1943:A 9.83571 
8 *541:36 *1968:B 12.7286 
9 *541:10 *2027:B 14.3357 
*END

*D_NET *542 0.0119257
*CONN
*I *2027:A I *D sky130_fd_sc_hd__and3_1
*I *1971:B I *D sky130_fd_sc_hd__and3_1
*I *1974:B I *D sky130_fd_sc_hd__and3_1
*I *1983:B I *D sky130_fd_sc_hd__and3_1
*I *1968:A I *D sky130_fd_sc_hd__or2_2
*I *1942:A I *D sky130_fd_sc_hd__inv_2
*I *1967:A I *D sky130_fd_sc_hd__nor2_2
*I *1964:A I *D sky130_fd_sc_hd__nor2_2
*I *1977:B I *D sky130_fd_sc_hd__and3_1
*I *1966:B I *D sky130_fd_sc_hd__and3_1
*I *2440:X O *D sky130_fd_sc_hd__buf_2
*CAP
1 *2027:A 9.51333e-05
2 *1971:B 0.000349375
3 *1974:B 0.00015796
4 *1983:B 9.28186e-05
5 *1968:A 5.82456e-05
6 *1942:A 0
7 *1967:A 0.000166681
8 *1964:A 9.28517e-05
9 *1977:B 0
10 *1966:B 0.000373741
11 *2440:X 0.000438432
12 *542:82 0.000232616
13 *542:74 0.000460192
14 *542:24 0.000415774
15 *542:22 0.000267733
16 *542:20 0.000440462
17 *542:16 0.000468611
18 *542:14 0.000331861
19 *542:12 0.000883039
20 *542:10 0.001028
21 *1966:B *1977:C 1.93344e-05
22 *1966:B *608:65 2.60984e-05
23 *1971:B *1973:B1 4.87854e-05
24 *1971:B *608:8 0.000142856
25 *1983:B *560:36 9.16571e-05
26 *2027:A *2027:C 3.9991e-05
27 *542:10 *2027:C 0.000171368
28 *542:10 *2494:A 6.09476e-05
29 *542:10 *558:20 0
30 *542:10 *619:51 0.000188586
31 *542:10 *619:64 0.000271345
32 *542:12 *2027:C 3.17148e-05
33 *542:74 *560:36 0.000219585
34 *542:82 *614:48 1.90936e-05
35 *1961:A *542:12 0.000319736
36 *1961:A *542:14 2.28428e-05
37 *1961:A *542:16 0.000149389
38 *1961:A *542:20 6.69626e-05
39 *1968:B *1968:A 0.000144773
40 *1968:B *542:82 5.52302e-05
41 *1973:A1 *1971:B 5.7661e-06
42 *1974:A *1974:B 2.22999e-05
43 *1976:A2 *1964:A 0
44 *1979:A1 *1966:B 5.52302e-05
45 *1983:A *542:82 0
46 *1985:A2 *1967:A 2.83916e-05
47 *1985:A2 *542:82 7.60162e-05
48 *2274:D *542:12 0.00120401
49 *2274:D *542:14 7.83659e-05
50 *2274:D *542:16 0.000394705
51 *2393:A *1967:A 3.07555e-05
52 *163:18 *1966:B 0.000144773
53 *280:6 *1968:A 0.000102197
54 *280:25 *1968:A 6.05161e-06
55 *281:14 *542:82 0.000122446
56 *290:12 *1964:A 7.83174e-05
57 *290:12 *542:20 4.89407e-05
58 *323:22 *2027:A 1.24368e-05
59 *471:8 *542:12 7.50601e-05
60 *471:19 *542:12 0.000109809
61 *471:108 *2027:A 0.000180777
62 *471:108 *542:10 1.17968e-05
63 *471:108 *542:12 9.14882e-05
64 *488:16 *542:22 1.40415e-05
65 *488:16 *542:24 2.51343e-06
66 *488:37 *1967:A 7.02611e-05
67 *488:37 *1968:A 1.21289e-05
68 *488:37 *542:22 5.78602e-05
69 *488:37 *542:82 2.80368e-05
70 *491:6 *1971:B 5.70688e-05
71 *541:10 *542:10 6.8646e-06
72 *541:12 *542:12 5.88598e-05
73 *541:12 *542:16 7.80714e-06
74 *541:12 *542:20 7.22427e-05
75 *541:12 *542:82 2.37761e-05
76 *541:18 *1967:A 0.000148189
77 *541:18 *542:20 4.25619e-05
*RES
1 *2440:X *542:10 21.4964 
2 *542:10 *542:12 17.7321 
3 *542:12 *542:14 1.03571 
4 *542:14 *542:16 5.28571 
5 *542:16 *542:20 8.26786 
6 *542:20 *542:22 1.76786 
7 *542:22 *542:24 0.535714 
8 *542:24 *1966:B 14.925 
9 *542:24 *1977:B 9.3 
10 *542:22 *1964:A 20.2464 
11 *542:20 *1967:A 21.6036 
12 *542:16 *542:74 7.64286 
13 *542:74 *542:82 12.6964 
14 *542:82 *1942:A 9.3 
15 *542:82 *1968:A 11.4786 
16 *542:74 *1983:B 10.6571 
17 *542:14 *1974:B 15.5679 
18 *542:12 *1971:B 20.1214 
19 *542:10 *2027:A 15.9964 
*END

*D_NET *543 0.000476365
*CONN
*I *1962:B I *D sky130_fd_sc_hd__and3b_1
*I *2441:X O *D sky130_fd_sc_hd__clkbuf_1
*CAP
1 *1962:B 0.000238182
2 *2441:X 0.000238182
*RES
1 *2441:X *1962:B 21.1893 
*END

*D_NET *544 0.000233046
*CONN
*I *2029:A I *D sky130_fd_sc_hd__and2_1
*I *2442:X O *D sky130_fd_sc_hd__clkbuf_1
*CAP
1 *2029:A 0.000100589
2 *2442:X 0.000100589
3 *731:DIODE *2029:A 3.18676e-05
*RES
1 *2442:X *2029:A 20.3857 
*END

*D_NET *545 0.000564257
*CONN
*I *2030:A I *D sky130_fd_sc_hd__and2_1
*I *2443:X O *D sky130_fd_sc_hd__clkbuf_1
*CAP
1 *2030:A 0.000149272
2 *2443:X 0.000149272
3 *2030:A *1962:A_N 1.18064e-05
4 *726:DIODE *2030:A 2.14757e-05
5 *730:DIODE *2030:A 3.18676e-05
6 *732:DIODE *2030:A 0.000200563
*RES
1 *2443:X *2030:A 30.6 
*END

*D_NET *546 0.00564186
*CONN
*I *2160:B I *D sky130_fd_sc_hd__or3_1
*I *2092:A1 I *D sky130_fd_sc_hd__a21bo_1
*I *2084:B I *D sky130_fd_sc_hd__nor2_1
*I *1944:A I *D sky130_fd_sc_hd__inv_2
*I *2444:X O *D sky130_fd_sc_hd__buf_1
*CAP
1 *2160:B 0.000100515
2 *2092:A1 0
3 *2084:B 0.000177404
4 *1944:A 9.52831e-05
5 *2444:X 0
6 *546:31 0.000371777
7 *546:23 0.00124931
8 *546:4 0.0010497
9 *1944:A *601:16 7.83587e-05
10 *2084:B *554:44 0.000177815
11 *2084:B *621:197 3.86013e-05
12 *2160:B *601:16 2.59355e-05
13 *546:23 *601:16 0.000953427
14 *741:DIODE *546:23 0.00014285
15 *2090:A *2084:B 5.33005e-05
16 *2090:C_N *2084:B 9.90367e-05
17 *2091:C1 *2084:B 1.98839e-05
18 *2092:A2 *2084:B 5.52302e-05
19 *2093:A2 *2084:B 6.12335e-05
20 *2094:A *2160:B 8.2958e-06
21 *2094:A *546:31 1.76135e-05
22 *2154:B *546:23 5.52238e-05
23 *2160:A *2160:B 8.07951e-05
24 *2161:A3 *546:23 5.52238e-05
25 *2161:A3 *546:31 0.000281843
26 *2162:A_N *2084:B 2.14757e-05
27 *2456:A *1944:A 4.1331e-06
28 *286:69 *546:31 4.50502e-05
29 *319:10 *546:31 0
30 *367:10 *546:31 0.000101545
31 *367:12 *546:31 3.17148e-05
32 *367:36 *2084:B 5.33005e-05
33 *370:6 *2084:B 9.02331e-05
34 *540:21 *1944:A 4.57538e-05
*RES
1 *2444:X *546:4 9.3 
2 *546:4 *1944:A 20.4786 
3 *546:4 *546:23 23.5357 
4 *546:23 *546:31 9.53571 
5 *546:31 *2084:B 14.3714 
6 *546:31 *2092:A1 9.3 
7 *546:23 *2160:B 15.675 
*END

*D_NET *547 0.000387616
*CONN
*I *2031:A I *D sky130_fd_sc_hd__and2_1
*I *2445:X O *D sky130_fd_sc_hd__clkbuf_1
*CAP
1 *2031:A 0.000155671
2 *2445:X 0.000155671
3 *2031:A *563:14 5.62995e-05
4 *83:13 *2031:A 1.99737e-05
5 *324:24 *2031:A 0
*RES
1 *2445:X *2031:A 30.6 
*END

*D_NET *548 0.00021072
*CONN
*I *2032:A I *D sky130_fd_sc_hd__and2_1
*I *2446:X O *D sky130_fd_sc_hd__clkbuf_1
*CAP
1 *2032:A 7.04614e-05
2 *2446:X 7.04614e-05
3 *86:13 *2032:A 0
4 *324:16 *2032:A 6.39901e-05
5 *324:22 *2032:A 5.80706e-06
*RES
1 *2446:X *2032:A 29.2429 
*END

*D_NET *549 0.000449521
*CONN
*I *2033:A I *D sky130_fd_sc_hd__and2_1
*I *2447:X O *D sky130_fd_sc_hd__clkbuf_1
*CAP
1 *2033:A 0.000195085
2 *2447:X 0.000195085
3 *2306:D *2033:A 3.92757e-05
4 *324:22 *2033:A 2.00751e-05
*RES
1 *2447:X *2033:A 30.6 
*END

*D_NET *550 0.00183264
*CONN
*I *2402:A I *D sky130_fd_sc_hd__buf_2
*I *2448:X O *D sky130_fd_sc_hd__clkbuf_1
*CAP
1 *2402:A 0.000645604
2 *2448:X 0.000645604
3 *2402:A *2398:A 3.2534e-05
4 *2402:A *2399:A 8.08022e-05
5 *2402:A *2462:A 0.000142856
6 *2402:A *564:8 5.39166e-06
7 *2402:A *622:12 7.6644e-05
8 *740:DIODE *2402:A 0.000142856
9 *2301:CLK *2402:A 5.33433e-05
10 *2301:RESET_B *2402:A 7.00171e-06
*RES
1 *2448:X *2402:A 37.1893 
*END

*D_NET *551 0.000978264
*CONN
*I *2027:C I *D sky130_fd_sc_hd__and3_1
*I *2449:X O *D sky130_fd_sc_hd__clkbuf_1
*CAP
1 *2027:C 0.000147947
2 *2449:X 0.000147947
3 *2027:C *2494:A 0.000137983
4 *2027:C *622:121 0.00018077
5 *738:DIODE *2027:C 2.28499e-05
6 *2027:A *2027:C 3.9991e-05
7 *541:10 *2027:C 4.43046e-05
8 *541:12 *2027:C 5.33882e-05
9 *542:10 *2027:C 0.000171368
10 *542:12 *2027:C 3.17148e-05
*RES
1 *2449:X *2027:C 32.3143 
*END

*D_NET *552 0.000875937
*CONN
*I *1962:C I *D sky130_fd_sc_hd__and3b_1
*I *2450:X O *D sky130_fd_sc_hd__clkbuf_1
*CAP
1 *1962:C 0.000291286
2 *2450:X 0.000291286
3 *1962:C *622:14 0
4 *1934:A *1962:C 0.000102207
5 *2301:CLK *1962:C 0
6 *2303:D *1962:C 1.02504e-05
7 *273:6 *1962:C 5.39629e-06
8 *324:16 *1962:C 0.000175512
*RES
1 *2450:X *1962:C 32.4393 
*END

*D_NET *553 0.00137034
*CONN
*I *2028:A I *D sky130_fd_sc_hd__and3_1
*I *1963:A_N I *D sky130_fd_sc_hd__and2b_1
*I *2451:X O *D sky130_fd_sc_hd__clkbuf_1
*CAP
1 *2028:A 0
2 *1963:A_N 0.000145801
3 *2451:X 0.000231556
4 *553:10 0.000377357
5 *1963:A_N *1962:A_N 0
6 *553:10 *1962:A_N 0
7 *553:10 *2465:A 0
8 *553:10 *622:12 5.71631e-05
9 *553:10 *622:14 0
10 *726:DIODE *1963:A_N 5.03772e-05
11 *2301:CLK *1963:A_N 0.000218026
12 *2301:CLK *553:10 0.000174805
13 *131:11 *553:10 5.33334e-05
14 *137:12 *1963:A_N 6.19181e-05
*RES
1 *2451:X *553:10 18.5143 
2 *553:10 *1963:A_N 17.6036 
3 *553:10 *2028:A 13.8 
*END

*D_NET *554 0.0145909
*CONN
*I *2005:B2 I *D sky130_fd_sc_hd__a22o_1
*I *2094:B I *D sky130_fd_sc_hd__or4_1
*I *2081:A2 I *D sky130_fd_sc_hd__a31o_1
*I *2156:B1 I *D sky130_fd_sc_hd__o21a_1
*I *2165:A1 I *D sky130_fd_sc_hd__a31o_1
*I *2085:D_N I *D sky130_fd_sc_hd__or4b_1
*I *2219:A1 I *D sky130_fd_sc_hd__o21a_1
*I *2459:A I *D sky130_fd_sc_hd__buf_2
*I *2365:A I *D sky130_fd_sc_hd__clkbuf_1
*I *1957:Y O *D sky130_fd_sc_hd__nor3_4
*CAP
1 *2005:B2 0.000322636
2 *2094:B 9.7754e-05
3 *2081:A2 0
4 *2156:B1 0.000150021
5 *2165:A1 0
6 *2085:D_N 0.000180882
7 *2219:A1 0
8 *2459:A 0.000157025
9 *2365:A 2.06112e-05
10 *1957:Y 0.000146814
11 *554:123 0.000521621
12 *554:96 0.000571189
13 *554:59 0.000886919
14 *554:44 0.000685303
15 *554:32 0.000765884
16 *554:28 0.000466681
17 *554:10 0.00112116
18 *554:6 0.00109034
19 *2365:A *2236:A 3.99614e-06
20 *2459:A *2236:A 5.63018e-05
21 *554:10 *2236:A 4.01768e-05
22 *554:10 *620:62 4.70078e-05
23 *554:10 *620:136 6.62983e-05
24 *554:44 *601:36 0
25 *554:96 *2076:A1 3.08382e-06
26 *554:96 *2155:A1 1.70474e-05
27 *1957:A *554:6 6.42095e-05
28 *1957:A *554:10 0.000178847
29 *2003:A1 *2005:B2 0
30 *2003:A1 *554:123 0
31 *2005:A1 *2005:B2 5.71472e-05
32 *2076:A2 *554:96 2.82086e-05
33 *2076:B1 *554:96 0
34 *2078:A *554:59 4.13595e-05
35 *2081:A3 *2005:B2 0.00013966
36 *2081:A3 *554:32 0.00078307
37 *2081:A3 *554:123 0.000188734
38 *2082:A *2156:B1 1.59782e-05
39 *2084:B *554:44 0.000177815
40 *2085:B *554:44 3.17148e-05
41 *2085:C *2085:D_N 9.71197e-05
42 *2090:A *554:44 4.66203e-05
43 *2090:C_N *554:32 2.14474e-05
44 *2090:C_N *554:44 0.000148189
45 *2091:C1 *554:44 0.000316963
46 *2094:A *554:123 1.56144e-05
47 *2156:A1 *2156:B1 0.000271345
48 *2160:C *554:32 0.000195555
49 *2160:C *554:44 7.34455e-06
50 *2161:A1 *554:44 8.46915e-05
51 *2161:A1 *554:59 0
52 *2161:A2 *2085:D_N 2.04825e-05
53 *2161:A2 *554:59 0.000178847
54 *2161:A2 *554:96 0.000209215
55 *2161:A3 *554:59 5.80706e-06
56 *2161:B1 *554:59 9.60875e-05
57 *2161:B2 *554:96 0
58 *2164:A1 *2085:D_N 2.69261e-05
59 *2164:A1 *2156:B1 9.25014e-06
60 *2164:A1 *554:59 4.02462e-05
61 *2164:A3 *2085:D_N 0.00012401
62 *2164:A3 *554:96 4.46186e-06
63 *2165:B1 *2156:B1 0.000125724
64 *2165:B1 *554:96 1.02504e-05
65 *2166:C *2156:B1 9.20553e-05
66 *2166:C *554:96 2.05484e-05
67 *2219:A2 *554:44 0.00012401
68 *2219:A2 *554:59 5.52302e-05
69 *2219:B1 *554:59 4.88637e-05
70 *295:101 *2005:B2 0.000665667
71 *316:16 *2094:B 4.39965e-05
72 *316:28 *554:10 0.000696423
73 *319:10 *554:32 0.000193025
74 *319:10 *554:44 0.000425059
75 *319:12 *554:44 5.59013e-05
76 *319:76 *554:32 0.000130658
77 *319:76 *554:123 3.92854e-05
78 *361:18 *2085:D_N 6.57883e-05
79 *363:10 *554:59 2.8266e-06
80 *363:19 *554:59 4.78891e-05
81 *363:19 *554:96 9.87983e-06
82 *367:36 *2156:B1 7.79781e-06
83 *370:6 *554:44 5.33005e-05
84 *375:12 *2085:D_N 9.71197e-05
85 *375:12 *2156:B1 0.000399841
86 *379:8 *2094:B 2.89114e-05
87 *461:10 *554:59 3.18676e-05
88 *540:52 *2156:B1 6.87574e-05
89 *540:69 *2085:D_N 4.46186e-06
*RES
1 *1957:Y *554:6 11.0679 
2 *554:6 *554:10 18.2143 
3 *554:10 *2365:A 9.72857 
4 *554:10 *2459:A 12.3179 
5 *554:6 *554:28 4.5 
6 *554:28 *554:32 11.2857 
7 *554:32 *554:44 25.2321 
8 *554:44 *2219:A1 9.3 
9 *554:44 *554:59 16.2143 
10 *554:59 *2085:D_N 22.4607 
11 *554:59 *554:96 14.1591 
12 *554:96 *2165:A1 13.8 
13 *554:96 *2156:B1 20.175 
14 *554:32 *2081:A2 13.8 
15 *554:28 *554:123 2.55357 
16 *554:123 *2094:B 15.1571 
17 *554:123 *2005:B2 22.0321 
*END

*D_NET *555 0.00961683
*CONN
*I *2420:A I *D sky130_fd_sc_hd__dlygate4sd3_1
*I *1990:A1 I *D sky130_fd_sc_hd__a22o_1
*I *1953:A1 I *D sky130_fd_sc_hd__o21ba_1
*I *2460:A I *D sky130_fd_sc_hd__buf_2
*I *2339:Q O *D sky130_fd_sc_hd__dfxtp_1
*CAP
1 *2420:A 0.000181383
2 *1990:A1 0
3 *1953:A1 1.99112e-05
4 *2460:A 0.000682732
5 *2339:Q 0
6 *555:20 0.00225011
7 *555:10 0.00231988
8 *555:4 0.0009538
9 *2420:A *615:245 6.87574e-05
10 *2460:A *1953:A2 9.66977e-05
11 *2460:A *1953:B1_N 4.52108e-05
12 *2460:A *2233:A 0.000839617
13 *2460:A *618:91 4.27365e-05
14 *555:10 *1990:B1 1.02504e-05
15 *555:10 *556:16 0.000149462
16 *555:10 *615:245 4.87953e-05
17 *555:10 *650:58 1.02821e-05
18 *555:20 *1972:A1 0.000134192
19 *555:20 *1972:B2 7.1271e-05
20 *555:20 *1990:B1 8.00806e-05
21 *555:20 *618:91 3.68884e-05
22 *555:20 *639:10 5.19842e-06
23 *1972:B1 *555:20 2.44318e-05
24 *1984:A2 *555:20 1.91512e-05
25 *1987:B2 *2420:A 6.42338e-05
26 *1988:A2 *555:20 9.25014e-06
27 *1990:B2 *555:10 0.000285078
28 *1993:A1 *2420:A 0
29 *2313:RESET_B *2460:A 1.24368e-05
30 *2313:RESET_B *555:20 8.5275e-05
31 *2339:D *555:10 0.000103323
32 *2414:A *2460:A 0.000266853
33 *273:42 *555:20 3.61629e-06
34 *290:12 *555:10 4.73656e-05
35 *290:12 *555:20 0.000267821
36 *292:59 *555:10 0.000106841
37 *292:59 *555:20 4.3419e-05
38 *295:43 *555:20 0.000230475
*RES
1 *2339:Q *555:4 9.3 
2 *555:4 *555:10 15.2143 
3 *555:10 *555:20 26.7143 
4 *555:20 *2460:A 23.8179 
5 *555:20 *1953:A1 9.72857 
6 *555:10 *1990:A1 13.8 
7 *555:4 *2420:A 21.3 
*END

*D_NET *556 0.0139027
*CONN
*I *1946:A2 I *D sky130_fd_sc_hd__o21ba_1
*I *2461:A I *D sky130_fd_sc_hd__buf_2
*I *1999:A1 I *D sky130_fd_sc_hd__a22o_1
*I *2145:A1 I *D sky130_fd_sc_hd__o21a_1
*I *2333:Q O *D sky130_fd_sc_hd__dfxtp_1
*CAP
1 *1946:A2 0
2 *2461:A 0.00173588
3 *1999:A1 0.000952651
4 *2145:A1 0
5 *2333:Q 0.000114927
6 *556:48 0.00301269
7 *556:16 0.00124801
8 *556:8 0.0016871
9 *1999:A1 *1969:B2 0
10 *1999:A1 *1999:B1 1.21258e-05
11 *1999:A1 *615:239 9.71197e-05
12 *1999:A1 *620:18 0.000110234
13 *1999:A1 *620:20 3.97543e-05
14 *1999:A1 *620:26 3.0285e-05
15 *2461:A *2262:A 3.32631e-05
16 *2461:A *2314:D 6.45537e-05
17 *2461:A *2363:D 8.02791e-05
18 *556:8 *634:63 0.000105582
19 *556:16 *615:239 0.000129515
20 *556:16 *615:245 0.000401764
21 *556:48 *1946:A1 0.00040381
22 *556:48 *1978:A1 0.000368209
23 *556:48 *1978:B2 0.00057721
24 *556:48 *634:63 6.9253e-05
25 *1978:A2 *556:48 9.90431e-05
26 *1979:A2 *556:48 1.02821e-05
27 *1982:A2 *1999:A1 0.000111815
28 *1990:B2 *556:8 1.52978e-05
29 *1990:B2 *556:16 9.71197e-05
30 *1990:B2 *556:48 0.000169262
31 *1992:A1 *1999:A1 6.05161e-06
32 *1993:A1 *1999:A1 0
33 *1999:B2 *1999:A1 5.52238e-05
34 *2073:A *1999:A1 0.000124649
35 *2073:B *1999:A1 7.50757e-05
36 *2305:D *2461:A 3.65069e-05
37 *2305:RESET_B *2461:A 5.43918e-05
38 *2306:CLK *2461:A 0.000399841
39 *2316:CLK *1999:A1 0
40 *2316:D *1999:A1 5.35423e-05
41 *2333:D *556:16 2.89016e-05
42 *2338:CLK *1999:A1 0
43 *2431:A *2461:A 0.00031143
44 *2431:A *556:48 2.1768e-05
45 *164:16 *1999:A1 0
46 *280:68 *1999:A1 0.000303368
47 *281:35 *1999:A1 1.15281e-05
48 *295:16 *556:48 6.35941e-05
49 *334:68 *556:8 0
50 *470:37 *556:48 1.24368e-05
51 *472:59 *1999:A1 0.00021124
52 *475:12 *2461:A 0.000206665
53 *555:10 *556:16 0.000149462
*RES
1 *2333:Q *556:8 16.3536 
2 *556:8 *556:16 12.0536 
3 *556:16 *2145:A1 9.3 
4 *556:16 *1999:A1 37.3357 
5 *556:8 *556:48 32.8393 
6 *556:48 *2461:A 45.2643 
7 *556:48 *1946:A2 9.3 
*END

*D_NET *557 0.0102387
*CONN
*I *2053:C I *D sky130_fd_sc_hd__or3_1
*I *2220:B1_N I *D sky130_fd_sc_hd__a21boi_1
*I *2222:A2 I *D sky130_fd_sc_hd__o211a_1
*I *2452:X O *D sky130_fd_sc_hd__buf_1
*CAP
1 *2053:C 0.000133701
2 *2220:B1_N 8.56747e-05
3 *2222:A2 0.00042924
4 *2452:X 0.000858017
5 *557:22 0.00191769
6 *557:10 0.00239449
7 *2053:C *2463:A 0.000310321
8 *2053:C *607:53 0
9 *2220:B1_N *601:36 0
10 *2222:A2 *641:14 0
11 *557:10 *2463:A 0.0016211
12 *557:10 *581:12 0.000171368
13 *557:10 *582:12 2.07382e-05
14 *557:10 *607:63 0
15 *557:10 *611:76 0
16 *2047:C *557:22 5.33334e-05
17 *2047:D *557:10 5.41794e-05
18 *2054:B1 *2053:C 0
19 *2123:A *557:22 0.000159506
20 *2127:A_N *557:22 4.58194e-05
21 *2221:A2 *2222:A2 0
22 *2222:B1 *2222:A2 1.02504e-05
23 *2222:C1 *2220:B1_N 0
24 *2222:C1 *2222:A2 1.46717e-05
25 *2223:B *2222:A2 0
26 *2288:D *557:10 0
27 *2288:RESET_B *557:10 5.64115e-05
28 *4:9 *557:10 0.000110983
29 *509:36 *557:22 7.65719e-05
30 *510:57 *557:22 0.00089587
31 *513:10 *2053:C 7.83587e-05
32 *513:12 *2053:C 0.000117196
33 *513:12 *557:10 0.000432361
34 *514:18 *557:22 0.000190848
*RES
1 *2452:X *557:10 37.05 
2 *557:10 *557:22 33.4464 
3 *557:22 *2222:A2 28.5679 
4 *557:22 *2220:B1_N 15.4429 
5 *557:10 *2053:C 17.8714 
*END

*D_NET *558 0.00569778
*CONN
*I *2462:A I *D sky130_fd_sc_hd__buf_2
*I *1961:Y O *D sky130_fd_sc_hd__inv_2
*CAP
1 *2462:A 0.00115319
2 *1961:Y 0.000504727
3 *558:20 0.00165791
4 *2462:A *2468:A 9.76689e-05
5 *2462:A *619:19 0.000179341
6 *2462:A *619:51 0.000381355
7 *558:20 *2181:B1 0
8 *558:20 *2494:A 0
9 *558:20 *619:51 0.000546826
10 *558:20 *622:121 0.000230014
11 security_breach *2462:A 0.00010096
12 wb_ack_o *2462:A 2.77173e-05
13 *740:DIODE *2462:A 0.000213757
14 *2272:RESET_B *558:20 0.000179656
15 *2402:A *2462:A 0.000142856
16 *2440:A *558:20 9.80173e-05
17 *131:11 *2462:A 0.000126639
18 *471:36 *558:20 5.71472e-05
19 *471:108 *558:20 0
20 *542:10 *558:20 0
*RES
1 *1961:Y *558:20 30.7911 
2 *558:20 *2462:A 33.0589 
*END

*D_NET *559 0.0102969
*CONN
*I *2077:B I *D sky130_fd_sc_hd__nor2_1
*I *2221:A1 I *D sky130_fd_sc_hd__o21ai_1
*I *2463:A I *D sky130_fd_sc_hd__buf_2
*I *2055:A I *D sky130_fd_sc_hd__nand2_1
*I *1959:Y O *D sky130_fd_sc_hd__inv_2
*CAP
1 *2077:B 0
2 *2221:A1 0.000188011
3 *2463:A 0.00107888
4 *2055:A 0.00013121
5 *1959:Y 0
6 *559:34 0.00054729
7 *559:8 0.0019798
8 *559:4 0.001129
9 *2221:A1 *641:53 0
10 *2463:A *2053:B 7.83587e-05
11 *2463:A *582:12 2.59355e-05
12 *2463:A *607:53 0
13 *559:34 *2220:A1 4.11014e-05
14 *559:34 *2223:A_N 1.04232e-05
15 *559:34 *642:12 1.40306e-05
16 *2053:C *2463:A 0.000310321
17 *2127:A_N *2463:A 0.000357687
18 *2221:A2 *559:34 1.39841e-05
19 *2223:B *2221:A1 4.43698e-05
20 *2223:B *559:34 1.25355e-05
21 *2224:A1 *559:34 0.000154027
22 *2224:B1 *559:34 0.000185643
23 *2294:D *2463:A 0
24 *2359:CLK *2221:A1 1.52978e-05
25 *2359:D *2221:A1 2.89016e-05
26 *2360:CLK *2221:A1 5.52238e-05
27 *2378:A *559:8 0.00018372
28 *289:35 *2055:A 0.000357054
29 *289:35 *559:8 0.000962156
30 *289:35 *559:34 1.21289e-05
31 *363:10 *559:34 0.000276211
32 *462:12 *559:34 1.39726e-05
33 *465:129 *2463:A 6.19181e-05
34 *465:135 *2463:A 0.000406638
35 *468:10 *2463:A 0
36 *468:12 *2463:A 0
37 *468:14 *2463:A 0
38 *468:20 *2463:A 0
39 *557:10 *2463:A 0.0016211
*RES
1 *1959:Y *559:4 9.3 
2 *559:4 *559:8 18.625 
3 *559:8 *2055:A 12.7107 
4 *559:8 *2463:A 48.1036 
5 *559:4 *559:34 8.67857 
6 *559:34 *2221:A1 21.0857 
7 *559:34 *2077:B 9.3 
*END

*D_NET *560 0.020072
*CONN
*I *655:DIODE I *D sky130_fd_sc_hd__diode_2
*I *2464:A I *D sky130_fd_sc_hd__buf_2
*I *749:DIODE I *D sky130_fd_sc_hd__diode_2
*I *660:DIODE I *D sky130_fd_sc_hd__diode_2
*I *1994:A2 I *D sky130_fd_sc_hd__o21a_1
*I *2364:A I *D sky130_fd_sc_hd__clkbuf_1
*I *698:DIODE I *D sky130_fd_sc_hd__diode_2
*I *656:DIODE I *D sky130_fd_sc_hd__diode_2
*I *1952:A2 I *D sky130_fd_sc_hd__o21ba_1
*I *1951:X O *D sky130_fd_sc_hd__or2_2
*CAP
1 *655:DIODE 5.72561e-05
2 *2464:A 8.9306e-05
3 *749:DIODE 0
4 *660:DIODE 0
5 *1994:A2 0
6 *2364:A 0
7 *698:DIODE 4.09724e-05
8 *656:DIODE 0.000179882
9 *1952:A2 3.02748e-05
10 *1951:X 0
11 *560:100 0.00148642
12 *560:76 0.00228008
13 *560:40 0.000355101
14 *560:36 0.00342139
15 *560:24 0.00133894
16 *560:20 0.000963777
17 *560:10 0.00235178
18 *560:4 0.000349749
19 *656:DIODE *1952:A1 5.71472e-05
20 *656:DIODE *2267:A 5.33005e-05
21 *2464:A *2495:A 0
22 *2464:A *622:121 2.89016e-05
23 *560:24 *1994:A1 3.18676e-05
24 *560:24 *1999:B1 9.22103e-06
25 *560:24 *614:101 7.49387e-06
26 *560:24 *614:103 1.97695e-05
27 *560:36 *1985:B1 0.000611097
28 *560:36 *614:6 0.00014285
29 *560:36 *614:48 2.05612e-05
30 *560:36 *614:101 0.000338725
31 *560:36 *636:10 1.56e-05
32 *560:40 *1952:B1_N 0
33 *560:40 *636:10 3.97543e-05
34 *560:40 *636:23 2.8266e-06
35 *560:76 *1952:B1_N 0
36 *560:100 *2495:A 0
37 *560:100 *620:18 9.27933e-05
38 *560:100 *620:188 0
39 *560:100 *621:10 0
40 *737:DIODE *698:DIODE 0.000144773
41 *737:DIODE *560:76 0.000518497
42 *1951:B *655:DIODE 5.71472e-05
43 *1974:A *560:76 0
44 *1983:B *560:36 9.16571e-05
45 *1985:A1 *560:36 1.21258e-05
46 *1985:A2 *560:36 5.52302e-05
47 *1992:A1 *560:24 3.30237e-05
48 *1993:B1 *560:20 4.34543e-05
49 *2028:C *560:76 5.79772e-05
50 *2073:B *560:10 0.000131377
51 *2073:B *560:100 3.42764e-05
52 *2073:C *560:10 6.28499e-05
53 *2073:C *560:100 9.55467e-05
54 *2079:A4 *655:DIODE 0.000161769
55 *2079:A4 *560:10 0.00074049
56 *2173:B *560:76 4.06782e-05
57 *2176:C *560:100 0
58 *2176:D *560:100 0
59 *2183:A2 *560:76 1.33125e-05
60 *2184:B1 *560:76 0.000218734
61 *2185:B *560:76 0.000287842
62 *2188:B *560:76 0
63 *2204:A_N *560:100 0
64 *2204:B *560:100 0.000316989
65 *2270:D *560:76 0.000146474
66 *2314:RESET_B *560:36 4.96155e-05
67 *2314:RESET_B *560:40 0
68 *2343:D *560:76 0.000151834
69 *2344:D *560:76 1.31802e-05
70 *2346:CLK *560:76 6.58195e-05
71 *2371:A *560:76 0
72 *137:21 *560:76 0.000165288
73 *164:16 *560:20 0
74 *164:16 *560:100 0
75 *280:62 *560:24 0.000115667
76 *281:14 *560:36 0.000227539
77 *281:35 *560:36 0.000443654
78 *296:40 *560:10 0.000102197
79 *324:10 *698:DIODE 1.39841e-05
80 *324:10 *560:76 5.62995e-05
81 *360:16 *655:DIODE 0.000162282
82 *360:16 *560:10 0.000352805
83 *360:16 *560:100 0
84 *465:64 *560:40 0
85 *465:64 *560:76 0
86 *471:46 *560:76 6.2349e-05
87 *471:48 *560:76 6.25608e-05
88 *475:12 *560:76 0
89 *479:25 *560:76 0
90 *486:8 *560:76 2.9654e-05
91 *486:25 *560:76 0
92 *488:37 *560:10 1.21289e-05
93 *489:14 *560:100 0
94 *493:12 *560:100 0
95 *494:10 *560:100 2.6949e-05
96 *494:16 *560:100 5.75803e-05
97 *542:74 *560:36 0.000219585
*RES
1 *1951:X *560:4 9.3 
2 *560:4 *560:10 14.6339 
3 *560:10 *560:20 13.0284 
4 *560:20 *560:24 4.44643 
5 *560:24 *560:36 28.7321 
6 *560:36 *560:40 7.05357 
7 *560:40 *1952:A2 9.83571 
8 *560:40 *656:DIODE 12.3179 
9 *560:36 *560:76 45.1429 
10 *560:76 *698:DIODE 10.6571 
11 *560:76 *2364:A 9.3 
12 *560:24 *1994:A2 9.3 
13 *560:20 *660:DIODE 9.3 
14 *560:10 *560:100 26.3839 
15 *560:100 *749:DIODE 13.8 
16 *560:100 *2464:A 15.3714 
17 *560:4 *655:DIODE 12.0321 
*END

*D_NET *561 0.000682594
*CONN
*I *2465:A I *D sky130_fd_sc_hd__buf_2
*I *2364:X O *D sky130_fd_sc_hd__clkbuf_1
*CAP
1 *2465:A 0.000247409
2 *2364:X 0.000247409
3 *2465:A *1962:A_N 2.56601e-05
4 *2465:A *2399:A 0
5 *2465:A *2468:A 8.73559e-05
6 wb_ack_o *2465:A 0
7 *737:DIODE *2465:A 5.71472e-05
8 *131:11 *2465:A 1.76135e-05
9 *553:10 *2465:A 0
*RES
1 *2364:X *2465:A 32.5107 
*END

*D_NET *562 0.000725404
*CONN
*I *2466:A I *D sky130_fd_sc_hd__buf_2
*I *2365:X O *D sky130_fd_sc_hd__clkbuf_1
*CAP
1 *2466:A 0.000334855
2 *2365:X 0.000334855
3 *2466:A *2470:A 0
4 unlock_enable *2466:A 0
5 *2279:RESET_B *2466:A 5.56943e-05
6 *373:10 *2466:A 0
*RES
1 *2365:X *2466:A 33.7429 
*END

*D_NET *563 0.00416591
*CONN
*I *2467:A I *D sky130_fd_sc_hd__buf_2
*I *2035:X O *D sky130_fd_sc_hd__or3_1
*CAP
1 *2467:A 0
2 *2035:X 0.00142254
3 *563:14 0.00142254
4 *563:14 *1954:A1 0.000116749
5 *563:14 *2034:C 0.000321451
6 *563:14 *608:71 0.000100823
7 *2031:A *563:14 5.62995e-05
8 *2035:C *563:14 0.000531273
9 *2304:D *563:14 9.71197e-05
10 *2405:A *563:14 9.71197e-05
*RES
1 *2035:X *563:14 44.425 
2 *563:14 *2467:A 9.3 
*END

*D_NET *564 0.0018191
*CONN
*I *2468:A I *D sky130_fd_sc_hd__buf_2
*I *1962:A_N I *D sky130_fd_sc_hd__and3b_1
*I *2301:Q O *D sky130_fd_sc_hd__dfrtp_1
*CAP
1 *2468:A 0.000196387
2 *1962:A_N 0.000261684
3 *2301:Q 4.80778e-05
4 *564:8 0.000506149
5 group_suspended *2468:A 3.91668e-05
6 wb_ack_o *2468:A 0.000183726
7 *732:DIODE *1962:A_N 0.000173797
8 *737:DIODE *1962:A_N 0
9 *737:DIODE *2468:A 0
10 *1934:A *1962:A_N 6.97972e-05
11 *1963:A_N *1962:A_N 0
12 *2030:A *1962:A_N 1.18064e-05
13 *2402:A *564:8 5.39166e-06
14 *2451:A *2468:A 0
15 *2462:A *2468:A 9.76689e-05
16 *2465:A *1962:A_N 2.56601e-05
17 *2465:A *2468:A 8.73559e-05
18 *21:11 *1962:A_N 0
19 *125:9 *2468:A 0
20 *324:10 *1962:A_N 4.43698e-05
21 *324:16 *1962:A_N 6.80593e-05
22 *553:10 *1962:A_N 0
*RES
1 *2301:Q *564:8 14.3357 
2 *564:8 *1962:A_N 20.3 
3 *564:8 *2468:A 19.1571 
*END

*D_NET *565 0.000891997
*CONN
*I *2469:A I *D sky130_fd_sc_hd__buf_2
*I *2269:Q O *D sky130_fd_sc_hd__dfrtp_1
*CAP
1 *2469:A 0.000442281
2 *2269:Q 0.000442281
3 *734:DIODE *2469:A 7.43578e-06
4 *324:24 *2469:A 0
*RES
1 *2269:Q *2469:A 33.0643 
*END

*D_NET *566 0.000857424
*CONN
*I *2470:A I *D sky130_fd_sc_hd__buf_2
*I *2279:Q O *D sky130_fd_sc_hd__dfrtp_1
*CAP
1 *2470:A 0.000339969
2 *2279:Q 0.000339969
3 *2470:A *2471:A 0
4 unlock_enable *2470:A 6.57026e-05
5 wb_dat_o[10] *2470:A 0.000111783
6 *2280:RESET_B *2470:A 0
7 *2466:A *2470:A 0
*RES
1 *2279:Q *2470:A 34.4036 
*END

*D_NET *567 0.000422751
*CONN
*I *2471:A I *D sky130_fd_sc_hd__buf_2
*I *2280:Q O *D sky130_fd_sc_hd__dfrtp_1
*CAP
1 *2471:A 0.000186637
2 *2280:Q 0.000186637
3 wb_dat_o[10] *2471:A 3.92854e-05
4 wb_dat_o[11] *2471:A 1.01912e-05
5 *2470:A *2471:A 0
*RES
1 *2280:Q *2471:A 30.4929 
*END

*D_NET *568 0.00130071
*CONN
*I *2088:B I *D sky130_fd_sc_hd__or4_1
*I *2453:X O *D sky130_fd_sc_hd__clkbuf_1
*CAP
1 *2088:B 0.000417597
2 *2453:X 0.000417597
3 *2088:B *2088:C 0.000127439
4 *743:DIODE *2088:B 2.27416e-05
5 *2088:D *2088:B 2.19684e-05
6 *2089:C *2088:B 0.000144633
7 *2155:A2 *2088:B 0.000126439
8 *2155:B1 *2088:B 0
9 *13:11 *2088:B 0
10 *18:11 *2088:B 0
11 *375:12 *2088:B 2.22999e-05
*RES
1 *2453:X *2088:B 35.1714 
*END

*D_NET *569 0.00252126
*CONN
*I *2472:A I *D sky130_fd_sc_hd__buf_2
*I *2281:Q O *D sky130_fd_sc_hd__dfrtp_1
*CAP
1 *2472:A 0.000763523
2 *2281:Q 0.000763523
3 *2472:A *687:DIODE 5.52302e-05
4 *2472:A *2475:A 0.000391419
5 wb_dat_o[12] *2472:A 0.000329185
6 wb_dat_o[15] *2472:A 0.000117421
7 *2281:RESET_B *2472:A 0.00010096
*RES
1 *2281:Q *2472:A 43.4036 
*END

*D_NET *570 0.000607357
*CONN
*I *2473:A I *D sky130_fd_sc_hd__buf_2
*I *2282:Q O *D sky130_fd_sc_hd__dfrtp_1
*CAP
1 *2473:A 0.000203267
2 *2282:Q 0.000203267
3 *2473:A *2475:A 0.000149762
4 wb_dat_o[13] *2473:A 5.10602e-05
*RES
1 *2282:Q *2473:A 30.9036 
*END

*D_NET *571 0.000292233
*CONN
*I *2474:A I *D sky130_fd_sc_hd__buf_2
*I *2283:Q O *D sky130_fd_sc_hd__dfrtp_1
*CAP
1 *2474:A 0.000146116
2 *2283:Q 0.000146116
3 *2283:RESET_B *2474:A 0
*RES
1 *2283:Q *2474:A 29.7786 
*END

*D_NET *572 0.0011469
*CONN
*I *2475:A I *D sky130_fd_sc_hd__buf_2
*I *2284:Q O *D sky130_fd_sc_hd__dfrtp_1
*CAP
1 *2475:A 0.000279193
2 *2284:Q 0.000279193
3 wb_dat_o[12] *2475:A 2.72545e-05
4 wb_dat_o[13] *2475:A 2.00751e-05
5 *2282:RESET_B *2475:A 0
6 *2284:RESET_B *2475:A 0
7 *2472:A *2475:A 0.000391419
8 *2473:A *2475:A 0.000149762
*RES
1 *2284:Q *2475:A 34.6357 
*END

*D_NET *573 0.00356802
*CONN
*I *2476:A I *D sky130_fd_sc_hd__buf_2
*I *2285:Q O *D sky130_fd_sc_hd__dfrtp_1
*CAP
1 *2476:A 0
2 *2285:Q 0.00120631
3 *573:14 0.00120631
4 *573:14 *606:31 0
5 *573:14 *606:60 0.000542326
6 *573:14 *610:57 3.91409e-05
7 *2143:A *573:14 0.000382467
8 *2144:B *573:14 0.000139208
9 *2412:A *573:14 4.46186e-06
10 *505:21 *573:14 4.78056e-05
*RES
1 *2285:Q *573:14 41.4429 
2 *573:14 *2476:A 9.3 
*END

*D_NET *574 0.00023133
*CONN
*I *2477:A I *D sky130_fd_sc_hd__buf_2
*I *2286:Q O *D sky130_fd_sc_hd__dfrtp_1
*CAP
1 *2477:A 8.95078e-05
2 *2286:Q 8.95078e-05
3 *2477:A *575:14 5.23142e-05
*RES
1 *2286:Q *2477:A 20.3857 
*END

*D_NET *575 0.0065743
*CONN
*I *2478:A I *D sky130_fd_sc_hd__buf_2
*I *2287:Q O *D sky130_fd_sc_hd__dfrtp_1
*CAP
1 *2478:A 6.43305e-05
2 *2287:Q 0.00196987
3 *575:14 0.0020342
4 *575:14 *2243:A 1.11879e-05
5 *575:14 *576:18 0.000681638
6 *575:14 *622:38 0.00036192
7 wb_dat_o[17] *575:14 1.02504e-05
8 wb_dat_o[19] *2478:A 5.62995e-05
9 wb_dat_o[19] *575:14 0
10 *2286:D *575:14 0.00119217
11 *2286:RESET_B *575:14 6.4259e-05
12 *2300:RESET_B *575:14 7.58664e-05
13 *2477:A *575:14 5.23142e-05
*RES
1 *2287:Q *575:14 45.9786 
2 *575:14 *2478:A 15.1571 
*END

*D_NET *576 0.00809622
*CONN
*I *2479:A I *D sky130_fd_sc_hd__buf_2
*I *2288:Q O *D sky130_fd_sc_hd__dfrtp_1
*CAP
1 *2479:A 0.00104184
2 *2288:Q 0.00145866
3 *576:18 0.0025005
4 *2479:A *2026:C 0.000124116
5 *2479:A *2257:A 0.000405727
6 *576:18 *691:DIODE 1.92905e-05
7 *576:18 *692:DIODE 1.72894e-05
8 *576:18 *2012:B 0
9 *576:18 *2144:A 0.000446603
10 *576:18 *2244:A 1.97695e-05
11 *576:18 *622:38 0.000515147
12 *2286:D *576:18 0.000144773
13 *2287:RESET_B *576:18 0.000226469
14 *2300:D *2479:A 0.000149775
15 *2332:D *2479:A 1.64343e-05
16 *2412:A *576:18 0
17 *466:69 *2479:A 4.55132e-05
18 *466:75 *2479:A 0.000228514
19 *505:8 *2479:A 5.41494e-05
20 *575:14 *576:18 0.000681638
*RES
1 *2288:Q *576:18 46.2286 
2 *576:18 *2479:A 35.0321 
*END

*D_NET *577 0.000157408
*CONN
*I *2480:A I *D sky130_fd_sc_hd__buf_2
*I *2270:Q O *D sky130_fd_sc_hd__dfrtp_1
*CAP
1 *2480:A 7.87039e-05
2 *2270:Q 7.87039e-05
*RES
1 *2270:Q *2480:A 19.975 
*END

*D_NET *578 0.000277034
*CONN
*I *2481:A I *D sky130_fd_sc_hd__buf_2
*I *2289:Q O *D sky130_fd_sc_hd__dfrtp_1
*CAP
1 *2481:A 0.000106526
2 *2289:Q 0.000106526
3 wb_dat_o[20] *2481:A 6.39829e-05
4 wb_dat_o[29] *2481:A 0
*RES
1 *2289:Q *2481:A 29.5464 
*END

*D_NET *579 0.00299652
*CONN
*I *1941:A I *D sky130_fd_sc_hd__inv_2
*I *2158:A1 I *D sky130_fd_sc_hd__a221o_1
*I *2089:A I *D sky130_fd_sc_hd__or4b_1
*I *2454:X O *D sky130_fd_sc_hd__buf_1
*CAP
1 *1941:A 0
2 *2158:A1 0.000397848
3 *2089:A 0
4 *2454:X 0.000420077
5 *579:26 0.000683107
6 *579:16 0.000705336
7 *744:DIODE *579:16 5.71472e-05
8 *2089:C *579:26 1.02504e-05
9 *2089:D_N *2158:A1 6.06208e-05
10 *2158:A2 *2158:A1 8.1579e-05
11 *2158:B2 *2158:A1 6.26774e-06
12 *2158:C1 *579:26 0
13 *2163:B2 *579:26 0.000125731
14 *373:10 *579:16 0.000177867
15 *373:10 *579:26 9.16723e-05
16 *540:10 *579:16 7.17603e-05
17 *540:10 *579:26 4.1331e-06
18 *540:21 *579:26 0
19 *540:27 *579:26 4.78932e-05
20 *540:52 *2158:A1 5.52302e-05
*RES
1 *2454:X *579:16 22.5679 
2 *579:16 *579:26 10.6652 
3 *579:26 *2089:A 9.3 
4 *579:26 *2158:A1 16.0277 
5 *579:16 *1941:A 13.8 
*END

*D_NET *580 0.000239228
*CONN
*I *2482:A I *D sky130_fd_sc_hd__buf_2
*I *2290:Q O *D sky130_fd_sc_hd__dfrtp_1
*CAP
1 *2482:A 9.99711e-05
2 *2290:Q 9.99711e-05
3 *2482:A *2492:A 0
4 wb_dat_o[21] *2482:A 3.92854e-05
5 *2290:RESET_B *2482:A 0
*RES
1 *2290:Q *2482:A 29.5464 
*END

*D_NET *581 0.00852229
*CONN
*I *2483:A I *D sky130_fd_sc_hd__buf_2
*I *2291:Q O *D sky130_fd_sc_hd__dfrtp_1
*CAP
1 *2483:A 0
2 *2291:Q 0.00043314
3 *581:16 0.00214705
4 *581:12 0.00258018
5 *581:16 *2484:A 0.0013447
6 *581:16 *582:12 0.0013129
7 group_unlocked *581:16 9.90431e-05
8 wb_dat_o[23] *581:16 0.000188586
9 *2288:D *581:12 2.71291e-05
10 *2288:RESET_B *581:12 7.83659e-05
11 *2300:CLK *581:16 0.00010409
12 *468:20 *581:12 3.05446e-05
13 *468:33 *581:12 5.19842e-06
14 *557:10 *581:12 0.000171368
*RES
1 *2291:Q *581:12 24.7821 
2 *581:12 *581:16 46.5536 
3 *581:16 *2483:A 9.3 
*END

*D_NET *582 0.0104842
*CONN
*I *2484:A I *D sky130_fd_sc_hd__buf_2
*I *2292:Q O *D sky130_fd_sc_hd__dfrtp_1
*CAP
1 *2484:A 0.000467099
2 *2292:Q 8.2929e-05
3 *582:12 0.00299603
4 *582:10 0.00261186
5 *582:12 *2245:A 0.000232399
6 *582:12 *2248:A 0.000188586
7 *582:12 *621:66 0.00014285
8 *582:12 *621:82 0.00036192
9 *2288:RESET_B *582:12 0.000223558
10 *2291:RESET_B *582:12 0.000451463
11 *2300:CLK *2484:A 7.20217e-06
12 *2463:A *582:12 2.59355e-05
13 *4:9 *582:12 1.39841e-05
14 *557:10 *582:12 2.07382e-05
15 *581:16 *2484:A 0.0013447
16 *581:16 *582:12 0.0013129
*RES
1 *2292:Q *582:10 19.6393 
2 *582:10 *582:12 52.4911 
3 *582:12 *2484:A 22.6839 
*END

*D_NET *583 0.000348767
*CONN
*I *2485:A I *D sky130_fd_sc_hd__buf_2
*I *2293:Q O *D sky130_fd_sc_hd__dfrtp_1
*CAP
1 *2485:A 0.000174383
2 *2293:Q 0.000174383
3 wb_dat_o[24] *2485:A 0
*RES
1 *2293:Q *2485:A 30.4929 
*END

*D_NET *584 0.0100311
*CONN
*I *2486:A I *D sky130_fd_sc_hd__buf_2
*I *2294:Q O *D sky130_fd_sc_hd__dfrtp_1
*CAP
1 *2486:A 0.000667438
2 *2294:Q 9.78877e-05
3 *584:22 0.00381548
4 *584:10 0.00324593
5 *2486:A *2025:B 7.57394e-05
6 *2486:A *2025:C 0.000213422
7 *584:10 *611:76 0.000152108
8 *584:22 *2025:B 1.789e-05
9 *2025:A *2486:A 2.39852e-05
10 *2025:A *584:22 1.33683e-05
11 *2105:A2 *584:22 3.67142e-05
12 *2105:B1 *584:22 0.000299776
13 *2107:C *584:22 2.13481e-06
14 *2107:D *584:22 1.92905e-05
15 *2109:A_N *584:10 8.58946e-05
16 *2141:A *584:22 9.06747e-05
17 *2141:B *584:22 0
18 *2285:CLK *584:22 0.000120114
19 *2299:D *2486:A 0.000206781
20 *2331:CLK *584:22 1.58163e-05
21 *2331:D *584:22 3.8745e-05
22 *388:8 *584:22 0.000274288
23 *388:23 *584:10 9.69119e-06
24 *466:20 *584:22 0.000117553
25 *506:12 *584:22 3.35232e-05
26 *506:56 *584:22 3.42639e-05
27 *506:69 *584:22 7.48301e-06
28 *507:17 *584:22 0.000315152
*RES
1 *2294:Q *584:10 21.7643 
2 *584:10 *584:22 49.5179 
3 *584:22 *2486:A 22.5679 
*END

*D_NET *585 0.000231162
*CONN
*I *2487:A I *D sky130_fd_sc_hd__buf_2
*I *2295:Q O *D sky130_fd_sc_hd__dfrtp_1
*CAP
1 *2487:A 0.000115581
2 *2295:Q 0.000115581
*RES
1 *2295:Q *2487:A 29.5464 
*END

*D_NET *586 0.00293509
*CONN
*I *2488:A I *D sky130_fd_sc_hd__buf_2
*I *2296:Q O *D sky130_fd_sc_hd__dfrtp_1
*CAP
1 *2488:A 0.00090953
2 *2296:Q 0.00090953
3 *2488:A *2023:B 0.000228514
4 *2488:A *2246:A 0.000151061
5 *2488:A *2254:A 0.000123827
6 *2488:A *2489:A 8.55687e-05
7 *2488:A *616:24 0
8 *2488:A *616:37 0.000143566
9 *2488:A *617:54 1.16078e-05
10 *2296:CLK *2488:A 0.000228514
11 *2297:RESET_B *2488:A 0.000143375
*RES
1 *2296:Q *2488:A 46.1179 
*END

*D_NET *587 0.00154425
*CONN
*I *2489:A I *D sky130_fd_sc_hd__buf_2
*I *2297:Q O *D sky130_fd_sc_hd__dfrtp_1
*CAP
1 *2489:A 0.000682133
2 *2297:Q 0.000682133
3 *2489:A *2252:A 8.90199e-05
4 *2488:A *2489:A 8.55687e-05
5 *467:36 *2489:A 5.39629e-06
*RES
1 *2297:Q *2489:A 36.6536 
*END

*D_NET *588 0.00041682
*CONN
*I *2490:A I *D sky130_fd_sc_hd__buf_2
*I *2298:Q O *D sky130_fd_sc_hd__dfrtp_1
*CAP
1 *2490:A 0.00020841
2 *2298:Q 0.00020841
3 *2490:A *616:39 0
*RES
1 *2298:Q *2490:A 31.0107 
*END

*D_NET *589 0.000264146
*CONN
*I *2491:A I *D sky130_fd_sc_hd__buf_2
*I *2271:Q O *D sky130_fd_sc_hd__dfrtp_1
*CAP
1 *2491:A 0.000100082
2 *2271:Q 0.000100082
3 wb_dat_o[2] *2491:A 6.39829e-05
4 *324:16 *2491:A 0
*RES
1 *2271:Q *2491:A 29.5464 
*END

*D_NET *590 0.0017294
*CONN
*I *2077:A I *D sky130_fd_sc_hd__nor2_1
*I *2455:X O *D sky130_fd_sc_hd__clkbuf_1
*CAP
1 *2077:A 0.000677777
2 *2455:X 0.000677777
3 *2077:A *642:12 0.000341977
4 *745:DIODE *2077:A 3.18676e-05
*RES
1 *2455:X *2077:A 31.9036 
*END

*D_NET *591 0.000731326
*CONN
*I *2492:A I *D sky130_fd_sc_hd__buf_2
*I *2299:Q O *D sky130_fd_sc_hd__dfrtp_1
*CAP
1 *2492:A 0.000360861
2 *2299:Q 0.000360861
3 wb_dat_o[30] *2492:A 9.60337e-06
4 *2482:A *2492:A 0
*RES
1 *2299:Q *2492:A 33.0286 
*END

*D_NET *592 0.000253564
*CONN
*I *2493:A I *D sky130_fd_sc_hd__buf_2
*I *2300:Q O *D sky130_fd_sc_hd__dfrtp_1
*CAP
1 *2493:A 8.64657e-05
2 *2300:Q 8.64657e-05
3 wb_dat_o[19] *2493:A 8.06331e-05
*RES
1 *2300:Q *2493:A 29.5464 
*END

*D_NET *593 0.000670702
*CONN
*I *2494:A I *D sky130_fd_sc_hd__buf_2
*I *2272:Q O *D sky130_fd_sc_hd__dfrtp_1
*CAP
1 *2494:A 0.00015225
2 *2272:Q 0.00015225
3 *2494:A *619:64 4.72917e-05
4 *2494:A *622:121 2.28598e-05
5 *738:DIODE *2494:A 9.71197e-05
6 *2027:C *2494:A 0.000137983
7 *542:10 *2494:A 6.09476e-05
8 *558:20 *2494:A 0
*RES
1 *2272:Q *2494:A 31.4393 
*END

*D_NET *594 0.000242525
*CONN
*I *2495:A I *D sky130_fd_sc_hd__buf_2
*I *2273:Q O *D sky130_fd_sc_hd__dfrtp_1
*CAP
1 *2495:A 0.000107308
2 *2273:Q 0.000107308
3 *2495:A *621:10 2.79092e-05
4 *2464:A *2495:A 0
5 *560:100 *2495:A 0
*RES
1 *2273:Q *2495:A 29.5464 
*END

*D_NET *595 0.000715655
*CONN
*I *2496:A I *D sky130_fd_sc_hd__buf_2
*I *2274:Q O *D sky130_fd_sc_hd__dfrtp_1
*CAP
1 *2496:A 0.000312198
2 *2274:Q 0.000312198
3 *2496:A *2234:A 4.01768e-05
4 *2274:RESET_B *2496:A 0
5 *168:12 *2496:A 5.10822e-05
*RES
1 *2274:Q *2496:A 32.9214 
*END

*D_NET *596 0.000570923
*CONN
*I *2497:A I *D sky130_fd_sc_hd__buf_2
*I *2275:Q O *D sky130_fd_sc_hd__dfrtp_1
*CAP
1 *2497:A 0.000231809
2 *2275:Q 0.000231809
3 *2497:A *2498:A 1.02504e-05
4 wb_dat_o[6] *2497:A 7.77751e-05
5 *2029:B *2497:A 0
6 *59:21 *2497:A 1.92789e-05
*RES
1 *2275:Q *2497:A 32.0464 
*END

*D_NET *597 0.00028267
*CONN
*I *2498:A I *D sky130_fd_sc_hd__buf_2
*I *2276:Q O *D sky130_fd_sc_hd__dfrtp_1
*CAP
1 *2498:A 0.000104219
2 *2276:Q 0.000104219
3 wb_dat_o[6] *2498:A 0
4 wb_dat_o[7] *2498:A 6.39829e-05
5 *2029:B *2498:A 0
6 *2497:A *2498:A 1.02504e-05
*RES
1 *2276:Q *2498:A 29.5464 
*END

*D_NET *598 0.000438524
*CONN
*I *2499:A I *D sky130_fd_sc_hd__buf_2
*I *2277:Q O *D sky130_fd_sc_hd__dfrtp_1
*CAP
1 *2499:A 0.000176657
2 *2277:Q 0.000176657
3 *2499:A *622:121 7.77751e-05
4 wb_dat_o[8] *2499:A 7.43578e-06
*RES
1 *2277:Q *2499:A 30.9036 
*END

*D_NET *599 0.000333072
*CONN
*I *2500:A I *D sky130_fd_sc_hd__buf_2
*I *2278:Q O *D sky130_fd_sc_hd__dfrtp_1
*CAP
1 *2500:A 0.000150602
2 *2278:Q 0.000150602
3 *2500:A *620:199 3.18676e-05
*RES
1 *2278:Q *2500:A 30.0821 
*END

*D_NET *600 0.0162031
*CONN
*I *2133:C I *D sky130_fd_sc_hd__and3b_1
*I *2136:C I *D sky130_fd_sc_hd__and3b_1
*I *2130:A I *D sky130_fd_sc_hd__and3_1
*I *2139:C I *D sky130_fd_sc_hd__and3b_1
*I *2142:A I *D sky130_fd_sc_hd__and3_1
*I *2109:C I *D sky130_fd_sc_hd__and3b_1
*I *2100:B I *D sky130_fd_sc_hd__and2b_1
*I *2106:A I *D sky130_fd_sc_hd__and3_1
*I *2103:A I *D sky130_fd_sc_hd__and3_1
*I *2144:A I *D sky130_fd_sc_hd__and2_1
*I *2382:X O *D sky130_fd_sc_hd__clkbuf_2
*CAP
1 *2133:C 0
2 *2136:C 0.000346534
3 *2130:A 0.000201838
4 *2139:C 0.000167162
5 *2142:A 3.80696e-05
6 *2109:C 0.000791127
7 *2100:B 0.000145971
8 *2106:A 0
9 *2103:A 0
10 *2144:A 0.000506561
11 *2382:X 0.000131246
12 *600:93 0.000937011
13 *600:65 0.00107348
14 *600:58 0.000595438
15 *600:32 0.00074086
16 *600:26 0.00110523
17 *600:22 0.00135608
18 *600:20 0.00063555
19 *600:16 0.000852718
20 *600:12 0.000416152
21 *2144:A *2012:B 0
22 *2144:A *2012:C 9.50968e-06
23 *2144:A *622:32 0.000351566
24 *2144:A *622:38 5.66157e-05
25 *600:12 *610:95 3.69697e-05
26 *600:16 *606:118 9.74698e-05
27 *600:22 *606:23 0
28 *600:22 *610:26 0
29 *600:22 *610:95 0
30 *600:26 *606:23 0
31 *600:26 *610:26 0
32 *701:DIODE *600:93 0.000316184
33 *2012:A *2144:A 5.71472e-05
34 *2013:A *2100:B 0.000100831
35 *2026:A *2144:A 3.08664e-05
36 *2103:B *2144:A 5.99221e-05
37 *2103:B *600:32 1.90303e-05
38 *2103:C *600:26 0
39 *2103:C *600:32 8.45455e-05
40 *2106:B *600:58 3.69047e-06
41 *2106:B *600:65 2.15245e-05
42 *2106:C *600:65 6.23306e-05
43 *2109:B *2109:C 4.37999e-05
44 *2128:B *2136:C 0.00014631
45 *2128:B *600:20 0.00029443
46 *2130:B *2136:C 0
47 *2130:B *600:20 0
48 *2130:C *2130:A 5.52238e-05
49 *2132:B *600:12 5.03772e-05
50 *2134:B *2130:A 5.52238e-05
51 *2135:A *600:16 6.05161e-06
52 *2135:B *600:16 7.32173e-05
53 *2142:C *2139:C 3.69047e-06
54 *2142:C *600:93 1.43625e-06
55 *2143:B *2139:C 5.41794e-05
56 *2143:B *600:93 5.33005e-05
57 *2285:CLK *600:26 0.000173804
58 *2285:D *2144:A 3.84478e-05
59 *2285:RESET_B *2144:A 0.000129732
60 *2286:D *2144:A 0.000686402
61 *2318:D *600:32 1.92905e-05
62 *2319:D *600:65 5.71472e-05
63 *2331:D *600:93 1.02911e-05
64 *2367:A *600:93 0.000918153
65 *2407:A *600:93 8.71761e-05
66 *2412:A *2144:A 0.000188586
67 *2421:A *2109:C 0.000268672
68 *400:20 *600:20 1.62539e-05
69 *400:20 *600:22 1.71615e-05
70 *404:10 *600:12 0
71 *410:14 *600:93 0.000300607
72 *466:59 *2139:C 0.000213154
73 *468:57 *2100:B 5.52302e-05
74 *468:72 *2100:B 0
75 *499:18 *2100:B 5.33005e-05
76 *500:16 *2130:A 2.8266e-06
77 *500:16 *600:20 5.59013e-05
78 *500:30 *2136:C 0.000248986
79 *507:27 *2109:C 2.89114e-05
80 *576:18 *2144:A 0.000446603
*RES
1 *2382:X *600:12 20.2821 
2 *600:12 *600:16 8.32143 
3 *600:16 *600:20 4.75893 
4 *600:20 *600:22 3.61607 
5 *600:22 *600:26 12.2143 
6 *600:26 *600:32 3.96429 
7 *600:32 *2144:A 34.9429 
8 *600:32 *2103:A 9.3 
9 *600:26 *600:58 7.53571 
10 *600:58 *2106:A 9.3 
11 *600:58 *600:65 2.58929 
12 *600:65 *2100:B 21.3893 
13 *600:65 *2109:C 19.7107 
14 *600:22 *600:93 21.4821 
15 *600:93 *2142:A 10.0321 
16 *600:93 *2139:C 22.1036 
17 *600:20 *2130:A 16.2732 
18 *600:16 *2136:C 20.1929 
19 *600:12 *2133:C 9.3 
*END

*D_NET *601 0.0105069
*CONN
*I *2081:B1 I *D sky130_fd_sc_hd__a31o_1
*I *2053:B I *D sky130_fd_sc_hd__or3_1
*I *2456:X O *D sky130_fd_sc_hd__buf_1
*CAP
1 *2081:B1 0
2 *2053:B 4.62774e-05
3 *2456:X 0.00108199
4 *601:36 0.0022893
5 *601:18 0.00224302
6 *601:16 0.00108199
7 *2053:B *607:53 0
8 *601:16 *615:156 0.000197984
9 *601:36 *667:DIODE 5.33005e-05
10 *601:36 *2220:A1 0
11 *601:36 *2416:A 9.81719e-05
12 *601:36 *615:156 3.17148e-05
13 *601:36 *615:165 5.52302e-05
14 *601:36 *648:19 0.000248626
15 *727:DIODE *601:16 2.89016e-05
16 *741:DIODE *601:16 0.00014285
17 *1944:A *601:16 7.83587e-05
18 *2081:A3 *601:16 3.90513e-05
19 *2085:B *601:36 0
20 *2090:C_N *601:16 0.00012401
21 *2090:C_N *601:36 6.66939e-05
22 *2093:A2 *601:36 0
23 *2126:B *601:36 0.0002026
24 *2154:B *601:16 5.52238e-05
25 *2159:B1 *601:36 4.58194e-05
26 *2160:B *601:16 2.59355e-05
27 *2160:C *601:16 5.33005e-05
28 *2162:A_N *601:36 0.000111562
29 *2163:A2 *601:16 0.000481575
30 *2166:B *601:36 0
31 *2220:B1_N *601:36 0
32 *2342:D *601:36 0.000177948
33 *2370:A *601:36 3.0544e-05
34 *2463:A *2053:B 7.83587e-05
35 *2:11 *601:16 5.38962e-05
36 *286:46 *601:16 1.58163e-05
37 *286:63 *601:16 4.85033e-05
38 *414:16 *601:36 0
39 *462:12 *601:36 0
40 *465:129 *601:36 1.22746e-05
41 *469:8 *601:36 1.3277e-05
42 *469:115 *601:36 0.000239369
43 *540:10 *601:16 0
44 *540:21 *601:16 0
45 *546:23 *601:16 0.000953427
46 *554:44 *601:36 0
*RES
1 *2456:X *601:16 49.1929 
2 *601:16 *601:18 4.5 
3 *601:18 *601:36 48.0714 
4 *601:36 *2053:B 19.3357 
5 *601:18 *2081:B1 9.3 
*END

*D_NET *602 0.00805845
*CONN
*I *2127:C I *D sky130_fd_sc_hd__and3b_1
*I *2124:A I *D sky130_fd_sc_hd__and3_1
*I *2115:C I *D sky130_fd_sc_hd__and3b_1
*I *2121:B I *D sky130_fd_sc_hd__and3b_1
*I *2118:A I *D sky130_fd_sc_hd__and3_1
*I *2112:C I *D sky130_fd_sc_hd__and3b_1
*I *2383:X O *D sky130_fd_sc_hd__buf_1
*CAP
1 *2127:C 0.000441447
2 *2124:A 1.69531e-05
3 *2115:C 7.4253e-06
4 *2121:B 0.000436881
5 *2118:A 0.000430148
6 *2112:C 0
7 *2383:X 9.56506e-05
8 *602:35 0.00097949
9 *602:33 0.000587052
10 *602:20 0.00124303
11 *602:14 0.000998497
12 *602:8 0.000742778
13 *2118:A *621:106 0
14 *2042:A *2127:C 5.52238e-05
15 *2047:C *602:14 4.49293e-05
16 *2047:C *602:20 0.000100823
17 *2111:A *602:33 0
18 *2117:A *2118:A 0
19 *2118:B *2118:A 0.000267807
20 *2118:C *2118:A 5.71472e-05
21 *2121:C *2121:B 1.92789e-05
22 *2122:A *602:8 0.000184745
23 *2123:A *2124:A 5.33005e-05
24 *2123:A *602:14 0
25 *2124:B *2127:C 5.66647e-05
26 *2124:B *602:14 8.16656e-05
27 *2126:B *2127:C 3.34687e-05
28 *2321:D *602:33 1.98839e-05
29 *2325:CLK *602:8 4.8843e-05
30 *2326:CLK *2127:C 5.10256e-05
31 *2326:D *2127:C 0.000172893
32 *2328:CLK *602:8 4.70048e-05
33 *388:51 *602:20 0.000221128
34 *468:148 *2118:A 0
35 *468:148 *602:33 0.000184745
36 *468:148 *602:35 0
37 *469:14 *2127:C 3.34672e-05
38 *509:10 *602:33 4.45768e-06
39 *510:22 *602:33 0.00027095
40 *510:57 *2124:A 5.33005e-05
41 *511:23 *2118:A 0
42 *513:43 *2127:C 0
43 *514:10 *2127:C 1.63504e-05
*RES
1 *2383:X *602:8 16.3893 
2 *602:8 *602:14 3.21429 
3 *602:14 *602:20 15 
4 *602:20 *2112:C 9.3 
5 *602:20 *602:33 12.2589 
6 *602:33 *602:35 2.09821 
7 *602:35 *2118:A 21.7464 
8 *602:35 *2121:B 20.1036 
9 *602:33 *2115:C 14.0768 
10 *602:14 *2124:A 14.3357 
11 *602:8 *2127:C 20.6929 
*END

*D_NET *603 0.0234002
*CONN
*I *2208:A1 I *D sky130_fd_sc_hd__a21oi_1
*I *2202:A1 I *D sky130_fd_sc_hd__a21oi_1
*I *2200:A1 I *D sky130_fd_sc_hd__a21oi_1
*I *2196:A1 I *D sky130_fd_sc_hd__a21oi_1
*I *2181:A2 I *D sky130_fd_sc_hd__a21oi_1
*I *2183:A1 I *D sky130_fd_sc_hd__a21oi_1
*I *2194:A1 I *D sky130_fd_sc_hd__a21oi_1
*I *2189:A1 I *D sky130_fd_sc_hd__a21oi_1
*I *2186:A1 I *D sky130_fd_sc_hd__a21oi_1
*I *2191:A1 I *D sky130_fd_sc_hd__a21oi_1
*I *2384:X O *D sky130_fd_sc_hd__buf_2
*CAP
1 *2208:A1 0
2 *2202:A1 0
3 *2200:A1 8.99575e-05
4 *2196:A1 0.000223527
5 *2181:A2 0.000231329
6 *2183:A1 0
7 *2194:A1 0.000407299
8 *2189:A1 4.25801e-05
9 *2186:A1 0.000308536
10 *2191:A1 0.000322581
11 *2384:X 0.000148681
12 *603:96 0.000308213
13 *603:83 0.000717374
14 *603:70 0.000471839
15 *603:53 0.00108353
16 *603:47 0.00172427
17 *603:39 0.00188715
18 *603:31 0.00193997
19 *603:16 0.00257293
20 *603:6 0.00133444
21 *2181:A2 *2181:B1 0.000342728
22 *2189:A1 *2186:B1 0.000135028
23 *2191:A1 *2191:B1 5.33005e-05
24 *2194:A1 *2194:B1 0.00109201
25 *603:6 *2208:B1 1.32552e-05
26 *603:16 *2191:B1 0
27 *603:16 *2208:B1 0.000271738
28 *603:16 *605:25 0
29 *603:16 *621:34 0
30 *603:31 *2202:B1 0.00117772
31 *603:31 *605:25 0
32 *603:39 *604:33 9.97648e-05
33 *1966:A *2186:A1 6.42338e-05
34 *1966:A *603:70 2.84398e-05
35 *1971:A *2186:A1 9.7659e-05
36 *1971:A *603:70 0
37 *1974:A *2186:A1 6.19181e-05
38 *1980:A *603:39 0
39 *2007:A1 *603:16 9.90367e-05
40 *2174:A *603:70 3.75052e-05
41 *2185:A *2186:A1 0.000156946
42 *2186:A2 *2186:A1 5.71472e-05
43 *2195:B *2196:A1 0.000180188
44 *2195:B *603:47 0.000114824
45 *2196:A2 *603:47 2.27416e-05
46 *2197:A *2200:A1 7.43844e-05
47 *2197:A *603:47 0.000336068
48 *2197:B *603:39 0
49 *2197:C *603:47 2.38723e-05
50 *2202:A2 *603:39 2.59355e-05
51 *2206:B *603:16 0.000162282
52 *2270:D *2186:A1 0.000487467
53 *2348:CLK *2194:A1 0.00057215
54 *2348:D *2194:A1 5.71472e-05
55 *2349:D *603:47 5.33005e-05
56 *2350:D *603:39 9.25014e-06
57 *2353:D *603:6 1.03968e-05
58 *2384:A *603:6 0.00010096
59 *2386:A *603:16 0.000271345
60 *2413:A *603:83 4.87227e-05
61 *2413:A *603:96 5.86867e-05
62 *163:18 *2181:A2 0.000154241
63 *163:18 *2194:A1 2.0517e-05
64 *163:18 *603:83 0.000139697
65 *163:18 *603:96 0.000100128
66 *168:12 *603:39 0
67 *291:63 *603:53 9.74668e-05
68 *291:72 *603:53 3.14078e-05
69 *291:95 *603:47 0.000186662
70 *291:99 *603:16 0.000482021
71 *323:22 *2181:A2 6.61673e-05
72 *432:12 *603:70 0.000171375
73 *432:12 *603:83 0.000148903
74 *471:36 *2181:A2 5.03787e-05
75 *471:42 *2181:A2 0.000359997
76 *471:123 *603:39 0
77 *471:125 *603:39 0
78 *473:38 *603:16 0.000314202
79 *473:38 *603:31 0.000159453
80 *479:25 *603:70 4.02462e-05
81 *479:25 *603:83 0.00025596
82 *479:40 *603:70 2.8046e-05
83 *479:53 *603:53 9.71197e-05
84 *480:44 *603:16 0.00018372
85 *488:63 *2189:A1 9.76261e-05
86 *490:55 *2191:A1 2.51343e-06
*RES
1 *2384:X *603:6 11.4786 
2 *603:6 *603:16 28.2679 
3 *603:16 *2191:A1 17.2107 
4 *603:16 *603:31 21.5179 
5 *603:31 *603:39 21.8571 
6 *603:39 *603:47 13.9286 
7 *603:47 *603:53 13.6786 
8 *603:53 *2186:A1 22.6929 
9 *603:53 *603:70 3.76786 
10 *603:70 *2189:A1 15.1571 
11 *603:70 *603:83 7.70536 
12 *603:83 *2194:A1 26.7375 
13 *603:83 *603:96 2.49107 
14 *603:96 *2183:A1 13.8 
15 *603:96 *2181:A2 22.3714 
16 *603:47 *2196:A1 12.8536 
17 *603:39 *2200:A1 11.175 
18 *603:31 *2202:A1 9.3 
19 *603:6 *2208:A1 9.3 
*END

*D_NET *604 0.0196238
*CONN
*I *2208:B1 I *D sky130_fd_sc_hd__a21oi_1
*I *2191:B1 I *D sky130_fd_sc_hd__a21oi_1
*I *2205:B1 I *D sky130_fd_sc_hd__a21oi_1
*I *2196:B1 I *D sky130_fd_sc_hd__a21oi_1
*I *2181:B1 I *D sky130_fd_sc_hd__a21oi_1
*I *2183:B1 I *D sky130_fd_sc_hd__a21oi_1
*I *2194:B1 I *D sky130_fd_sc_hd__a21oi_1
*I *2186:B1 I *D sky130_fd_sc_hd__a21oi_1
*I *2189:B1 I *D sky130_fd_sc_hd__a21oi_1
*I *2200:B1 I *D sky130_fd_sc_hd__a21oi_1
*I *2385:X O *D sky130_fd_sc_hd__buf_2
*CAP
1 *2208:B1 0.00092918
2 *2191:B1 0.000375482
3 *2205:B1 0
4 *2196:B1 0.000117569
5 *2181:B1 0.000686526
6 *2183:B1 2.7667e-05
7 *2194:B1 0.000500359
8 *2186:B1 0.000792733
9 *2189:B1 0
10 *2200:B1 3.59657e-05
11 *2385:X 0
12 *604:122 0.00165661
13 *604:78 0.000838337
14 *604:67 0.00083878
15 *604:44 0.00105953
16 *604:35 0.000615507
17 *604:33 0.00134472
18 *604:18 0.000845997
19 *604:12 0.000569925
20 *604:4 0.000776004
21 *2191:B1 *621:34 0.00069877
22 *1983:A *2196:B1 0.000245335
23 *2174:A *2186:B1 5.33005e-05
24 *2181:A2 *2181:B1 0.000342728
25 *2184:A2 *2186:B1 0.000143515
26 *2184:B1 *2186:B1 1.37693e-05
27 *2187:B *2186:B1 9.71197e-05
28 *2189:A1 *2186:B1 0.000135028
29 *2191:A1 *2191:B1 5.33005e-05
30 *2194:A1 *2194:B1 0.00109201
31 *2203:A2 *604:12 0.000138994
32 *2205:A1 *604:12 9.25014e-06
33 *2206:B *2208:B1 0.00016345
34 *2272:RESET_B *2181:B1 0
35 *2344:D *2183:B1 3.69047e-06
36 *2346:D *604:67 0.00010326
37 *2347:D *2191:B1 1.07719e-05
38 *2349:CLK *604:18 5.33334e-05
39 *2349:D *2196:B1 5.83233e-05
40 *2350:CLK *604:12 6.74911e-05
41 *2350:D *604:18 0.000177941
42 *2350:D *604:33 4.90803e-05
43 *2352:CLK *604:18 5.03772e-05
44 *2353:D *2208:B1 1.33343e-05
45 *2384:A *2208:B1 2.97137e-05
46 *2385:A *604:122 0.000195386
47 *2386:A *2208:B1 0.000256698
48 *2386:A *604:122 0.000113005
49 *163:18 *2181:B1 0.000145483
50 *163:18 *604:67 0.000489436
51 *163:18 *604:78 0.000237521
52 *164:16 *604:12 8.56812e-05
53 *291:95 *2200:B1 1.58163e-05
54 *291:95 *604:33 0.000177149
55 *291:95 *604:35 0.000160622
56 *323:22 *2181:B1 6.56331e-05
57 *471:36 *2183:B1 5.33005e-05
58 *471:125 *604:12 2.94103e-05
59 *471:125 *604:18 9.34004e-05
60 *471:125 *604:33 0.000132442
61 *473:38 *2191:B1 1.31235e-05
62 *475:12 *2186:B1 0.000188667
63 *480:44 *2208:B1 2.95726e-05
64 *486:25 *2186:B1 0.000144773
65 *486:32 *2186:B1 0.000258011
66 *486:49 *2186:B1 0.000172309
67 *488:63 *2186:B1 8.62444e-05
68 *488:63 *604:35 0.000270264
69 *488:63 *604:44 1.02821e-05
70 *541:12 *2196:B1 0
71 *558:20 *2181:B1 0
72 *603:6 *2208:B1 1.32552e-05
73 *603:16 *2191:B1 0
74 *603:16 *2208:B1 0.000271738
75 *603:39 *604:33 9.97648e-05
*RES
1 *2385:X *604:4 9.3 
2 *604:4 *604:12 16.7143 
3 *604:12 *604:18 8.51786 
4 *604:18 *2200:B1 14.3357 
5 *604:18 *604:33 16.8214 
6 *604:33 *604:35 10.3929 
7 *604:35 *2189:B1 9.3 
8 *604:35 *604:44 0.964286 
9 *604:44 *2186:B1 34.7643 
10 *604:44 *604:67 10.6964 
11 *604:67 *2194:B1 24.1929 
12 *604:67 *604:78 3.16071 
13 *604:78 *2183:B1 14.3357 
14 *604:78 *2181:B1 25.3536 
15 *604:33 *2196:B1 21.4607 
16 *604:12 *2205:B1 9.3 
17 *604:4 *604:122 6.28571 
18 *604:122 *2191:B1 27.7643 
19 *604:122 *2208:B1 26.5857 
*END

*D_NET *605 0.00998181
*CONN
*I *2217:C1 I *D sky130_fd_sc_hd__a211oi_1
*I *2218:B1_N I *D sky130_fd_sc_hd__o21ba_1
*I *2210:B1 I *D sky130_fd_sc_hd__a21oi_1
*I *2215:B1 I *D sky130_fd_sc_hd__a21oi_1
*I *2202:B1 I *D sky130_fd_sc_hd__a21oi_1
*I *2213:A I *D sky130_fd_sc_hd__nor2_1
*I *2386:X O *D sky130_fd_sc_hd__clkbuf_2
*CAP
1 *2217:C1 0
2 *2218:B1_N 0.000572432
3 *2210:B1 0.000608448
4 *2215:B1 0
5 *2202:B1 0.000636161
6 *2213:A 0.000170053
7 *2386:X 0
8 *605:51 0.00118088
9 *605:49 0.000376432
10 *605:34 0.000572007
11 *605:25 0.00153397
12 *605:4 0.000872286
13 *2070:A *2210:B1 0.000611483
14 *2179:A *2210:B1 0
15 *2179:C *605:49 0.000232932
16 *2211:A1 *2213:A 1.3701e-05
17 *2211:B1 *605:25 0
18 *2215:A1 *605:34 5.33005e-05
19 *2216:A1 *605:49 9.90431e-05
20 *2217:B1 *605:49 8.4681e-05
21 *2354:CLK *2210:B1 0.000125724
22 *2355:D *605:25 0
23 *2357:CLK *2218:B1_N 6.48957e-05
24 *2357:D *605:49 5.52238e-05
25 *2358:D *2218:B1_N 0
26 *2386:A *2213:A 0
27 *2386:A *605:25 1.76135e-05
28 *291:99 *2213:A 5.7616e-05
29 *291:99 *605:25 0
30 *434:25 *2213:A 0.000262394
31 *434:47 *605:25 0
32 *436:10 *605:25 0
33 *436:14 *605:34 9.90431e-05
34 *436:14 *605:49 0.000317082
35 *437:12 *2210:B1 3.61224e-05
36 *437:12 *605:49 2.44318e-05
37 *437:18 *2210:B1 5.58941e-05
38 *438:23 *2210:B1 4.96991e-05
39 *438:25 *2210:B1 2.05413e-05
40 *473:10 *2210:B1 0
41 *603:16 *605:25 0
42 *603:31 *2202:B1 0.00117772
43 *603:31 *605:25 0
*RES
1 *2386:X *605:4 9.3 
2 *605:4 *2213:A 22.05 
3 *605:4 *605:25 20.9643 
4 *605:25 *2202:B1 23.8 
5 *605:25 *605:34 3.41071 
6 *605:34 *2215:B1 9.3 
7 *605:34 *605:49 8.51786 
8 *605:49 *605:51 4.5 
9 *605:51 *2210:B1 26.9429 
10 *605:51 *2218:B1_N 23.8357 
11 *605:49 *2217:C1 9.3 
*END

*D_NET *606 0.0177329
*CONN
*I *2022:B I *D sky130_fd_sc_hd__and3_1
*I *2015:B I *D sky130_fd_sc_hd__and3_1
*I *2016:B I *D sky130_fd_sc_hd__and3_1
*I *2019:B I *D sky130_fd_sc_hd__and3_1
*I *2013:B I *D sky130_fd_sc_hd__and3_1
*I *2011:B I *D sky130_fd_sc_hd__and3_1
*I *2025:B I *D sky130_fd_sc_hd__and3_1
*I *2026:B I *D sky130_fd_sc_hd__and3_1
*I *2012:B I *D sky130_fd_sc_hd__and3_1
*I *2021:B I *D sky130_fd_sc_hd__and3_1
*I *2387:X O *D sky130_fd_sc_hd__clkbuf_2
*CAP
1 *2022:B 9.93976e-05
2 *2015:B 6.95589e-05
3 *2016:B 0.000217407
4 *2019:B 5.58113e-05
5 *2013:B 0.000520856
6 *2011:B 4.46593e-05
7 *2025:B 0.000322403
8 *2026:B 0.000187953
9 *2012:B 0.000239122
10 *2021:B 0.000155394
11 *2387:X 0
12 *606:131 0.000503208
13 *606:118 0.001185
14 *606:60 0.00120097
15 *606:48 0.000776119
16 *606:31 0.000649464
17 *606:23 0.00147089
18 *606:19 0.0016126
19 *606:17 0.000676528
20 *606:4 0.000613407
21 *2011:B *610:57 3.06878e-06
22 *2012:B *2012:C 8.00806e-05
23 *2012:B *610:49 0.000133987
24 *2012:B *622:38 0
25 *2013:B *610:34 6.07989e-05
26 *2016:B *2015:C 0.000184583
27 *2016:B *610:12 0.000101545
28 *2016:B *611:20 5.72433e-05
29 *2016:B *611:64 0
30 *2021:B *2021:C 2.51343e-06
31 *2021:B *607:38 2.51827e-05
32 *2025:B *2025:C 0.000232084
33 *2025:B *2026:C 1.17968e-05
34 *2026:B *2026:C 0.000150256
35 *606:17 *607:38 1.40415e-05
36 *606:17 *607:53 3.57315e-05
37 *606:17 *622:32 0.000374023
38 *606:19 *622:32 0.000329816
39 *606:23 *622:32 0.00125025
40 *606:31 *610:34 6.88294e-06
41 *606:48 *610:49 6.54117e-05
42 *606:60 *610:57 0.000636857
43 *2011:A *2011:B 2.51343e-06
44 *2011:A *606:31 0
45 *2011:A *606:60 1.40306e-05
46 *2012:A *2012:B 1.41029e-05
47 *2013:A *2013:B 3.67142e-05
48 *2048:A1 *2016:B 3.40128e-05
49 *2103:C *606:23 8.47107e-05
50 *2133:B *606:118 0.000268396
51 *2135:A *606:118 0.000137983
52 *2135:B *606:118 0.00014183
53 *2143:A *606:60 0.000356857
54 *2144:A *2012:B 0
55 *2285:CLK *606:23 0
56 *2285:D *2013:B 4.88637e-05
57 *2285:D *606:31 0.000117553
58 *2299:D *2025:B 5.62136e-05
59 *2308:CLK *606:17 6.62752e-05
60 *2318:D *606:23 0.000197977
61 *2328:CLK *606:118 8.90199e-05
62 *2328:CLK *606:131 2.95726e-05
63 *2328:D *606:118 0.000219905
64 *2406:A *606:17 2.61337e-05
65 *2406:A *606:19 0.000158192
66 *2412:A *2012:B 0
67 *2486:A *2025:B 7.57394e-05
68 *150:14 *2022:B 0.0001399
69 *329:20 *2016:B 0
70 *329:20 *2019:B 3.92757e-05
71 *329:24 *2015:B 4.87953e-05
72 *329:24 *606:131 0.000123673
73 *400:20 *606:23 3.0285e-05
74 *466:75 *2026:B 5.20751e-05
75 *502:12 *606:23 6.42338e-05
76 *502:30 *606:19 1.76135e-05
77 *502:30 *606:23 2.58997e-05
78 *505:21 *606:60 0
79 *573:14 *606:31 0
80 *573:14 *606:60 0.000542326
81 *576:18 *2012:B 0
82 *584:22 *2025:B 1.789e-05
83 *600:16 *606:118 9.74698e-05
84 *600:22 *606:23 0
85 *600:26 *606:23 0
*RES
1 *2387:X *606:4 9.3 
2 *606:4 *2021:B 11.0679 
3 *606:4 *606:17 12.8929 
4 *606:17 *606:19 4.375 
5 *606:19 *606:23 20.7143 
6 *606:23 *606:31 9.13393 
7 *606:31 *2012:B 18.6839 
8 *606:31 *606:48 5.38393 
9 *606:48 *606:60 27.4107 
10 *606:60 *2026:B 17.6571 
11 *606:60 *2025:B 21.2821 
12 *606:48 *2011:B 9.83571 
13 *606:23 *2013:B 15.9964 
14 *606:19 *606:118 20.6786 
15 *606:118 *2019:B 19.3357 
16 *606:118 *606:131 3 
17 *606:131 *2016:B 23.2821 
18 *606:131 *2015:B 10.2464 
19 *606:17 *2022:B 15.1571 
*END

*D_NET *607 0.0152686
*CONN
*I *2020:B I *D sky130_fd_sc_hd__and3_1
*I *2018:B I *D sky130_fd_sc_hd__and3_1
*I *2017:B I *D sky130_fd_sc_hd__and3_1
*I *2014:B I *D sky130_fd_sc_hd__and3_1
*I *2387:A I *D sky130_fd_sc_hd__clkbuf_2
*I *2023:B I *D sky130_fd_sc_hd__and3_1
*I *2024:B I *D sky130_fd_sc_hd__and3_1
*I *2388:X O *D sky130_fd_sc_hd__clkbuf_2
*CAP
1 *2020:B 4.16506e-05
2 *2018:B 0.000517221
3 *2017:B 0
4 *2014:B 0
5 *2387:A 0
6 *2023:B 0.000182648
7 *2024:B 0.000488622
8 *2388:X 0
9 *607:70 0.00105072
10 *607:63 0.00115287
11 *607:53 0.00304677
12 *607:38 0.00287581
13 *607:8 0.000797164
14 *607:4 0.000615956
15 *2018:B *2018:C 3.56528e-05
16 *2024:B *2024:A 5.02408e-05
17 *2024:B *2024:C 2.51343e-06
18 *2024:B *611:26 6.51959e-06
19 *2024:B *617:37 0
20 *607:38 *2021:C 1.95435e-05
21 *607:38 *2253:A 0.000405733
22 *607:63 *611:76 0.000355866
23 *607:70 *611:83 2.2285e-05
24 *2019:A *607:53 0.000128161
25 *2020:A *607:63 9.87983e-06
26 *2021:B *607:38 2.51827e-05
27 *2023:A *2024:B 0.000100823
28 *2038:B1 *2020:B 2.89114e-05
29 *2041:C *607:53 0.000170428
30 *2050:A *607:53 4.72818e-05
31 *2050:C *607:53 0.000216755
32 *2053:B *607:53 0
33 *2053:C *607:53 0
34 *2054:A2 *607:53 0
35 *2054:B1 *607:53 4.71964e-05
36 *2059:A1 *607:53 9.90431e-05
37 *2063:A1 *607:53 2.59355e-05
38 *2063:A2 *607:53 3.18676e-05
39 *2063:B1_N *607:53 4.93703e-05
40 *2098:A *607:53 8.79338e-05
41 *2099:B *607:53 9.90367e-05
42 *2125:D *607:53 8.5662e-05
43 *2291:D *2018:B 0.000433262
44 *2291:D *607:70 0.00010096
45 *2296:CLK *2023:B 2.12005e-05
46 *2296:RESET_B *2024:B 0
47 *2296:RESET_B *607:8 0
48 *2308:CLK *607:53 0.000271352
49 *2308:D *607:53 0.000278574
50 *2415:A *607:63 5.62995e-05
51 *2415:A *607:70 0.000230694
52 *2463:A *607:53 0
53 *2488:A *2023:B 0.000228514
54 *289:35 *607:53 0.000198705
55 *335:28 *607:53 4.70078e-05
56 *336:10 *607:53 3.06406e-05
57 *336:10 *607:63 1.19309e-05
58 *343:8 *607:53 0.000132785
59 *388:23 *607:53 0
60 *388:23 *607:63 0
61 *465:129 *607:53 0
62 *501:31 *607:53 0.000126439
63 *509:48 *607:53 5.41794e-05
64 *510:72 *607:53 7.50601e-05
65 *513:12 *607:53 0
66 *557:10 *607:63 0
67 *606:17 *607:38 1.40415e-05
68 *606:17 *607:53 3.57315e-05
*RES
1 *2388:X *607:4 9.3 
2 *607:4 *607:8 6.14286 
3 *607:8 *2024:B 21.3714 
4 *607:8 *2023:B 16.3893 
5 *607:4 *607:38 9.23214 
6 *607:38 *2387:A 9.3 
7 *607:38 *607:53 49.625 
8 *607:53 *607:63 16.7679 
9 *607:63 *2014:B 9.3 
10 *607:63 *607:70 7.10714 
11 *607:70 *2017:B 9.3 
12 *607:70 *2018:B 16.4071 
13 *607:53 *2020:B 14.3357 
*END

*D_NET *608 0.0151392
*CONN
*I *1973:B1 I *D sky130_fd_sc_hd__o21a_1
*I *1976:B1 I *D sky130_fd_sc_hd__o21a_1
*I *1985:B1 I *D sky130_fd_sc_hd__o21a_1
*I *1979:B1 I *D sky130_fd_sc_hd__o21a_1
*I *1970:B1 I *D sky130_fd_sc_hd__o21a_1
*I *1991:B1 I *D sky130_fd_sc_hd__o21a_1
*I *1988:B1 I *D sky130_fd_sc_hd__o21a_1
*I *1995:B I *D sky130_fd_sc_hd__and2_1
*I *1982:C1 I *D sky130_fd_sc_hd__o211a_1
*I *1993:C1 I *D sky130_fd_sc_hd__o211a_1
*I *2389:X O *D sky130_fd_sc_hd__buf_2
*CAP
1 *1973:B1 0.000205154
2 *1976:B1 2.3671e-05
3 *1985:B1 0.000135978
4 *1979:B1 0
5 *1970:B1 5.18658e-05
6 *1991:B1 9.55461e-05
7 *1988:B1 0.000170065
8 *1995:B 0.000871363
9 *1982:C1 2.79783e-05
10 *1993:C1 7.54187e-05
11 *2389:X 9.26863e-05
12 *608:71 0.000958088
13 *608:65 0.00101411
14 *608:59 0.000269766
15 *608:37 0.00117064
16 *608:20 0.00188882
17 *608:14 0.00161855
18 *608:12 0.000359624
19 *608:10 0.00024828
20 *608:8 0.000375259
21 *1970:B1 *1981:A1 0.000139913
22 *1973:B1 *1971:C 0.000110209
23 *1985:B1 *614:48 0.000325397
24 *1988:B1 *640:25 0
25 *1995:B *621:34 0
26 *608:10 *1971:C 0.000142082
27 *608:12 *1971:C 5.59013e-05
28 *608:12 *614:79 0.000332238
29 *608:14 *1964:B 4.73656e-05
30 *608:14 *614:50 7.6644e-05
31 *608:14 *614:79 5.83304e-05
32 *608:20 *1964:B 0.000215058
33 *608:20 *1981:A1 0.00021306
34 *608:65 *1966:C 9.36215e-05
35 *608:65 *1977:C 1.98839e-05
36 *608:71 *2034:C 2.37761e-05
37 *608:71 *639:10 4.94455e-05
38 *608:71 *640:25 7.54343e-05
39 *1951:A *1995:B 2.37761e-05
40 *1965:B *608:20 6.42095e-05
41 *1966:B *608:65 2.60984e-05
42 *1971:A *1973:B1 0.000222805
43 *1971:B *1973:B1 4.87854e-05
44 *1971:B *608:8 0.000142856
45 *1973:A1 *1973:B1 5.52302e-05
46 *1973:A2 *608:65 0.000118339
47 *1973:A2 *608:71 0.000296076
48 *1974:A *1976:B1 5.52302e-05
49 *1976:A2 *608:10 2.8266e-06
50 *1976:A2 *608:12 0.000134889
51 *1976:A2 *608:14 5.72433e-05
52 *1976:A2 *608:20 7.79781e-06
53 *1979:A2 *608:20 6.42242e-05
54 *1982:A1 *1995:B 1.15281e-05
55 *1982:A1 *608:37 9.99644e-06
56 *1982:A2 *608:37 1.39726e-05
57 *1982:B1 *1982:C1 1.97695e-05
58 *1982:B1 *608:20 0.000146533
59 *1982:B1 *608:37 0.000302063
60 *1993:A1 *1993:C1 7.50697e-05
61 *2007:C1 *1995:B 0
62 *2008:B1 *1995:B 0
63 *2269:D *1970:B1 1.92905e-05
64 *2276:D *1991:B1 4.72917e-05
65 *2276:D *608:71 0.000219818
66 *2390:A *1995:B 4.1331e-06
67 *2393:A *608:20 0.000227532
68 *163:18 *608:65 0.000142856
69 *164:16 *1993:C1 4.94455e-05
70 *273:28 *608:71 0.000150618
71 *286:12 *1995:B 3.57163e-05
72 *287:25 *1995:B 0
73 *295:43 *1988:B1 0
74 *465:64 *608:65 0
75 *465:64 *608:71 0
76 *488:16 *1973:B1 0
77 *488:16 *608:10 0
78 *560:36 *1985:B1 0.000611097
79 *563:14 *608:71 0.000100823
*RES
1 *2389:X *608:8 15.1571 
2 *608:8 *608:10 1.94643 
3 *608:10 *608:12 4.98214 
4 *608:12 *608:14 2.25 
5 *608:14 *608:20 25.4643 
6 *608:20 *1993:C1 20.2464 
7 *608:20 *608:37 4.78571 
8 *608:37 *1982:C1 10.0321 
9 *608:37 *1995:B 31.8357 
10 *608:14 *608:59 4.5 
11 *608:59 *608:65 10.7679 
12 *608:65 *608:71 20.2857 
13 *608:71 *1988:B1 21.1571 
14 *608:71 *1991:B1 11.0679 
15 *608:65 *1970:B1 15.1571 
16 *608:59 *1979:B1 9.3 
17 *608:12 *1985:B1 19.675 
18 *608:10 *1976:B1 14.3357 
19 *608:8 *1973:B1 19.3536 
*END

*D_NET *609 0.00833596
*CONN
*I *2009:B I *D sky130_fd_sc_hd__and3_1
*I *2010:B I *D sky130_fd_sc_hd__and3_1
*I *2006:A I *D sky130_fd_sc_hd__and2_1
*I *2004:A I *D sky130_fd_sc_hd__and2_1
*I *2000:C1 I *D sky130_fd_sc_hd__o211a_1
*I *2390:X O *D sky130_fd_sc_hd__buf_1
*CAP
1 *2009:B 0.000148246
2 *2010:B 0
3 *2006:A 0
4 *2004:A 0.000278455
5 *2000:C1 0.000171119
6 *2390:X 0
7 *609:53 0.000883696
8 *609:31 0.00045391
9 *609:29 0.00241464
10 *609:4 0.00167485
11 *2004:A *613:135 0
12 *2004:A *621:203 0
13 *2009:B *613:148 6.33946e-06
14 *2009:B *613:155 6.39709e-05
15 *609:31 *613:135 0
16 *609:31 *621:203 0
17 *609:53 *613:135 0
18 *609:53 *613:148 0
19 *609:53 *621:203 0
20 *2003:B1 *2004:A 0
21 *2004:B *2004:A 3.18676e-05
22 *2006:B *2004:A 6.74911e-05
23 *2007:B1 *609:29 0
24 *2008:B1 *609:29 0.000145279
25 *2075:A1 *609:29 1.56e-05
26 *2075:A3 *609:29 2.15245e-05
27 *2079:A4 *609:29 0.000531286
28 *2080:A1 *609:29 2.89016e-05
29 *2080:B1 *609:29 7.77652e-05
30 *2086:C1 *609:29 5.52302e-05
31 *2283:CLK *609:53 0
32 *2284:D *609:53 6.65302e-05
33 *2390:A *609:29 0
34 *280:85 *2000:C1 0.000360441
35 *280:85 *609:29 0.000173328
36 *281:35 *2000:C1 5.52238e-05
37 *287:25 *609:29 9.25014e-06
38 *360:16 *609:29 0.000299191
39 *360:29 *609:29 0.000187985
40 *361:18 *609:29 2.92588e-05
41 *472:114 *2004:A 2.89114e-05
42 *473:123 *609:53 0
43 *480:54 *609:29 5.5674e-05
*RES
1 *2390:X *609:4 9.3 
2 *609:4 *2000:C1 13.4429 
3 *609:4 *609:29 37.8036 
4 *609:29 *609:31 3.16071 
5 *609:31 *2004:A 19.3179 
6 *609:31 *2006:A 13.8 
7 *609:29 *609:53 17.6786 
8 *609:53 *2010:B 9.3 
9 *609:53 *2009:B 12.3357 
*END

*D_NET *610 0.0178966
*CONN
*I *2015:C I *D sky130_fd_sc_hd__and3_1
*I *2016:C I *D sky130_fd_sc_hd__and3_1
*I *2019:C I *D sky130_fd_sc_hd__and3_1
*I *2022:C I *D sky130_fd_sc_hd__and3_1
*I *2021:C I *D sky130_fd_sc_hd__and3_1
*I *2013:C I *D sky130_fd_sc_hd__and3_1
*I *2011:C I *D sky130_fd_sc_hd__and3_1
*I *2025:C I *D sky130_fd_sc_hd__and3_1
*I *2026:C I *D sky130_fd_sc_hd__and3_1
*I *2012:C I *D sky130_fd_sc_hd__and3_1
*I *2391:X O *D sky130_fd_sc_hd__clkbuf_2
*CAP
1 *2015:C 0.000182373
2 *2016:C 0
3 *2019:C 0.000113149
4 *2022:C 0
5 *2021:C 0.000460458
6 *2013:C 0
7 *2011:C 0
8 *2025:C 0.00031678
9 *2026:C 0.000233142
10 *2012:C 4.62675e-05
11 *2391:X 0
12 *610:95 0.00157754
13 *610:57 0.00157123
14 *610:49 0.00113556
15 *610:34 0.00093104
16 *610:26 0.00156294
17 *610:22 0.00202844
18 *610:18 0.00036625
19 *610:12 0.000242618
20 *610:6 0.000290835
21 *2015:C *611:64 0
22 *2019:C *2392:A 1.95435e-05
23 *2025:C *616:45 0
24 *2025:C *616:51 0
25 *2026:C *2243:A 0
26 *2026:C *616:51 0
27 *610:12 *611:64 0
28 *2011:A *610:49 3.17148e-05
29 *2011:A *610:57 5.52238e-05
30 *2011:B *610:57 3.06878e-06
31 *2012:A *2012:C 7.6644e-05
32 *2012:A *610:49 0.000320738
33 *2012:B *2012:C 8.00806e-05
34 *2012:B *610:49 0.000133987
35 *2013:A *610:34 5.67915e-05
36 *2013:B *610:34 6.07989e-05
37 *2015:A *2015:C 8.78746e-05
38 *2016:B *2015:C 0.000184583
39 *2016:B *610:12 0.000101545
40 *2021:A *2021:C 0.000204011
41 *2021:B *2021:C 2.51343e-06
42 *2022:A *610:95 0.000227532
43 *2025:B *2025:C 0.000232084
44 *2025:B *2026:C 1.17968e-05
45 *2026:B *2026:C 0.000150256
46 *2039:B *610:49 0
47 *2040:B *2015:C 0
48 *2048:A1 *610:18 0
49 *2105:A2 *610:26 0
50 *2130:B *610:95 0
51 *2134:B *610:95 0.000150625
52 *2143:A *610:57 0.000190917
53 *2143:B *2025:C 0
54 *2144:A *2012:C 9.50968e-06
55 *2144:B *2026:C 0
56 *2285:D *610:34 0.000111436
57 *2287:CLK *610:26 0
58 *2289:D *2021:C 0.000120519
59 *2296:RESET_B *2021:C 0
60 *2300:D *2026:C 5.52238e-05
61 *2327:CLK *610:26 0
62 *2327:CLK *610:95 0
63 *2328:CLK *2015:C 3.9991e-05
64 *2406:A *2021:C 7.64823e-05
65 *2406:A *610:95 3.07495e-05
66 *2418:A *610:95 0.000134664
67 *2479:A *2026:C 0.000124116
68 *2486:A *2025:C 0.000213422
69 *150:14 *2021:C 1.21289e-05
70 *150:14 *610:95 8.87524e-05
71 *151:8 *610:18 0.000175764
72 *151:8 *610:22 0.000928544
73 *328:10 *2015:C 0
74 *329:20 *2015:C 0
75 *329:20 *2019:C 4.78056e-05
76 *329:20 *610:18 9.90431e-05
77 *329:20 *610:22 0.000926621
78 *383:10 *610:95 0
79 *400:20 *610:18 3.03304e-05
80 *404:10 *610:95 0
81 *466:75 *2026:C 5.41794e-05
82 *468:72 *610:26 0
83 *499:24 *610:26 0
84 *499:41 *610:26 0
85 *501:19 *610:95 0.00023267
86 *501:21 *610:95 0.000138946
87 *505:21 *610:49 0
88 *573:14 *610:57 3.91409e-05
89 *600:12 *610:95 3.69697e-05
90 *600:22 *610:26 0
91 *600:22 *610:95 0
92 *600:26 *610:26 0
93 *606:31 *610:34 6.88294e-06
94 *606:48 *610:49 6.54117e-05
95 *606:60 *610:57 0.000636857
96 *607:38 *2021:C 1.95435e-05
*RES
1 *2391:X *610:6 13.8 
2 *610:6 *610:12 6.51786 
3 *610:12 *610:18 3.41071 
4 *610:18 *610:22 13.25 
5 *610:22 *610:26 17.6786 
6 *610:26 *610:34 14.1429 
7 *610:34 *2012:C 15.0321 
8 *610:34 *610:49 8.57143 
9 *610:49 *610:57 18.25 
10 *610:57 *2026:C 18.7821 
11 *610:57 *2025:C 20.5143 
12 *610:49 *2011:C 9.3 
13 *610:26 *2013:C 9.3 
14 *610:22 *610:95 22.9464 
15 *610:95 *2021:C 27.6571 
16 *610:95 *2022:C 9.3 
17 *610:18 *2019:C 20.1393 
18 *610:12 *2016:C 9.3 
19 *610:6 *2015:C 17.9607 
*END

*D_NET *611 0.0154246
*CONN
*I *2391:A I *D sky130_fd_sc_hd__clkbuf_2
*I *2020:C I *D sky130_fd_sc_hd__and3_1
*I *2018:C I *D sky130_fd_sc_hd__and3_1
*I *2017:C I *D sky130_fd_sc_hd__and3_1
*I *2014:C I *D sky130_fd_sc_hd__and3_1
*I *2023:C I *D sky130_fd_sc_hd__and3_1
*I *2024:C I *D sky130_fd_sc_hd__and3_1
*I *2392:X O *D sky130_fd_sc_hd__clkbuf_2
*CAP
1 *2391:A 0
2 *2020:C 9.60844e-06
3 *2018:C 0.000542183
4 *2017:C 0
5 *2014:C 0
6 *2023:C 0.000308921
7 *2024:C 1.00706e-05
8 *2392:X 0
9 *611:83 0.00107145
10 *611:76 0.00102727
11 *611:64 0.00117845
12 *611:52 0.000829147
13 *611:26 0.000567644
14 *611:20 0.00187453
15 *611:4 0.00178419
16 *2023:C *617:54 1.95435e-05
17 *611:20 *2024:A 7.83587e-05
18 *611:26 *2024:A 0.000228018
19 *611:52 *2392:A 5.52302e-05
20 *2014:A *611:83 9.60939e-05
21 *2015:A *611:64 5.52238e-05
22 *2015:C *611:64 0
23 *2016:B *611:20 5.72433e-05
24 *2016:B *611:64 0
25 *2018:B *2018:C 3.56528e-05
26 *2020:A *2020:C 2.17644e-05
27 *2020:A *611:64 9.90367e-05
28 *2024:B *2024:C 2.51343e-06
29 *2024:B *611:26 6.51959e-06
30 *2038:A2 *611:64 3.40128e-05
31 *2038:B1 *611:64 1.39841e-05
32 *2038:C1 *611:64 0.00023978
33 *2039:B *611:20 0
34 *2048:A1 *611:64 7.39637e-05
35 *2138:B *611:20 0.00027095
36 *2139:B *611:20 0.000139362
37 *2140:B *611:20 5.41794e-05
38 *2141:B *611:20 9.25014e-06
39 *2291:D *2018:C 0.000135633
40 *2291:D *611:83 2.82394e-05
41 *2298:CLK *611:20 0
42 *2415:A *611:83 3.30352e-05
43 *151:8 *611:20 0.00278701
44 *328:10 *611:64 0.000267807
45 *329:20 *611:20 1.08359e-05
46 *388:23 *611:64 0
47 *388:23 *611:76 0
48 *400:20 *611:20 7.6644e-05
49 *400:20 *611:52 0.00013594
50 *400:20 *611:64 4.14279e-05
51 *410:14 *611:20 0.000274288
52 *468:49 *611:76 0.000163039
53 *468:49 *611:83 0.000146292
54 *557:10 *611:76 0
55 *584:10 *611:76 0.000152108
56 *607:63 *611:76 0.000355866
57 *607:70 *611:83 2.2285e-05
58 *610:12 *611:64 0
*RES
1 *2392:X *611:4 9.3 
2 *611:4 *611:20 49.9286 
3 *611:20 *611:26 7.92857 
4 *611:26 *2024:C 9.49643 
5 *611:26 *2023:C 23.175 
6 *611:4 *611:52 2.73214 
7 *611:52 *611:64 21.2321 
8 *611:64 *611:76 20.7857 
9 *611:76 *2014:C 9.3 
10 *611:76 *611:83 7.10714 
11 *611:83 *2017:C 9.3 
12 *611:83 *2018:C 16.55 
13 *611:64 *2020:C 9.51875 
14 *611:52 *2391:A 9.3 
*END

*D_NET *612 0.000682891
*CONN
*I *2088:C I *D sky130_fd_sc_hd__or4_1
*I *2457:X O *D sky130_fd_sc_hd__clkbuf_1
*CAP
1 *2088:C 0.000259947
2 *2457:X 0.000259947
3 *747:DIODE *2088:C 3.18676e-05
4 *2088:B *2088:C 0.000127439
5 *2155:A2 *2088:C 3.69047e-06
6 *18:11 *2088:C 0
*RES
1 *2457:X *2088:C 31.4214 
*END

*D_NET *613 0.0221365
*CONN
*I *659:DIODE I *D sky130_fd_sc_hd__diode_2
*I *1987:B1 I *D sky130_fd_sc_hd__a22o_1
*I *663:DIODE I *D sky130_fd_sc_hd__diode_2
*I *2009:C I *D sky130_fd_sc_hd__and3_1
*I *2010:C I *D sky130_fd_sc_hd__and3_1
*I *664:DIODE I *D sky130_fd_sc_hd__diode_2
*I *2005:A2 I *D sky130_fd_sc_hd__a22o_1
*I *662:DIODE I *D sky130_fd_sc_hd__diode_2
*I *2003:A2 I *D sky130_fd_sc_hd__a22o_1
*I *661:DIODE I *D sky130_fd_sc_hd__diode_2
*I *2392:A I *D sky130_fd_sc_hd__clkbuf_2
*I *712:DIODE I *D sky130_fd_sc_hd__diode_2
*I *658:DIODE I *D sky130_fd_sc_hd__diode_2
*I *713:DIODE I *D sky130_fd_sc_hd__diode_2
*I *1990:B1 I *D sky130_fd_sc_hd__a22o_1
*I *2393:X O *D sky130_fd_sc_hd__clkbuf_2
*CAP
1 *659:DIODE 7.60426e-05
2 *1987:B1 0
3 *663:DIODE 0.000104033
4 *2009:C 0
5 *2010:C 0
6 *664:DIODE 0
7 *2005:A2 0
8 *662:DIODE 0
9 *2003:A2 0.000183618
10 *661:DIODE 0
11 *2392:A 0.000252419
12 *712:DIODE 0
13 *658:DIODE 0
14 *713:DIODE 0
15 *1990:B1 0.000168036
16 *2393:X 0
17 *613:155 0.000260994
18 *613:148 0.000388619
19 *613:135 0.00134775
20 *613:124 0.00129219
21 *613:113 0.000300969
22 *613:91 0.000183618
23 *613:89 0.000435168
24 *613:87 0.00199715
25 *613:57 0.00212564
26 *613:47 0.00385011
27 *613:34 0.000344238
28 *613:27 0.00020077
29 *613:23 0.00021815
30 *613:19 0.000147623
31 *613:4 0.000168036
32 *659:DIODE *1987:A1 0.000183875
33 *613:23 *1987:A1 0.000148189
34 *613:27 *1972:B2 3.30237e-05
35 *613:47 *1972:B2 7.92879e-05
36 *613:47 *634:63 5.35423e-05
37 *613:57 *617:71 0
38 *613:57 *634:48 0
39 *613:57 *634:63 0.000342495
40 *613:57 *635:50 1.41029e-05
41 *613:87 *1932:A 4.18895e-05
42 *613:87 *645:16 0.000349819
43 *613:87 *650:18 0.000243503
44 *613:89 *620:44 0
45 *613:89 *620:62 0
46 *1957:A *613:89 0
47 *1984:A2 *613:23 1.41029e-05
48 *1985:A2 *659:DIODE 4.43142e-05
49 *1985:A2 *613:23 8.9163e-05
50 *1985:A2 *613:57 0
51 *1986:A *613:57 0
52 *1987:B2 *613:27 0.000104809
53 *1987:B2 *613:34 0.00010096
54 *1987:B2 *613:47 0.000358971
55 *2003:A1 *2003:A2 5.95604e-05
56 *2003:A1 *613:113 0
57 *2003:B1 *613:135 2.8266e-06
58 *2003:B2 *2003:A2 5.92264e-05
59 *2004:A *613:135 0
60 *2004:B *2003:A2 1.5471e-05
61 *2005:A1 *613:124 1.56e-05
62 *2005:A1 *613:135 0
63 *2009:B *613:148 6.33946e-06
64 *2009:B *613:155 6.39709e-05
65 *2010:A *613:148 6.71547e-05
66 *2019:A *2392:A 3.29722e-05
67 *2019:C *2392:A 1.95435e-05
68 *2036:D_N *613:57 0
69 *2057:B *613:57 0
70 *2057:C *613:57 6.8646e-06
71 *2097:B *613:57 0
72 *2099:A *613:57 0.000342488
73 *2133:B *613:57 0
74 *2283:D *663:DIODE 5.52302e-05
75 *2310:D *613:57 0
76 *2327:CLK *613:57 5.93633e-05
77 *2336:D *613:89 0.000100823
78 *2339:CLK *1990:B1 0.000178847
79 *2353:D *613:135 0
80 *2393:A *659:DIODE 0.000102545
81 *154:14 *2392:A 3.05446e-05
82 *154:14 *613:57 5.30209e-05
83 *271:64 *613:89 0
84 *292:59 *1990:B1 3.92854e-05
85 *295:101 *613:124 0.000132622
86 *316:28 *613:89 0
87 *316:28 *613:113 0
88 *326:16 *613:57 1.69115e-05
89 *334:10 *613:57 0
90 *335:14 *613:87 0.00203232
91 *338:21 *613:57 0.000207769
92 *338:31 *613:57 0.000152333
93 *361:18 *613:89 0.000196282
94 *361:18 *613:113 9.67416e-05
95 *361:18 *613:135 0
96 *383:10 *613:57 0.00018567
97 *400:20 *2392:A 9.90431e-05
98 *472:39 *613:87 0.00122243
99 *472:114 *2003:A2 1.32552e-05
100 *472:114 *613:113 7.6644e-05
101 *473:10 *613:135 0
102 *481:12 *613:135 0
103 *496:30 *613:57 0
104 *496:41 *613:57 0
105 *555:10 *1990:B1 1.02504e-05
106 *555:20 *1990:B1 8.00806e-05
107 *609:31 *613:135 0
108 *609:53 *613:135 0
109 *609:53 *613:148 0
110 *611:52 *2392:A 5.52302e-05
*RES
1 *2393:X *613:4 9.3 
2 *613:4 *1990:B1 21.1036 
3 *613:4 *613:19 4.5 
4 *613:19 *613:23 6.75 
5 *613:23 *613:27 2.19643 
6 *613:27 *713:DIODE 9.3 
7 *613:27 *613:34 0.946429 
8 *613:34 *658:DIODE 9.3 
9 *613:34 *613:47 14.3571 
10 *613:47 *613:57 44.9464 
11 *613:57 *712:DIODE 9.3 
12 *613:57 *2392:A 14.2286 
13 *613:47 *613:87 44.625 
14 *613:87 *613:89 6.19643 
15 *613:89 *613:91 4.5 
16 *613:91 *661:DIODE 9.3 
17 *613:91 *2003:A2 12.4607 
18 *613:89 *613:113 7.05357 
19 *613:113 *662:DIODE 9.3 
20 *613:113 *613:124 3.33929 
21 *613:124 *2005:A2 9.3 
22 *613:124 *613:135 23.6786 
23 *613:135 *664:DIODE 13.8 
24 *613:135 *613:148 7.98214 
25 *613:148 *2010:C 9.3 
26 *613:148 *613:155 2.17857 
27 *613:155 *2009:C 9.3 
28 *613:155 *663:DIODE 11.1393 
29 *613:23 *1987:B1 9.3 
30 *613:19 *659:DIODE 16.3536 
*END

*D_NET *614 0.0109616
*CONN
*I *1999:B1 I *D sky130_fd_sc_hd__a22o_1
*I *1992:A2 I *D sky130_fd_sc_hd__a21o_1
*I *1994:A1 I *D sky130_fd_sc_hd__o21a_1
*I *1971:C I *D sky130_fd_sc_hd__and3_1
*I *1974:C I *D sky130_fd_sc_hd__and3_1
*I *1977:C I *D sky130_fd_sc_hd__and3_1
*I *1966:C I *D sky130_fd_sc_hd__and3_1
*I *1964:B I *D sky130_fd_sc_hd__nor2_2
*I *1983:C I *D sky130_fd_sc_hd__and3_1
*I *1981:B1 I *D sky130_fd_sc_hd__a22o_1
*I *2394:X O *D sky130_fd_sc_hd__buf_2
*CAP
1 *1999:B1 0.000192704
2 *1992:A2 0
3 *1994:A1 9.04722e-06
4 *1971:C 0.000190237
5 *1974:C 0.000234648
6 *1977:C 0.000244296
7 *1966:C 0.000120234
8 *1964:B 0.000199264
9 *1983:C 0
10 *1981:B1 8.55395e-05
11 *2394:X 6.47017e-05
12 *614:103 3.20625e-05
13 *614:101 0.000366004
14 *614:79 0.000615605
15 *614:63 0.00036453
16 *614:50 0.000244644
17 *614:48 0.00102535
18 *614:23 0.00103678
19 *614:10 0.000395582
20 *614:6 0.000277493
21 *1964:B *1981:A1 0.000226507
22 *1981:B1 *1981:A1 1.02504e-05
23 *1966:B *1977:C 1.93344e-05
24 *1970:A1 *1964:B 5.56943e-05
25 *1970:A2 *1964:B 5.80706e-06
26 *1971:A *1971:C 6.28435e-05
27 *1973:A2 *1964:B 0
28 *1973:B1 *1971:C 0.000110209
29 *1974:A *1974:C 0.000342556
30 *1979:A1 *1977:C 1.40415e-05
31 *1979:A2 *1964:B 2.78822e-05
32 *1983:A *614:10 0
33 *1985:A2 *614:48 4.64179e-05
34 *1985:B1 *614:48 0.000325397
35 *1990:B2 *1981:B1 5.84171e-05
36 *1990:B2 *614:10 5.10822e-05
37 *1992:A1 *1999:B1 0.000621848
38 *1992:A1 *614:103 3.57366e-05
39 *1999:A1 *1999:B1 1.21258e-05
40 *2073:B *1999:B1 0.000219711
41 *2389:A *1971:C 1.52978e-05
42 *163:18 *1964:B 0
43 *163:18 *1971:C 0
44 *163:18 *614:50 0
45 *163:18 *614:79 0
46 *280:68 *1999:B1 5.04841e-06
47 *280:85 *1999:B1 1.34959e-05
48 *281:14 *1981:B1 0
49 *281:14 *614:10 0
50 *281:14 *614:23 8.23138e-05
51 *281:14 *614:48 9.60337e-06
52 *281:35 *1999:B1 0.000916754
53 *281:35 *614:23 0.000119193
54 *281:35 *614:101 0.00022459
55 *488:16 *1971:C 0
56 *542:82 *614:48 1.90936e-05
57 *560:24 *1994:A1 3.18676e-05
58 *560:24 *1999:B1 9.22103e-06
59 *560:24 *614:101 7.49387e-06
60 *560:24 *614:103 1.97695e-05
61 *560:36 *614:6 0.00014285
62 *560:36 *614:48 2.05612e-05
63 *560:36 *614:101 0.000338725
64 *608:10 *1971:C 0.000142082
65 *608:12 *1971:C 5.59013e-05
66 *608:12 *614:79 0.000332238
67 *608:14 *1964:B 4.73656e-05
68 *608:14 *614:50 7.6644e-05
69 *608:14 *614:79 5.83304e-05
70 *608:20 *1964:B 0.000215058
71 *608:65 *1966:C 9.36215e-05
72 *608:65 *1977:C 1.98839e-05
*RES
1 *2394:X *614:6 10.6571 
2 *614:6 *614:10 5.83929 
3 *614:10 *1981:B1 15.4429 
4 *614:10 *614:23 8.00446 
5 *614:23 *1983:C 9.3 
6 *614:23 *614:48 28.316 
7 *614:48 *614:50 1.03571 
8 *614:50 *1964:B 19.4429 
9 *614:50 *614:63 4.5 
10 *614:63 *1966:C 10.9518 
11 *614:63 *1977:C 12.1839 
12 *614:48 *614:79 4.98214 
13 *614:79 *1974:C 17.0946 
14 *614:79 *1971:C 18.175 
15 *614:6 *614:101 4.23214 
16 *614:101 *614:103 0.732143 
17 *614:103 *1994:A1 9.83571 
18 *614:103 *1992:A2 9.3 
19 *614:101 *1999:B1 18.7821 
*END

*D_NET *615 0.0317913
*CONN
*I *2145:B1 I *D sky130_fd_sc_hd__o21a_1
*I *677:DIODE I *D sky130_fd_sc_hd__diode_2
*I *2152:B1 I *D sky130_fd_sc_hd__o31a_1
*I *671:DIODE I *D sky130_fd_sc_hd__diode_2
*I *2087:B1 I *D sky130_fd_sc_hd__o31a_1
*I *668:DIODE I *D sky130_fd_sc_hd__diode_2
*I *2081:A1 I *D sky130_fd_sc_hd__a31o_1
*I *666:DIODE I *D sky130_fd_sc_hd__diode_2
*I *2076:A1 I *D sky130_fd_sc_hd__a31o_1
*I *667:DIODE I *D sky130_fd_sc_hd__diode_2
*I *2147:B I *D sky130_fd_sc_hd__and2_1
*I *673:DIODE I *D sky130_fd_sc_hd__diode_2
*I *675:DIODE I *D sky130_fd_sc_hd__diode_2
*I *2149:B I *D sky130_fd_sc_hd__and2_1
*I *715:DIODE I *D sky130_fd_sc_hd__diode_2
*I *697:DIODE I *D sky130_fd_sc_hd__diode_2
*I *2269:RESET_B I *D sky130_fd_sc_hd__dfrtp_1
*I *681:DIODE I *D sky130_fd_sc_hd__diode_2
*I *2225:B1 I *D sky130_fd_sc_hd__o21a_1
*I *682:DIODE I *D sky130_fd_sc_hd__diode_2
*I *2226:B1 I *D sky130_fd_sc_hd__o21a_1
*I *2395:X O *D sky130_fd_sc_hd__clkbuf_4
*CAP
1 *2145:B1 0
2 *677:DIODE 0.000320425
3 *2152:B1 3.15414e-05
4 *671:DIODE 0
5 *2087:B1 3.5445e-05
6 *668:DIODE 0
7 *2081:A1 0
8 *666:DIODE 0.00024795
9 *2076:A1 0.000124796
10 *667:DIODE 4.86692e-05
11 *2147:B 0
12 *673:DIODE 7.35642e-05
13 *675:DIODE 0
14 *2149:B 0.000140239
15 *715:DIODE 0
16 *697:DIODE 0.000236474
17 *2269:RESET_B 9.63389e-05
18 *681:DIODE 0
19 *2225:B1 9.00861e-05
20 *682:DIODE 0
21 *2226:B1 0.000108996
22 *2395:X 0
23 *615:245 0.000542385
24 *615:239 0.000318118
25 *615:226 0.000134604
26 *615:212 0.000457794
27 *615:177 0.000967808
28 *615:165 0.000633636
29 *615:156 0.000530914
30 *615:148 0.00241988
31 *615:142 0.00177786
32 *615:128 9.88067e-05
33 *615:124 0.000538994
34 *615:106 0.000187554
35 *615:102 0.0022054
36 *615:79 0.00195574
37 *615:60 0.00121097
38 *615:49 0.000975183
39 *615:36 0.00102337
40 *615:10 0.000378249
41 *615:8 0.00143879
42 *615:4 0.00042759
43 *666:DIODE *2155:A1 0.00018077
44 *673:DIODE *1972:B2 5.52238e-05
45 *673:DIODE *649:58 2.77258e-05
46 *677:DIODE *1969:B2 7.49387e-06
47 *677:DIODE *634:78 5.43715e-05
48 *2149:B *2149:A 7.84855e-05
49 *2152:B1 *1969:B2 0.000139907
50 *2225:B1 *2225:A1 4.88637e-05
51 *2225:B1 *622:14 0
52 *2226:B1 *2226:A1 3.40128e-05
53 *615:8 *2264:A 0.000537171
54 *615:10 *2226:A1 0.000103993
55 *615:10 *635:19 0.000135793
56 *615:36 *1955:B1_N 0.000246064
57 *615:36 *2225:A1 4.92372e-05
58 *615:36 *2311:D 0.000104974
59 *615:36 *634:21 0.000116276
60 *615:36 *635:19 5.06787e-05
61 *615:36 *635:40 5.08481e-05
62 *615:49 *622:14 0
63 *615:60 *1953:A2 0
64 *615:60 *2233:A 0
65 *615:60 *2313:D 0
66 *615:60 *618:66 0
67 *615:60 *618:72 0
68 *615:60 *622:14 0
69 *615:79 *2264:A 0.000138881
70 *615:102 *2066:B1 9.33907e-05
71 *615:102 *2264:A 0.000144773
72 *615:102 *622:32 0
73 *615:128 *649:58 1.92789e-05
74 *615:148 *1969:B2 0.000250195
75 *615:148 *620:40 0.00112675
76 *615:156 *2001:A_N 7.75022e-05
77 *615:156 *645:16 0
78 *1987:B2 *677:DIODE 1.46624e-05
79 *1990:B2 *677:DIODE 3.25078e-05
80 *1990:B2 *615:245 8.359e-05
81 *1993:A1 *615:124 0.000171484
82 *1993:A1 *615:142 0.000263105
83 *1993:A1 *615:226 7.05143e-06
84 *1993:A1 *615:239 3.67356e-05
85 *1999:A1 *615:239 9.71197e-05
86 *2000:A2 *615:212 0
87 *2001:B *615:156 0.000102403
88 *2036:B *615:102 0.000227539
89 *2049:C *615:102 1.24368e-05
90 *2066:A2 *615:102 0.000137427
91 *2075:A2 *2087:B1 9.90431e-05
92 *2075:A2 *615:212 9.41642e-05
93 *2076:B1 *666:DIODE 7.65541e-05
94 *2076:B1 *2076:A1 1.57389e-05
95 *2078:B *2076:A1 7.80039e-05
96 *2078:B *615:177 3.17148e-05
97 *2081:A3 *615:156 0.000181789
98 *2081:A3 *615:177 3.39124e-05
99 *2081:A3 *615:212 0.00025142
100 *2085:C *2076:A1 1.01912e-05
101 *2085:C *615:177 6.51247e-05
102 *2090:C_N *615:156 1.08359e-05
103 *2145:A2 *615:102 2.83284e-06
104 *2145:A2 *615:124 5.62322e-05
105 *2152:A2 *677:DIODE 2.28499e-05
106 *2152:A2 *2152:B1 9.80173e-05
107 *2152:A3 *677:DIODE 0.000181803
108 *2152:A3 *2152:B1 2.14658e-05
109 *2159:A2 *615:177 0
110 *2159:B1 *667:DIODE 1.55885e-05
111 *2159:B1 *615:165 1.39726e-05
112 *2159:B1 *615:177 0.000800522
113 *2164:A1 *615:177 0
114 *2164:A2 *615:177 0.000114045
115 *2164:B1 *615:177 0.000386079
116 *2165:A2 *666:DIODE 9.60939e-05
117 *2165:A3 *666:DIODE 4.51526e-05
118 *2166:C *615:177 2.1527e-05
119 *2226:A2 *2226:B1 5.20669e-05
120 *2269:CLK *697:DIODE 1.13883e-05
121 *2269:D *697:DIODE 0.000139478
122 *2295:D *2226:B1 0.000228758
123 *2304:RESET_B *615:60 0
124 *2307:D *615:102 0.000630265
125 *2310:CLK *615:102 0
126 *2310:CLK *615:124 0
127 *2335:CLK *615:142 0.000188937
128 *2337:D *2149:B 0
129 *2361:CLK *615:36 1.92789e-05
130 *2361:D *2225:B1 5.71472e-05
131 *2361:D *615:36 2.89494e-05
132 *2420:A *615:245 6.87574e-05
133 *291:29 *615:60 0
134 *291:33 *2226:B1 7.80714e-06
135 *316:8 *615:156 0
136 *316:8 *615:212 0
137 *326:8 *615:102 3.80953e-06
138 *334:68 *677:DIODE 3.34366e-05
139 *334:68 *615:245 0.000171375
140 *345:6 *615:102 0.000180301
141 *347:10 *615:102 0
142 *352:16 *615:102 0.000357668
143 *361:18 *615:177 1.18358e-05
144 *362:8 *666:DIODE 5.33005e-05
145 *362:8 *2076:A1 1.00073e-05
146 *369:8 *2076:A1 3.0591e-05
147 *414:10 *615:156 0
148 *414:16 *615:156 0
149 *465:16 *615:124 0
150 *465:191 *615:212 0.00015134
151 *467:89 *2225:B1 4.46186e-06
152 *467:108 *2225:B1 4.21295e-05
153 *467:108 *615:49 0.000124729
154 *467:114 *615:49 0
155 *467:114 *615:60 0
156 *469:93 *2149:B 3.99614e-06
157 *472:61 *615:142 6.3803e-05
158 *472:61 *615:226 9.60337e-06
159 *472:61 *615:239 4.04863e-05
160 *495:10 *615:102 0
161 *497:8 *615:102 0
162 *540:69 *615:177 0.000482594
163 *554:96 *2076:A1 3.08382e-06
164 *555:10 *615:245 4.87953e-05
165 *556:16 *615:239 0.000129515
166 *556:16 *615:245 0.000401764
167 *601:16 *615:156 0.000197984
168 *601:36 *667:DIODE 5.33005e-05
169 *601:36 *615:156 3.17148e-05
170 *601:36 *615:165 5.52302e-05
*RES
1 *2395:X *615:4 9.3 
2 *615:4 *615:8 9.55357 
3 *615:8 *615:10 5.89286 
4 *615:10 *2226:B1 17.0143 
5 *615:10 *682:DIODE 13.8 
6 *615:8 *615:36 21.8214 
7 *615:36 *2225:B1 16.1929 
8 *615:36 *615:49 2.25 
9 *615:49 *681:DIODE 13.8 
10 *615:49 *615:60 19.5 
11 *615:60 *2269:RESET_B 1.4375 
12 *615:60 *697:DIODE 12.3 
13 *615:4 *615:79 1.35714 
14 *615:79 *715:DIODE 9.3 
15 *615:79 *615:102 41.1964 
16 *615:102 *615:106 5.03571 
17 *615:106 *2149:B 12.5321 
18 *615:106 *675:DIODE 9.3 
19 *615:102 *615:124 6.5 
20 *615:124 *615:128 5.03571 
21 *615:128 *673:DIODE 10.6571 
22 *615:128 *2147:B 9.3 
23 *615:124 *615:142 6.65179 
24 *615:142 *615:148 11.2631 
25 *615:148 *615:156 14.2411 
26 *615:156 *667:DIODE 10.2464 
27 *615:156 *615:165 0.946429 
28 *615:165 *615:177 21.0357 
29 *615:177 *2076:A1 16.3357 
30 *615:177 *666:DIODE 18.4429 
31 *615:165 *2081:A1 9.3 
32 *615:148 *615:212 13.6161 
33 *615:212 *668:DIODE 9.3 
34 *615:212 *2087:B1 10.2464 
35 *615:142 *615:226 0.276786 
36 *615:226 *671:DIODE 13.8 
37 *615:226 *615:239 7.71429 
38 *615:239 *615:245 10.5714 
39 *615:245 *2152:B1 15.1571 
40 *615:245 *677:DIODE 18.6571 
41 *615:239 *2145:B1 9.3 
*END

*D_NET *616 0.0123372
*CONN
*I *2232:A I *D sky130_fd_sc_hd__inv_2
*I *1937:A I *D sky130_fd_sc_hd__inv_2
*I *2252:A I *D sky130_fd_sc_hd__inv_2
*I *2255:A I *D sky130_fd_sc_hd__inv_2
*I *2250:A I *D sky130_fd_sc_hd__inv_2
*I *2247:A I *D sky130_fd_sc_hd__inv_2
*I *2256:A I *D sky130_fd_sc_hd__inv_2
*I *2257:A I *D sky130_fd_sc_hd__inv_2
*I *2243:A I *D sky130_fd_sc_hd__inv_2
*I *2246:A I *D sky130_fd_sc_hd__inv_2
*I *2396:X O *D sky130_fd_sc_hd__buf_4
*CAP
1 *2232:A 0
2 *1937:A 0.000223216
3 *2252:A 9.7872e-05
4 *2255:A 7.88539e-05
5 *2250:A 8.80713e-05
6 *2247:A 0.000257249
7 *2256:A 5.76601e-05
8 *2257:A 0.000123023
9 *2243:A 0.000522902
10 *2246:A 0.000107195
11 *2396:X 0.00031991
12 *616:51 0.000972446
13 *616:45 0.000689246
14 *616:43 0.00088878
15 *616:39 0.000679558
16 *616:37 0.000709268
17 *616:24 0.000647202
18 *616:20 0.000663533
19 *616:18 0.000887271
20 *616:12 0.000592919
21 *616:12 *2396:A 0
22 *616:12 *617:20 0
23 *616:12 *622:14 0.000363245
24 *616:18 *2225:A2 5.03772e-05
25 *616:18 *617:20 6.42338e-05
26 *616:18 *622:14 4.038e-06
27 *616:18 *622:30 0.000100152
28 *616:18 *622:72 9.90431e-05
29 *654:DIODE *1937:A 5.71472e-05
30 *2025:C *616:45 0
31 *2025:C *616:51 0
32 *2026:C *2243:A 0
33 *2026:C *616:51 0
34 *2029:B *616:18 0
35 *2137:B *2250:A 0
36 *2226:A2 *1937:A 0.000290226
37 *2275:RESET_B *616:12 0.000175519
38 *2286:D *2243:A 9.99853e-05
39 *2286:RESET_B *2243:A 0.00049775
40 *2289:CLK *616:20 0
41 *2289:CLK *616:24 0
42 *2289:CLK *616:37 9.56968e-05
43 *2293:CLK *2250:A 0.000105163
44 *2293:RESET_B *2250:A 0.000276211
45 *2295:CLK *616:20 0
46 *2295:RESET_B *616:20 0
47 *2298:RESET_B *2255:A 2.89114e-05
48 *2298:RESET_B *616:39 0.000104974
49 *2299:CLK *2256:A 0.000142856
50 *2299:D *616:45 4.57352e-05
51 *2299:RESET_B *2256:A 5.33433e-05
52 *2300:D *2243:A 2.56601e-05
53 *2300:D *2257:A 7.48091e-05
54 *2479:A *2257:A 0.000405727
55 *2488:A *2246:A 0.000151061
56 *2488:A *616:24 0
57 *2488:A *616:37 0.000143566
58 *2489:A *2252:A 8.90199e-05
59 *2490:A *616:39 0
60 *154:14 *2250:A 3.4902e-05
61 *166:14 *616:12 0.000140463
62 *408:12 *616:43 0
63 *466:75 *2243:A 0
64 *575:14 *2243:A 1.11879e-05
*RES
1 *2396:X *616:12 25.9786 
2 *616:12 *616:18 10.4286 
3 *616:18 *616:20 7.10714 
4 *616:20 *616:24 7.35714 
5 *616:24 *2246:A 11.8893 
6 *616:24 *616:37 12.0714 
7 *616:37 *616:39 5.28571 
8 *616:39 *616:43 5.21429 
9 *616:43 *616:45 5.28571 
10 *616:45 *616:51 5.33929 
11 *616:51 *2243:A 22.5857 
12 *616:51 *2257:A 17.6214 
13 *616:45 *2256:A 15.5857 
14 *616:43 *2247:A 18.0321 
15 *616:39 *2250:A 17.2286 
16 *616:37 *2255:A 15.1571 
17 *616:20 *2252:A 15.9786 
18 *616:18 *1937:A 19.2643 
19 *616:12 *2232:A 9.3 
*END

*D_NET *617 0.018455
*CONN
*I *2396:A I *D sky130_fd_sc_hd__buf_4
*I *2264:A I *D sky130_fd_sc_hd__inv_2
*I *2253:A I *D sky130_fd_sc_hd__inv_2
*I *2066:B1 I *D sky130_fd_sc_hd__a31oi_1
*I *2046:B1 I *D sky130_fd_sc_hd__a31o_1
*I *2064:B1 I *D sky130_fd_sc_hd__a211oi_1
*I *2097:A I *D sky130_fd_sc_hd__or4b_1
*I *2060:A I *D sky130_fd_sc_hd__nor2_1
*I *2254:A I *D sky130_fd_sc_hd__inv_2
*I *2259:A I *D sky130_fd_sc_hd__inv_2
*I *2397:X O *D sky130_fd_sc_hd__clkbuf_4
*CAP
1 *2396:A 0.000186898
2 *2264:A 0.000472015
3 *2253:A 0.000416799
4 *2066:B1 0.000463063
5 *2046:B1 0
6 *2064:B1 0
7 *2097:A 0
8 *2060:A 2.23854e-05
9 *2254:A 8.92557e-05
10 *2259:A 0
11 *2397:X 0
12 *617:97 0.000669959
13 *617:86 0.00052348
14 *617:71 0.00112362
15 *617:54 0.00219513
16 *617:37 0.00153139
17 *617:33 0.000900222
18 *617:31 0.000941832
19 *617:20 0.000871436
20 *617:6 0.000995523
21 *2264:A *1955:A1 3.87887e-05
22 *2264:A *1955:A2 0.000135893
23 *2264:A *1955:B1_N 3.97677e-05
24 *2264:A *640:25 3.17163e-05
25 *2396:A *622:14 0
26 *709:DIODE *2253:A 4.38128e-05
27 *2023:A *617:54 0.000225069
28 *2023:C *617:54 1.95435e-05
29 *2024:B *617:37 0
30 *2029:B *2396:A 0
31 *2029:B *617:20 0
32 *2046:A1 *617:97 0.000124529
33 *2058:C *2066:B1 0.000130345
34 *2059:B1 *617:97 1.76135e-05
35 *2060:B *617:71 0.000451463
36 *2062:B *617:86 0.000142343
37 *2062:B *617:97 2.89016e-05
38 *2066:A2 *2066:B1 9.71197e-05
39 *2097:C *617:86 0.000182601
40 *2097:D_N *617:86 0.00014285
41 *2098:B *617:71 0.000128154
42 *2099:A *617:71 4.87953e-05
43 *2099:B *617:71 5.48488e-05
44 *2275:RESET_B *2396:A 4.38511e-05
45 *2275:RESET_B *617:20 4.1331e-06
46 *2296:CLK *617:33 0.000128875
47 *2296:CLK *617:37 0.000125724
48 *2296:CLK *617:54 0.000270967
49 *2296:D *617:54 0.000225616
50 *2297:CLK *2253:A 1.14865e-05
51 *2297:D *2253:A 6.05161e-06
52 *2297:D *617:33 4.80729e-05
53 *2297:D *617:37 8.00806e-05
54 *2302:CLK *617:20 5.36687e-05
55 *2302:D *617:20 0.00014183
56 *2302:RESET_B *617:20 0.00023347
57 *2311:CLK *2264:A 0.000226867
58 *2311:CLK *617:31 0
59 *2388:A *2253:A 6.82605e-05
60 *2395:A *2264:A 0.000122081
61 *2425:A *617:20 2.41665e-05
62 *2425:A *617:31 7.43578e-06
63 *2427:A *2264:A 0.000315165
64 *2488:A *2254:A 0.000123827
65 *2488:A *617:54 1.16078e-05
66 *166:14 *2396:A 7.73662e-05
67 *170:21 *2264:A 0
68 *170:32 *2264:A 7.17235e-05
69 *170:42 *2264:A 2.06112e-05
70 *338:31 *617:97 5.85135e-05
71 *338:35 *617:97 4.25619e-05
72 *347:10 *2066:B1 0.000124813
73 *347:10 *617:97 0.000124732
74 *348:6 *617:71 9.99644e-06
75 *352:16 *2066:B1 0
76 *352:16 *617:97 0
77 *465:18 *2264:A 0
78 *467:17 *617:33 0.000167691
79 *467:19 *617:33 0.000308359
80 *467:36 *2253:A 3.06878e-06
81 *467:74 *617:33 0.000162125
82 *467:76 *2264:A 5.33005e-05
83 *467:76 *617:20 7.524e-05
84 *467:76 *617:31 1.02821e-05
85 *467:89 *617:20 0
86 *467:89 *617:31 0
87 *467:89 *617:33 0
88 *496:8 *617:71 0
89 *607:38 *2253:A 0.000405733
90 *613:57 *617:71 0
91 *615:8 *2264:A 0.000537171
92 *615:79 *2264:A 0.000138881
93 *615:102 *2066:B1 9.33907e-05
94 *615:102 *2264:A 0.000144773
95 *616:12 *2396:A 0
96 *616:12 *617:20 0
97 *616:18 *617:20 6.42338e-05
*RES
1 *2397:X *617:6 13.8 
2 *617:6 *617:20 26.0714 
3 *617:20 *2259:A 9.3 
4 *617:20 *617:31 5.76786 
5 *617:31 *617:33 10.1429 
6 *617:33 *617:37 6.44643 
7 *617:37 *2254:A 11.4786 
8 *617:37 *617:54 18.375 
9 *617:54 *2060:A 9.72857 
10 *617:54 *617:71 23.5714 
11 *617:71 *2097:A 9.3 
12 *617:71 *617:86 7.39286 
13 *617:86 *2064:B1 9.3 
14 *617:86 *617:97 10.0179 
15 *617:97 *2046:B1 13.8 
16 *617:97 *2066:B1 23.1214 
17 *617:33 *2253:A 21.6571 
18 *617:31 *2264:A 37.2821 
19 *617:6 *2396:A 17.8714 
*END

*D_NET *618 0.0141209
*CONN
*I *2258:A I *D sky130_fd_sc_hd__inv_2
*I *2227:A I *D sky130_fd_sc_hd__inv_2
*I *2267:A I *D sky130_fd_sc_hd__inv_2
*I *2268:A I *D sky130_fd_sc_hd__inv_2
*I *2261:A I *D sky130_fd_sc_hd__inv_2
*I *2266:A I *D sky130_fd_sc_hd__inv_2
*I *2265:A I *D sky130_fd_sc_hd__inv_2
*I *2233:A I *D sky130_fd_sc_hd__inv_2
*I *2263:A I *D sky130_fd_sc_hd__inv_2
*I *2228:A I *D sky130_fd_sc_hd__inv_2
*I *2398:X O *D sky130_fd_sc_hd__buf_4
*CAP
1 *2258:A 0
2 *2227:A 0
3 *2267:A 0.00015415
4 *2268:A 2.23854e-05
5 *2261:A 0
6 *2266:A 0
7 *2265:A 0.000374404
8 *2233:A 0.000343588
9 *2263:A 8.51033e-05
10 *2228:A 0.000182428
11 *2398:X 0.00043849
12 *618:122 0.000588515
13 *618:91 0.000775948
14 *618:72 0.00100639
15 *618:66 0.000566767
16 *618:54 0.00107986
17 *618:43 0.000759661
18 *618:30 0.00101552
19 *618:24 0.00136727
20 *618:20 0.00128486
21 *2265:A *1953:A2 5.33433e-05
22 *2265:A *637:29 6.19846e-05
23 *2267:A *636:10 9.25014e-06
24 *2267:A *636:23 0.000198698
25 *618:20 *2398:A 5.7903e-06
26 *618:20 *622:14 0.0001354
27 *618:24 *2398:A 0
28 *618:24 *619:23 0
29 *618:24 *622:14 0
30 *618:30 *622:14 0
31 *618:43 *622:14 0.000405772
32 *618:91 *1953:B1_N 9.56151e-05
33 *618:122 *2363:D 7.32756e-05
34 *656:DIODE *2267:A 5.33005e-05
35 *726:DIODE *618:24 0
36 *735:DIODE *2228:A 5.52302e-05
37 *737:DIODE *618:24 0
38 *2269:D *2267:A 2.59355e-05
39 *2269:D *618:66 0.000170575
40 *2269:D *618:122 0.000527817
41 *2276:D *2265:A 0.000269189
42 *2301:CLK *618:20 7.03243e-05
43 *2301:RESET_B *618:20 0.000188586
44 *2304:RESET_B *618:72 9.9129e-05
45 *2306:RESET_B *618:43 0.000227736
46 *2312:CLK *618:91 2.93215e-05
47 *2363:RESET_B *2267:A 2.28598e-05
48 *2363:RESET_B *618:122 9.84792e-05
49 *2414:A *2265:A 0
50 *2460:A *2233:A 0.000839617
51 *2460:A *618:91 4.27365e-05
52 *160:12 *2228:A 3.69047e-06
53 *160:12 *618:30 0.000202317
54 *273:16 *618:43 0
55 *291:17 *618:24 0
56 *291:29 *618:24 0
57 *323:22 *618:24 0
58 *465:64 *2267:A 0
59 *470:12 *618:30 0
60 *470:92 *618:30 0
61 *470:115 *618:43 7.26935e-05
62 *470:139 *618:24 0
63 *470:139 *618:30 0
64 *555:20 *618:91 3.68884e-05
65 *615:60 *2233:A 0
66 *615:60 *618:66 0
67 *615:60 *618:72 0
*RES
1 *2398:X *618:20 29.8494 
2 *618:20 *618:24 19.1964 
3 *618:24 *618:30 14.5357 
4 *618:30 *2228:A 12.3 
5 *618:30 *618:43 18.5357 
6 *618:43 *2263:A 10.675 
7 *618:43 *618:54 5.875 
8 *618:54 *618:66 11.1071 
9 *618:66 *618:72 4.73214 
10 *618:72 *2233:A 22.7643 
11 *618:72 *618:91 14.6786 
12 *618:91 *2265:A 22.175 
13 *618:91 *2266:A 13.8 
14 *618:66 *2261:A 13.8 
15 *618:54 *618:122 9.98214 
16 *618:122 *2268:A 9.72857 
17 *618:122 *2267:A 21.925 
18 *618:24 *2227:A 13.8 
19 *618:20 *2258:A 9.3 
*END

*D_NET *619 0.0126951
*CONN
*I *2231:A I *D sky130_fd_sc_hd__inv_2
*I *2234:A I *D sky130_fd_sc_hd__inv_2
*I *2229:A I *D sky130_fd_sc_hd__inv_2
*I *2260:A I *D sky130_fd_sc_hd__inv_2
*I *2262:A I *D sky130_fd_sc_hd__inv_2
*I *2398:A I *D sky130_fd_sc_hd__buf_4
*I *2399:X O *D sky130_fd_sc_hd__buf_2
*CAP
1 *2231:A 4.07631e-05
2 *2234:A 0.000708678
3 *2229:A 2.23854e-05
4 *2260:A 0
5 *2262:A 0.000658583
6 *2398:A 0.000221558
7 *2399:X 1.645e-05
8 *619:64 0.00114908
9 *619:51 0.000815286
10 *619:23 0.00115079
11 *619:19 0.00101057
12 *619:6 0.00036311
13 *2398:A *622:12 0
14 *2398:A *622:14 2.82227e-05
15 *619:6 *622:8 9.90367e-05
16 *619:19 *622:8 8.66063e-05
17 *619:19 *622:95 0.000276211
18 *619:19 *622:102 0.000100262
19 *619:19 *622:121 0.000314639
20 *619:51 *622:121 0.00141285
21 *619:64 *622:121 1.49769e-05
22 *737:DIODE *2398:A 3.0285e-05
23 *738:DIODE *619:64 0.000228558
24 *740:DIODE *619:6 9.90367e-05
25 *740:DIODE *619:19 0.000274294
26 *2274:RESET_B *2231:A 6.05161e-06
27 *2274:RESET_B *2234:A 5.56943e-05
28 *2277:RESET_B *2234:A 5.30637e-06
29 *2301:D *2398:A 0.000144556
30 *2402:A *2398:A 3.2534e-05
31 *2440:A *619:51 5.52302e-05
32 *2461:A *2262:A 3.32631e-05
33 *2462:A *619:19 0.000179341
34 *2462:A *619:51 0.000381355
35 *2494:A *619:64 4.72917e-05
36 *2496:A *2234:A 4.01768e-05
37 *291:17 *2262:A 0.000536795
38 *291:17 *619:23 0.000115474
39 *291:29 *2262:A 0.000627382
40 *323:22 *619:23 0.000101545
41 *471:108 *2231:A 9.90431e-05
42 *541:10 *619:64 9.92409e-05
43 *541:12 *2234:A 0
44 *541:12 *619:64 0
45 *542:10 *619:51 0.000188586
46 *542:10 *619:64 0.000271345
47 *558:20 *619:51 0.000546826
48 *618:20 *2398:A 5.7903e-06
49 *618:24 *2398:A 0
50 *618:24 *619:23 0
*RES
1 *2399:X *619:6 10.2464 
2 *619:6 *2398:A 22.675 
3 *619:6 *619:19 7.10714 
4 *619:19 *619:23 13.7321 
5 *619:23 *2262:A 29.4429 
6 *619:23 *2260:A 13.8 
7 *619:19 *619:51 26.3036 
8 *619:51 *2229:A 9.72857 
9 *619:51 *619:64 13.125 
10 *619:64 *2234:A 26.3536 
11 *619:64 *2231:A 14.7464 
*END

*D_NET *620 0.0225923
*CONN
*I *719:DIODE I *D sky130_fd_sc_hd__diode_2
*I *683:DIODE I *D sky130_fd_sc_hd__diode_2
*I *684:DIODE I *D sky130_fd_sc_hd__diode_2
*I *2235:A I *D sky130_fd_sc_hd__inv_2
*I *2230:A I *D sky130_fd_sc_hd__inv_2
*I *670:DIODE I *D sky130_fd_sc_hd__diode_2
*I *2095:B1 I *D sky130_fd_sc_hd__a21oi_1
*I *676:DIODE I *D sky130_fd_sc_hd__diode_2
*I *2150:B I *D sky130_fd_sc_hd__nor2_1
*I *2236:A I *D sky130_fd_sc_hd__inv_2
*I *685:DIODE I *D sky130_fd_sc_hd__diode_2
*I *689:DIODE I *D sky130_fd_sc_hd__diode_2
*I *2240:A I *D sky130_fd_sc_hd__inv_2
*I *688:DIODE I *D sky130_fd_sc_hd__diode_2
*I *2239:A I *D sky130_fd_sc_hd__inv_2
*I *687:DIODE I *D sky130_fd_sc_hd__diode_2
*I *2238:A I *D sky130_fd_sc_hd__inv_2
*I *686:DIODE I *D sky130_fd_sc_hd__diode_2
*I *2237:A I *D sky130_fd_sc_hd__inv_2
*I *674:DIODE I *D sky130_fd_sc_hd__diode_2
*I *2148:B I *D sky130_fd_sc_hd__nor2_1
*I *2400:X O *D sky130_fd_sc_hd__buf_4
*CAP
1 *719:DIODE 0
2 *683:DIODE 0.000156804
3 *684:DIODE 2.91143e-05
4 *2235:A 0
5 *2230:A 0
6 *670:DIODE 0
7 *2095:B1 0.00017767
8 *676:DIODE 0
9 *2150:B 0
10 *2236:A 0.000135537
11 *685:DIODE 0
12 *689:DIODE 7.72601e-05
13 *2240:A 0
14 *688:DIODE 7.72601e-05
15 *2239:A 0
16 *687:DIODE 2.3671e-05
17 *2238:A 0
18 *686:DIODE 7.72601e-05
19 *2237:A 0
20 *674:DIODE 2.10154e-05
21 *2148:B 0
22 *2400:X 0
23 *620:213 0.000220711
24 *620:199 0.000591556
25 *620:188 0.000819677
26 *620:180 0.000351964
27 *620:136 0.000230651
28 *620:122 0.000719184
29 *620:104 0.000212291
30 *620:100 0.000908179
31 *620:86 2.3671e-05
32 *620:84 0.000512049
33 *620:70 0.000196128
34 *620:66 0.000744028
35 *620:62 0.00103057
36 *620:44 4.921e-05
37 *620:40 0.00186327
38 *620:30 0.00119829
39 *620:26 0.000324827
40 *620:20 0.000530056
41 *620:18 0.0015299
42 *620:4 0.00147882
43 *674:DIODE *649:23 5.71472e-05
44 *683:DIODE *2400:A 3.48705e-05
45 *683:DIODE *621:21 2.58299e-05
46 *683:DIODE *621:34 5.52238e-05
47 *620:18 *2424:A 0
48 *620:26 *1969:B2 0
49 *620:26 *650:58 8.71761e-05
50 *620:30 *650:58 0.00010096
51 *620:40 *1969:B2 0.000811075
52 *620:40 *645:16 0
53 *620:40 *648:61 0.000476417
54 *620:66 *621:203 0
55 *620:84 *621:203 0
56 *620:100 *621:203 0
57 *620:188 *621:10 0
58 *620:213 *2400:A 5.71472e-05
59 wb_dat_o[11] *620:84 0
60 wb_dat_o[13] *620:122 0
61 *1957:A *620:44 2.34337e-05
62 *1957:A *620:62 6.8727e-05
63 *1982:A2 *620:18 0.00022117
64 *1999:A1 *620:18 0.000110234
65 *1999:A1 *620:20 3.97543e-05
66 *1999:A1 *620:26 3.0285e-05
67 *2073:A *620:18 0.000145407
68 *2073:B *620:18 5.63831e-05
69 *2073:C *620:18 0.000133556
70 *2153:B1 *2095:B1 0.000146699
71 *2204:B *620:18 3.74829e-05
72 *2273:RESET_B *620:188 0.000228558
73 *2278:RESET_B *620:199 0.000125877
74 *2280:CLK *620:66 0
75 *2280:CLK *620:84 0
76 *2281:CLK *620:100 0
77 *2281:CLK *620:122 0
78 *2282:RESET_B *620:122 0
79 *2283:CLK *620:122 0
80 *2284:RESET_B *620:122 0
81 *2338:D *620:26 0
82 *2351:D *620:18 9.20761e-05
83 *2365:A *2236:A 3.99614e-06
84 *2459:A *2236:A 5.63018e-05
85 *2472:A *687:DIODE 5.52302e-05
86 *2500:A *620:199 3.18676e-05
87 *142:12 *620:100 8.15939e-05
88 *142:12 *620:122 7.80929e-05
89 *164:16 *620:18 0
90 *271:64 *620:44 5.80706e-06
91 *273:42 *620:26 0.000230482
92 *273:42 *620:30 5.14536e-05
93 *316:28 *620:62 0.00122743
94 *316:28 *620:66 9.69119e-06
95 *334:68 *2095:B1 3.30237e-05
96 *373:10 *620:66 0.000164502
97 *373:10 *620:84 9.37018e-05
98 *473:44 *620:188 0
99 *473:123 *620:122 0
100 *493:23 *620:18 0.000767879
101 *493:25 *620:18 0.000128154
102 *493:33 *620:18 6.86791e-05
103 *494:10 *620:18 0.000265354
104 *494:16 *620:18 0.000220448
105 *494:20 *620:18 0.000169454
106 *554:10 *2236:A 4.01768e-05
107 *554:10 *620:62 4.70078e-05
108 *554:10 *620:136 6.62983e-05
109 *560:100 *620:18 9.27933e-05
110 *560:100 *620:188 0
111 *613:89 *620:44 0
112 *613:89 *620:62 0
113 *615:148 *620:40 0.00112675
*RES
1 *2400:X *620:4 9.3 
2 *620:4 *620:18 39.1964 
3 *620:18 *620:20 1.64286 
4 *620:20 *620:26 10.4464 
5 *620:26 *620:30 1.67857 
6 *620:30 *620:40 15.7669 
7 *620:40 *620:44 5.08036 
8 *620:44 *2148:B 9.3 
9 *620:44 *674:DIODE 9.83571 
10 *620:40 *620:62 19.1518 
11 *620:62 *620:66 10.0893 
12 *620:66 *620:70 6.26786 
13 *620:70 *2237:A 9.3 
14 *620:70 *686:DIODE 10.6571 
15 *620:66 *620:84 7.10714 
16 *620:84 *620:86 4.5 
17 *620:86 *2238:A 9.3 
18 *620:86 *687:DIODE 9.83571 
19 *620:84 *620:100 2.85714 
20 *620:100 *620:104 6.67857 
21 *620:104 *2239:A 9.3 
22 *620:104 *688:DIODE 10.6571 
23 *620:100 *620:122 16.1071 
24 *620:122 *2240:A 9.3 
25 *620:122 *689:DIODE 10.6571 
26 *620:62 *620:136 1.76786 
27 *620:136 *685:DIODE 9.3 
28 *620:136 *2236:A 12.2107 
29 *620:30 *2150:B 9.3 
30 *620:26 *676:DIODE 9.3 
31 *620:20 *2095:B1 16.4071 
32 *620:18 *670:DIODE 13.8 
33 *620:4 *620:180 0.535714 
34 *620:180 *620:188 14.1429 
35 *620:188 *2230:A 9.3 
36 *620:188 *620:199 10.4286 
37 *620:199 *2235:A 9.3 
38 *620:199 *684:DIODE 9.83571 
39 *620:180 *620:213 1.35714 
40 *620:213 *683:DIODE 11.8 
41 *620:213 *719:DIODE 9.3 
*END

*D_NET *621 0.0343387
*CONN
*I *721:DIODE I *D sky130_fd_sc_hd__diode_2
*I *2170:D1 I *D sky130_fd_sc_hd__a2111o_1
*I *2241:A I *D sky130_fd_sc_hd__inv_2
*I *690:DIODE I *D sky130_fd_sc_hd__diode_2
*I *669:DIODE I *D sky130_fd_sc_hd__diode_2
*I *2093:B1 I *D sky130_fd_sc_hd__a21o_1
*I *679:DIODE I *D sky130_fd_sc_hd__diode_2
*I *2146:B I *D sky130_fd_sc_hd__or2_1
*I *672:DIODE I *D sky130_fd_sc_hd__diode_2
*I *696:DIODE I *D sky130_fd_sc_hd__diode_2
*I *2251:A I *D sky130_fd_sc_hd__inv_2
*I *695:DIODE I *D sky130_fd_sc_hd__diode_2
*I *2249:A I *D sky130_fd_sc_hd__inv_2
*I *2248:A I *D sky130_fd_sc_hd__inv_2
*I *694:DIODE I *D sky130_fd_sc_hd__diode_2
*I *693:DIODE I *D sky130_fd_sc_hd__diode_2
*I *2245:A I *D sky130_fd_sc_hd__inv_2
*I *718:DIODE I *D sky130_fd_sc_hd__diode_2
*I *2400:A I *D sky130_fd_sc_hd__buf_4
*I *2401:X O *D sky130_fd_sc_hd__clkbuf_4
*CAP
1 *721:DIODE 0.000216243
2 *2170:D1 2.79649e-05
3 *2241:A 0.000131358
4 *690:DIODE 0
5 *669:DIODE 0
6 *2093:B1 0.000124845
7 *679:DIODE 4.70928e-05
8 *2146:B 0
9 *672:DIODE 9.85568e-05
10 *696:DIODE 5.05799e-05
11 *2251:A 0
12 *695:DIODE 0
13 *2249:A 7.01202e-05
14 *2248:A 7.87523e-05
15 *694:DIODE 0
16 *693:DIODE 0
17 *2245:A 5.28623e-05
18 *718:DIODE 0
19 *2400:A 5.69032e-05
20 *2401:X 0
21 *621:203 0.00196695
22 *621:197 0.00281607
23 *621:173 0.000352172
24 *621:167 0.00163047
25 *621:158 0.000859065
26 *621:138 9.85568e-05
27 *621:106 0.00125072
28 *621:82 0.000193407
29 *621:66 8.99586e-05
30 *621:64 0.000634331
31 *621:56 0.00174865
32 *621:54 0.000135363
33 *621:52 0.00117577
34 *621:46 0.00150706
35 *621:42 0.000983738
36 *621:36 0.00056592
37 *621:34 0.00185879
38 *621:21 0.001538
39 *621:10 0.000318118
40 *621:4 0.000422956
41 *679:DIODE *648:21 2.59355e-05
42 *721:DIODE *720:DIODE 8.76257e-05
43 *721:DIODE *622:121 0.000142856
44 *621:34 *1956:A 3.48235e-05
45 *621:34 *651:72 5.84267e-05
46 *621:34 *651:81 5.84075e-05
47 *621:36 *2169:B2 6.8646e-06
48 *621:36 *2171:A1 5.31541e-05
49 *621:36 *648:40 0
50 *621:42 *648:40 0
51 *621:167 *648:21 0.000119203
52 *621:173 *648:19 0.000462113
53 *683:DIODE *2400:A 3.48705e-05
54 *683:DIODE *621:21 2.58299e-05
55 *683:DIODE *621:34 5.52238e-05
56 *742:DIODE *2245:A 5.62995e-05
57 *742:DIODE *621:66 2.44318e-05
58 *1933:A *621:34 4.94362e-05
59 *1995:B *621:34 0
60 *2000:A2 *621:34 0.000257239
61 *2004:A *621:203 0
62 *2006:B *621:203 0
63 *2017:A *621:64 0
64 *2017:A *621:106 0.000310383
65 *2047:C *621:52 0
66 *2084:B *621:197 3.86013e-05
67 *2090:C_N *621:197 2.28598e-05
68 *2092:A2 *621:197 0.000297331
69 *2092:B1_N *621:197 9.90431e-05
70 *2093:A1 *621:173 3.92757e-05
71 *2093:A2 *2093:B1 5.71472e-05
72 *2093:A2 *621:197 0.000178847
73 *2118:A *621:106 0
74 *2118:B *621:106 0
75 *2120:B *621:52 0.000110564
76 *2123:A *621:52 0.000149911
77 *2126:A *621:52 0
78 *2127:B *621:52 0
79 *2146:A *672:DIODE 9.90367e-05
80 *2151:A *621:34 5.7616e-05
81 *2158:B1 *621:197 2.95726e-05
82 *2159:A1 *621:203 0.000218734
83 *2159:A2 *621:203 7.6644e-05
84 *2162:A_N *621:167 0.000446597
85 *2162:A_N *621:197 0.000266479
86 *2163:A2 *621:203 6.95392e-05
87 *2164:A1 *621:197 0.000523464
88 *2166:B *621:173 0
89 *2169:B1 *2170:D1 9.90367e-05
90 *2170:B1 *621:36 0.000267807
91 *2170:C1 *2170:D1 2.89016e-05
92 *2171:A2 *621:36 0.000148911
93 *2171:B1 *621:36 7.66952e-05
94 *2171:B1 *621:42 1.19402e-05
95 *2172:B1 *621:34 0.000146876
96 *2172:C1 *621:34 6.62299e-06
97 *2172:C1 *621:36 0.000234036
98 *2191:B1 *621:34 0.00069877
99 *2278:CLK *621:10 7.252e-05
100 *2280:CLK *621:203 0.000322453
101 *2281:CLK *621:203 0.000394712
102 *2291:RESET_B *621:64 0.000154762
103 *2294:D *621:52 0
104 *2294:D *621:54 0
105 *2294:D *621:56 0
106 *2294:D *621:64 0
107 *2294:RESET_B *621:56 9.40167e-05
108 *2294:RESET_B *621:64 9.25014e-06
109 *2323:CLK *621:106 0.000526407
110 *2323:D *621:106 0
111 *2334:D *672:DIODE 3.18676e-05
112 *2334:D *621:46 3.34672e-05
113 *2340:D *621:203 0
114 *2347:D *621:34 0.000153047
115 *2390:A *621:34 0
116 *2452:A *2245:A 3.99614e-06
117 *2495:A *621:10 2.79092e-05
118 *4:9 *2245:A 8.07313e-05
119 *169:12 *621:34 0.00164842
120 *170:48 *2093:B1 5.23057e-05
121 *170:48 *621:158 1.90936e-05
122 *170:70 *621:158 6.35864e-05
123 *272:10 *621:34 0.000125717
124 *272:12 *621:34 7.97314e-05
125 *272:16 *621:34 0.000108748
126 *272:16 *621:36 1.4811e-05
127 *276:12 *621:42 0
128 *276:12 *621:46 0
129 *278:10 *621:42 2.96241e-05
130 *281:35 *621:34 2.94103e-05
131 *286:12 *621:34 0
132 *291:99 *621:34 0
133 *316:28 *621:203 0
134 *316:34 *621:203 0
135 *364:12 *621:203 2.94103e-05
136 *367:36 *621:203 6.8646e-06
137 *430:10 *621:34 0
138 *465:135 *621:52 0
139 *468:12 *621:64 0
140 *468:14 *621:64 0
141 *468:20 *621:64 0
142 *468:138 *621:106 0.000354105
143 *469:10 *621:52 0.000148701
144 *469:14 *621:52 4.33438e-05
145 *469:47 *621:52 5.84171e-05
146 *469:58 *621:46 9.01334e-05
147 *469:58 *621:52 0.000113877
148 *469:76 *621:46 0.000208379
149 *469:93 *621:42 9.90367e-05
150 *469:93 *621:46 0.000132198
151 *469:93 *621:158 8.46829e-05
152 *473:38 *621:34 0
153 *473:44 *621:10 1.76135e-05
154 *473:48 *621:34 6.28241e-05
155 *473:123 *621:203 0.000117896
156 *509:26 *621:52 0
157 *509:36 *621:52 0.000128549
158 *512:12 *621:54 0
159 *512:12 *621:56 0
160 *512:38 *621:52 0
161 *513:43 *621:52 0.000117903
162 *514:10 *621:52 0
163 *514:18 *621:52 0
164 *560:100 *621:10 0
165 *582:12 *2245:A 0.000232399
166 *582:12 *2248:A 0.000188586
167 *582:12 *621:66 0.00014285
168 *582:12 *621:82 0.00036192
169 *603:16 *621:34 0
170 *609:31 *621:203 0
171 *609:53 *621:203 0
172 *620:66 *621:203 0
173 *620:84 *621:203 0
174 *620:100 *621:203 0
175 *620:188 *621:10 0
176 *620:213 *2400:A 5.71472e-05
*RES
1 *2401:X *621:4 9.3 
2 *621:4 *621:10 13.0714 
3 *621:10 *2400:A 10.6571 
4 *621:10 *621:21 1.26786 
5 *621:21 *718:DIODE 9.3 
6 *621:21 *621:34 43.0089 
7 *621:34 *621:36 10.2946 
8 *621:36 *621:42 7.08929 
9 *621:42 *621:46 14.9464 
10 *621:46 *621:52 22.0357 
11 *621:52 *621:54 1.03571 
12 *621:54 *621:56 1.94643 
13 *621:56 *621:64 12.875 
14 *621:64 *621:66 1.35714 
15 *621:66 *2245:A 11.9071 
16 *621:66 *693:DIODE 9.3 
17 *621:64 *621:82 3.41071 
18 *621:82 *694:DIODE 9.3 
19 *621:82 *2248:A 11.4964 
20 *621:56 *621:106 35.5536 
21 *621:106 *2249:A 10.5679 
22 *621:106 *695:DIODE 9.3 
23 *621:54 *2251:A 13.8 
24 *621:52 *696:DIODE 14.3357 
25 *621:46 *621:138 4.5 
26 *621:138 *672:DIODE 11.4786 
27 *621:138 *2146:B 9.3 
28 *621:42 *621:158 13.8571 
29 *621:158 *679:DIODE 9.83571 
30 *621:158 *621:167 6.28571 
31 *621:167 *621:173 14.8929 
32 *621:173 *2093:B1 11.925 
33 *621:173 *669:DIODE 9.3 
34 *621:167 *621:197 21.1964 
35 *621:197 *621:203 39.3036 
36 *621:203 *690:DIODE 9.3 
37 *621:203 *2241:A 11.6929 
38 *621:36 *2170:D1 14.7464 
39 *621:4 *721:DIODE 12.3 
*END

*D_NET *622 0.0319611
*CONN
*I *720:DIODE I *D sky130_fd_sc_hd__diode_2
*I *2401:A I *D sky130_fd_sc_hd__clkbuf_4
*I *717:DIODE I *D sky130_fd_sc_hd__diode_2
*I *722:DIODE I *D sky130_fd_sc_hd__diode_2
*I *2399:A I *D sky130_fd_sc_hd__buf_2
*I *2397:A I *D sky130_fd_sc_hd__clkbuf_4
*I *716:DIODE I *D sky130_fd_sc_hd__diode_2
*I *691:DIODE I *D sky130_fd_sc_hd__diode_2
*I *2242:A I *D sky130_fd_sc_hd__inv_2
*I *692:DIODE I *D sky130_fd_sc_hd__diode_2
*I *2244:A I *D sky130_fd_sc_hd__inv_2
*I *2402:X O *D sky130_fd_sc_hd__buf_2
*CAP
1 *720:DIODE 3.00064e-05
2 *2401:A 3.82418e-05
3 *717:DIODE 0
4 *722:DIODE 0
5 *2399:A 4.01402e-05
6 *2397:A 0
7 *716:DIODE 4.58829e-05
8 *691:DIODE 4.31754e-05
9 *2242:A 3.82418e-05
10 *692:DIODE 3.06683e-05
11 *2244:A 4.70992e-05
12 *2402:X 0
13 *622:121 0.00309135
14 *622:102 0.00307837
15 *622:95 0.000216392
16 *622:72 0.000227064
17 *622:54 8.14172e-05
18 *622:38 0.0010379
19 *622:32 0.00255199
20 *622:30 0.00324237
21 *622:14 0.00416005
22 *622:12 0.00245444
23 *622:8 0.000357262
24 *622:4 0.000352176
25 *716:DIODE *2225:A2 4.01768e-05
26 *622:72 *2225:A2 9.40041e-05
27 wb_dat_o[8] *622:121 2.65105e-05
28 *721:DIODE *720:DIODE 8.76257e-05
29 *721:DIODE *622:121 0.000142856
30 *738:DIODE *622:121 3.48705e-05
31 *740:DIODE *622:8 4.13595e-05
32 *1962:C *622:14 0
33 *1963:B *622:14 9.91086e-05
34 *2012:A *622:32 0
35 *2012:B *622:38 0
36 *2027:C *622:121 0.00018077
37 *2103:B *622:32 3.38136e-05
38 *2144:A *622:32 0.000351566
39 *2144:A *622:38 5.66157e-05
40 *2225:B1 *622:14 0
41 *2226:A2 *622:30 0.000493352
42 *2276:RESET_B *622:14 0
43 *2285:CLK *622:32 0
44 *2296:D *622:32 0
45 *2301:CLK *622:14 0.000162743
46 *2301:D *622:14 0.000207572
47 *2304:D *622:14 0
48 *2306:RESET_B *622:14 9.10431e-06
49 *2307:D *622:30 2.09846e-05
50 *2308:CLK *622:32 0.000146657
51 *2329:D *622:32 0
52 *2396:A *622:14 0
53 *2398:A *622:12 0
54 *2398:A *622:14 2.82227e-05
55 *2402:A *2399:A 8.08022e-05
56 *2402:A *622:12 7.6644e-05
57 *2464:A *622:121 2.89016e-05
58 *2465:A *2399:A 0
59 *2494:A *622:121 2.28598e-05
60 *2499:A *622:121 7.77751e-05
61 *131:11 *2399:A 0
62 *160:12 *622:14 6.74911e-05
63 *170:21 *622:30 0.000765221
64 *170:21 *622:32 0
65 *273:16 *622:14 0
66 *465:33 *622:32 0
67 *466:20 *622:32 0
68 *467:89 *622:14 0
69 *467:89 *622:30 0
70 *467:114 *622:14 0.000391561
71 *467:148 *622:30 7.32955e-05
72 *467:159 *622:30 2.14083e-05
73 *467:159 *622:32 6.58195e-05
74 *470:115 *622:14 1.57688e-05
75 *506:37 *622:32 0
76 *541:10 *622:121 0.000264489
77 *553:10 *622:12 5.71631e-05
78 *553:10 *622:14 0
79 *558:20 *622:121 0.000230014
80 *575:14 *622:38 0.00036192
81 *576:18 *691:DIODE 1.92905e-05
82 *576:18 *692:DIODE 1.72894e-05
83 *576:18 *2244:A 1.97695e-05
84 *576:18 *622:38 0.000515147
85 *606:17 *622:32 0.000374023
86 *606:19 *622:32 0.000329816
87 *606:23 *622:32 0.00125025
88 *615:49 *622:14 0
89 *615:60 *622:14 0
90 *615:102 *622:32 0
91 *616:12 *622:14 0.000363245
92 *616:18 *622:14 4.038e-06
93 *616:18 *622:30 0.000100152
94 *616:18 *622:72 9.90431e-05
95 *618:20 *622:14 0.0001354
96 *618:24 *622:14 0
97 *618:30 *622:14 0
98 *618:43 *622:14 0.000405772
99 *619:6 *622:8 9.90367e-05
100 *619:19 *622:8 8.66063e-05
101 *619:19 *622:95 0.000276211
102 *619:19 *622:102 0.000100262
103 *619:19 *622:121 0.000314639
104 *619:51 *622:121 0.00141285
105 *619:64 *622:121 1.49769e-05
*RES
1 *2402:X *622:4 9.3 
2 *622:4 *622:8 7.08929 
3 *622:8 *622:12 2.4375 
4 *622:12 *622:14 49.4554 
5 *622:14 *622:30 34.125 
6 *622:30 *622:32 36.5536 
7 *622:32 *622:38 18.5893 
8 *622:38 *2244:A 10.3357 
9 *622:38 *692:DIODE 9.83571 
10 *622:32 *622:54 4.5 
11 *622:54 *2242:A 10.0321 
12 *622:54 *691:DIODE 9.83571 
13 *622:14 *622:72 7.91071 
14 *622:72 *716:DIODE 10.2464 
15 *622:72 *2397:A 9.3 
16 *622:8 *2399:A 14.8357 
17 *622:4 *622:95 2.58929 
18 *622:95 *722:DIODE 9.3 
19 *622:95 *622:102 0.946429 
20 *622:102 *717:DIODE 9.3 
21 *622:102 *622:121 47.7857 
22 *622:121 *2401:A 10.0321 
23 *622:121 *720:DIODE 10.2464 
*END

*D_NET *623 0.00111476
*CONN
*I *2225:A2 I *D sky130_fd_sc_hd__o21a_1
*I *2458:X O *D sky130_fd_sc_hd__clkbuf_1
*CAP
1 *2225:A2 0.000440524
2 *2458:X 0.000440524
3 *2225:A2 *2225:A1 1.72894e-05
4 *716:DIODE *2225:A2 4.01768e-05
5 *748:DIODE *2225:A2 3.18676e-05
6 *616:18 *2225:A2 5.03772e-05
7 *622:72 *2225:A2 9.40041e-05
*RES
1 *2458:X *2225:A2 26.1179 
*END

*D_NET *624 0.000771564
*CONN
*I *1953:B1_N I *D sky130_fd_sc_hd__o21ba_1
*I *2403:X O *D sky130_fd_sc_hd__dlygate4sd3_1
*CAP
1 *1953:B1_N 0.00019081
2 *2403:X 0.00019081
3 *1953:B1_N *1953:A2 9.66977e-05
4 *2460:A *1953:B1_N 4.52108e-05
5 *273:28 *1953:B1_N 2.84109e-05
6 *291:29 *1953:B1_N 0.00012401
7 *618:91 *1953:B1_N 9.56151e-05
*RES
1 *2403:X *1953:B1_N 31.975 
*END

*D_NET *625 0.000306405
*CONN
*I *2313:D I *D sky130_fd_sc_hd__dfrtp_1
*I *2414:X O *D sky130_fd_sc_hd__dlygate4sd3_1
*CAP
1 *2313:D 0.00015044
2 *2414:X 0.00015044
3 *166:14 *2313:D 5.52579e-06
4 *615:60 *2313:D 0
*RES
1 *2414:X *2313:D 29.7786 
*END

*D_NET *626 0.00114716
*CONN
*I *1955:B1_N I *D sky130_fd_sc_hd__o21ba_1
*I *2425:X O *D sky130_fd_sc_hd__dlygate4sd3_1
*CAP
1 *1955:B1_N 0.000239432
2 *2425:X 0.000239432
3 *1955:B1_N *1955:A2 0.000219711
4 *1955:B1_N *635:40 2.28428e-05
5 *2264:A *1955:B1_N 3.97677e-05
6 *2427:A *1955:B1_N 0.000139913
7 *615:36 *1955:B1_N 0.000246064
*RES
1 *2425:X *1955:B1_N 33.85 
*END

*D_NET *627 0.000282462
*CONN
*I *2311:D I *D sky130_fd_sc_hd__dfrtp_1
*I *2427:X O *D sky130_fd_sc_hd__dlygate4sd3_1
*CAP
1 *2311:D 3.24888e-05
2 *2427:X 3.24888e-05
3 *2311:D *635:19 9.25014e-06
4 *2311:D *635:40 0.00010326
5 *615:36 *2311:D 0.000104974
*RES
1 *2427:X *2311:D 28.9393 
*END

*D_NET *628 0.00116044
*CONN
*I *1952:B1_N I *D sky130_fd_sc_hd__o21ba_1
*I *2428:X O *D sky130_fd_sc_hd__dlygate4sd3_1
*CAP
1 *1952:B1_N 0.000364488
2 *2428:X 0.000364488
3 *2429:A *1952:B1_N 0.000322453
4 *470:6 *1952:B1_N 9.99644e-06
5 *470:10 *1952:B1_N 2.72967e-05
6 *475:12 *1952:B1_N 7.17146e-05
7 *560:40 *1952:B1_N 0
8 *560:76 *1952:B1_N 0
*RES
1 *2428:X *1952:B1_N 35.4571 
*END

*D_NET *629 0.00022936
*CONN
*I *2314:D I *D sky130_fd_sc_hd__dfrtp_1
*I *2429:X O *D sky130_fd_sc_hd__dlygate4sd3_1
*CAP
1 *2314:D 6.31249e-05
2 *2429:X 6.31249e-05
3 *2461:A *2314:D 6.45537e-05
4 *291:29 *2314:D 3.85567e-05
*RES
1 *2429:X *2314:D 29.2429 
*END

*D_NET *630 0.000963576
*CONN
*I *1946:B1_N I *D sky130_fd_sc_hd__o21ba_1
*I *2430:X O *D sky130_fd_sc_hd__dlygate4sd3_1
*CAP
1 *1946:B1_N 0.000146439
2 *2430:X 0.000146439
3 *2431:A *1946:B1_N 5.20751e-05
4 *291:29 *1946:B1_N 0.000317609
5 *470:18 *1946:B1_N 0.000131647
6 *470:22 *1946:B1_N 9.06726e-05
7 *470:37 *1946:B1_N 7.86956e-05
*RES
1 *2430:X *1946:B1_N 33.0286 
*END

*D_NET *631 0.000816304
*CONN
*I *2363:D I *D sky130_fd_sc_hd__dfrtp_1
*I *2431:X O *D sky130_fd_sc_hd__dlygate4sd3_1
*CAP
1 *2363:D 0.000307271
2 *2431:X 0.000307271
3 *2461:A *2363:D 8.02791e-05
4 *291:29 *2363:D 4.82069e-05
5 *618:122 *2363:D 7.32756e-05
*RES
1 *2431:X *2363:D 32.5643 
*END

*D_NET *632 0.000661238
*CONN
*I *2024:A I *D sky130_fd_sc_hd__and3_1
*I *2432:X O *D sky130_fd_sc_hd__dlygate4sd3_1
*CAP
1 *2024:A 0.00015231
2 *2432:X 0.00015231
3 *2024:B *2024:A 5.02408e-05
4 *611:20 *2024:A 7.83587e-05
5 *611:26 *2024:A 0.000228018
*RES
1 *2432:X *2024:A 31.5286 
*END

*D_NET *633 0.000934241
*CONN
*I *1954:A2 I *D sky130_fd_sc_hd__o21ba_1
*I *2404:X O *D sky130_fd_sc_hd__dlygate4sd3_1
*CAP
1 *1954:A2 0.000292212
2 *2404:X 0.000292212
3 *1954:A2 *637:29 0.000320024
4 *2405:A *1954:A2 2.56601e-05
5 *475:12 *1954:A2 4.1331e-06
*RES
1 *2404:X *1954:A2 32.2429 
*END

*D_NET *634 0.0138997
*CONN
*I *1954:A1 I *D sky130_fd_sc_hd__o21ba_1
*I *1987:A1 I *D sky130_fd_sc_hd__a22o_1
*I *2152:A1 I *D sky130_fd_sc_hd__o31a_1
*I *2044:B I *D sky130_fd_sc_hd__nor2_2
*I *2058:B I *D sky130_fd_sc_hd__or3_1
*I *2225:A1 I *D sky130_fd_sc_hd__o21a_1
*I *2361:Q O *D sky130_fd_sc_hd__dfxtp_1
*CAP
1 *1954:A1 0.000902449
2 *1987:A1 0.000173468
3 *2152:A1 0
4 *2044:B 0
5 *2058:B 0.000466388
6 *2225:A1 0.000751001
7 *2361:Q 0
8 *634:78 0.00125697
9 *634:63 0.000742592
10 *634:48 0.000795077
11 *634:21 0.00209909
12 *634:4 0.00215016
13 *1954:A1 *1969:A1 2.9561e-05
14 *1954:A1 *1969:B2 0.000181192
15 *1954:A1 *2034:C 0.000146513
16 *2058:B *2058:A 0.000122439
17 *634:21 *640:25 4.35452e-05
18 *634:48 *2058:A 2.89016e-05
19 *634:48 *635:50 4.1331e-06
20 *634:63 *1972:B2 0
21 *634:63 *2058:A 4.06366e-05
22 *634:63 *635:50 0.00012401
23 *634:63 *650:58 0
24 *634:78 *1969:B2 0.000528677
25 *659:DIODE *1987:A1 0.000183875
26 *677:DIODE *634:78 5.43715e-05
27 *1960:B *634:21 2.59355e-05
28 *1960:C *634:21 0.000139907
29 *1960:D_N *634:21 0.000162703
30 *1969:A2 *1954:A1 5.33433e-05
31 *1969:B1 *1954:A1 2.89016e-05
32 *1984:A2 *1987:A1 1.02504e-05
33 *1985:A2 *634:63 0
34 *2035:C *1954:A1 3.80414e-05
35 *2057:B *634:21 7.26591e-05
36 *2066:A2 *2058:B 4.41569e-05
37 *2225:A2 *2225:A1 1.72894e-05
38 *2225:B1 *2225:A1 4.88637e-05
39 *2310:CLK *2058:B 0.000196427
40 *2310:CLK *634:21 5.52238e-05
41 *2310:D *2058:B 5.95099e-05
42 *2310:D *634:48 2.8266e-06
43 *2311:RESET_B *634:21 0.000121339
44 *2339:D *634:63 5.01213e-05
45 *2361:D *2225:A1 0.000214559
46 *2393:A *1954:A1 2.94103e-05
47 *2393:A *1987:A1 2.26327e-05
48 *59:21 *634:48 2.14658e-05
49 *59:21 *634:63 0.000139907
50 *290:12 *1954:A1 0
51 *290:12 *1987:A1 0
52 *290:12 *634:21 7.65689e-05
53 *292:59 *1987:A1 0.000239769
54 *334:10 *634:48 4.15714e-05
55 *334:68 *634:48 7.79781e-06
56 *334:68 *634:63 0
57 *335:16 *2058:B 3.90513e-05
58 *465:16 *634:21 0.00011307
59 *498:21 *2058:B 0
60 *556:8 *634:63 0.000105582
61 *556:48 *634:63 6.9253e-05
62 *563:14 *1954:A1 0.000116749
63 *613:23 *1987:A1 0.000148189
64 *613:47 *634:63 5.35423e-05
65 *613:57 *634:48 0
66 *613:57 *634:63 0.000342495
67 *615:36 *2225:A1 4.92372e-05
68 *615:36 *634:21 0.000116276
*RES
1 *2361:Q *634:4 9.3 
2 *634:4 *2225:A1 19.1929 
3 *634:4 *634:21 26.25 
4 *634:21 *2058:B 25.5143 
5 *634:21 *634:48 13.3571 
6 *634:48 *2044:B 9.3 
7 *634:48 *634:63 22.4464 
8 *634:63 *2152:A1 9.3 
9 *634:63 *634:78 9.94643 
10 *634:78 *1987:A1 18.7821 
11 *634:78 *1954:A1 30.175 
*END

*D_NET *635 0.00928747
*CONN
*I *1984:A1 I *D sky130_fd_sc_hd__a22o_1
*I *2044:A I *D sky130_fd_sc_hd__nor2_2
*I *2058:A I *D sky130_fd_sc_hd__or3_1
*I *1955:A1 I *D sky130_fd_sc_hd__o21ba_1
*I *2226:A1 I *D sky130_fd_sc_hd__o21a_1
*I *2362:Q O *D sky130_fd_sc_hd__dfxtp_1
*CAP
1 *1984:A1 0
2 *2044:A 0
3 *2058:A 0.00050001
4 *1955:A1 0.000241363
5 *2226:A1 6.51227e-05
6 *2362:Q 0.000303373
7 *635:50 0.000986748
8 *635:40 0.00143991
9 *635:19 0.00134699
10 *635:8 0.000520949
11 *1955:A1 *1955:A2 0.000258473
12 *1955:B1_N *635:40 2.28428e-05
13 *1984:A2 *635:40 9.28838e-05
14 *1984:A2 *635:50 2.78584e-05
15 *1984:B1 *635:40 3.82839e-05
16 *1984:B2 *635:40 5.52238e-05
17 *1988:A1 *635:40 0.000265447
18 *1988:A2 *635:40 0.000189266
19 *2058:B *2058:A 0.000122439
20 *2226:B1 *2226:A1 3.40128e-05
21 *2264:A *1955:A1 3.87887e-05
22 *2311:D *635:19 9.25014e-06
23 *2311:D *635:40 0.00010326
24 *2366:A *2058:A 3.97657e-05
25 *2414:A *635:40 0
26 *59:21 *2058:A 4.55324e-05
27 *166:14 *635:40 0.000444575
28 *291:29 *635:40 0
29 *291:33 *2226:A1 0.000251915
30 *291:33 *635:19 0.000372323
31 *291:33 *635:40 0.000485345
32 *334:8 *2058:A 9.90367e-05
33 *334:10 *2058:A 0
34 *334:68 *635:50 0
35 *335:16 *2058:A 0.000333381
36 *498:21 *2058:A 0
37 *613:57 *635:50 1.41029e-05
38 *615:10 *2226:A1 0.000103993
39 *615:10 *635:19 0.000135793
40 *615:36 *635:19 5.06787e-05
41 *615:36 *635:40 5.08481e-05
42 *634:48 *2058:A 2.89016e-05
43 *634:48 *635:50 4.1331e-06
44 *634:63 *2058:A 4.06366e-05
45 *634:63 *635:50 0.00012401
*RES
1 *2362:Q *635:8 17.2107 
2 *635:8 *2226:A1 16.9607 
3 *635:8 *635:19 4.98214 
4 *635:19 *1955:A1 17.6571 
5 *635:19 *635:40 28.6964 
6 *635:40 *635:50 16.8393 
7 *635:50 *2058:A 28.8714 
8 *635:50 *2044:A 9.3 
9 *635:40 *1984:A1 9.3 
*END

*D_NET *636 0.00307278
*CONN
*I *1978:A1 I *D sky130_fd_sc_hd__a22o_1
*I *2034:B I *D sky130_fd_sc_hd__or3_1
*I *1952:A1 I *D sky130_fd_sc_hd__o21ba_1
*I *2314:Q O *D sky130_fd_sc_hd__dfrtp_1
*CAP
1 *1978:A1 0.000355204
2 *2034:B 9.47202e-05
3 *1952:A1 5.21658e-05
4 *2314:Q 0.000137567
5 *636:23 0.000675608
6 *636:10 0.000415417
7 *2034:B *2034:A 0.000150618
8 *2034:B *638:8 3.34366e-05
9 *636:23 *638:8 9.30022e-05
10 *656:DIODE *1952:A1 5.71472e-05
11 *1978:A2 *1978:A1 9.90431e-05
12 *1979:A2 *1978:A1 0.000142856
13 *2267:A *636:10 9.25014e-06
14 *2267:A *636:23 0.000198698
15 *2314:RESET_B *636:10 0.000131659
16 *465:64 *2034:B 0
17 *465:64 *636:10 0
18 *465:64 *636:23 0
19 *475:12 *636:23 0
20 *556:48 *1978:A1 0.000368209
21 *560:36 *636:10 1.56e-05
22 *560:40 *636:10 3.97543e-05
23 *560:40 *636:23 2.8266e-06
*RES
1 *2314:Q *636:10 16.3893 
2 *636:10 *1952:A1 14.8714 
3 *636:10 *636:23 4.67857 
4 *636:23 *2034:B 16.05 
5 *636:23 *1978:A1 21.3179 
*END

*D_NET *637 0.00404817
*CONN
*I *1975:A1 I *D sky130_fd_sc_hd__a22o_1
*I *2035:A I *D sky130_fd_sc_hd__or3_1
*I *1953:A2 I *D sky130_fd_sc_hd__o21ba_1
*I *2313:Q O *D sky130_fd_sc_hd__dfrtp_1
*CAP
1 *1975:A1 8.81532e-05
2 *2035:A 2.23854e-05
3 *1953:A2 0.000542627
4 *2313:Q 0
5 *637:29 0.000706753
6 *637:4 0.00113884
7 *1953:B1_N *1953:A2 9.66977e-05
8 *1954:A2 *637:29 0.000320024
9 *1975:A2 *2035:A 0
10 *1976:A2 *1975:A1 0.000139907
11 *2265:A *1953:A2 5.33433e-05
12 *2265:A *637:29 6.19846e-05
13 *2276:D *1953:A2 3.98427e-05
14 *2312:D *637:29 0.000128146
15 *2312:RESET_B *637:29 0
16 *2339:CLK *1975:A1 3.80079e-05
17 *2339:CLK *637:29 1.21258e-05
18 *2405:A *637:29 1.99099e-05
19 *2460:A *1953:A2 9.66977e-05
20 *273:28 *637:29 0.000427653
21 *291:29 *1953:A2 5.42961e-05
22 *292:31 *1975:A1 2.89114e-05
23 *292:44 *1975:A1 3.18676e-05
24 *292:44 *2035:A 0
25 *615:60 *1953:A2 0
*RES
1 *2313:Q *637:4 9.3 
2 *637:4 *1953:A2 25.9429 
3 *637:4 *637:29 22.1429 
4 *637:29 *2035:A 9.72857 
5 *637:29 *1975:A1 11.4786 
*END

*D_NET *638 0.00526494
*CONN
*I *1981:A1 I *D sky130_fd_sc_hd__a22o_1
*I *1946:A1 I *D sky130_fd_sc_hd__o21ba_1
*I *2034:A I *D sky130_fd_sc_hd__or3_1
*I *2363:Q O *D sky130_fd_sc_hd__dfrtp_1
*CAP
1 *1981:A1 0.00122644
2 *1946:A1 0.000153261
3 *2034:A 0.000115496
4 *2363:Q 0
5 *638:8 0.000333567
6 *638:4 0.00129125
7 *1964:B *1981:A1 0.000226507
8 *1965:A *1981:A1 0
9 *1965:B *1981:A1 0.000193804
10 *1970:A1 *1981:A1 2.89114e-05
11 *1970:B1 *1981:A1 0.000139913
12 *1981:B1 *1981:A1 1.02504e-05
13 *1990:B2 *1981:A1 0.000242913
14 *2034:B *2034:A 0.000150618
15 *2034:B *638:8 3.34366e-05
16 *2269:D *1981:A1 4.4199e-05
17 *2363:RESET_B *1981:A1 9.60939e-05
18 *292:10 *1981:A1 0.000268403
19 *465:64 *2034:A 0
20 *475:12 *2034:A 0
21 *475:12 *638:8 0
22 *556:48 *1946:A1 0.00040381
23 *608:20 *1981:A1 0.00021306
24 *636:23 *638:8 9.30022e-05
*RES
1 *2363:Q *638:4 9.3 
2 *638:4 *638:8 6.14286 
3 *638:8 *2034:A 16.3536 
4 *638:8 *1946:A1 17.6214 
5 *638:4 *1981:A1 41.4429 
*END

*D_NET *639 0.00200219
*CONN
*I *1972:A1 I *D sky130_fd_sc_hd__a22o_1
*I *2034:C I *D sky130_fd_sc_hd__or3_1
*I *2404:A I *D sky130_fd_sc_hd__dlygate4sd3_1
*I *2312:Q O *D sky130_fd_sc_hd__dfrtp_1
*CAP
1 *1972:A1 0.000166906
2 *2034:C 0.000127484
3 *2404:A 0
4 *2312:Q 0
5 *639:10 0.000237931
6 *639:4 0.000277353
7 *1972:A1 *1972:B2 9.7049e-06
8 *1954:A1 *2034:C 0.000146513
9 *273:28 *1972:A1 0.00014183
10 *273:42 *1972:A1 4.43256e-05
11 *295:43 *1972:A1 5.7661e-06
12 *465:64 *2034:C 0.000160403
13 *465:64 *639:10 0.000149911
14 *555:20 *1972:A1 0.000134192
15 *555:20 *639:10 5.19842e-06
16 *563:14 *2034:C 0.000321451
17 *608:71 *2034:C 2.37761e-05
18 *608:71 *639:10 4.94455e-05
*RES
1 *2312:Q *639:4 9.3 
2 *639:4 *639:10 6.98214 
3 *639:10 *2404:A 13.8 
4 *639:10 *2034:C 18.6393 
5 *639:4 *1972:A1 13.8714 
*END

*D_NET *640 0.00495664
*CONN
*I *1969:A1 I *D sky130_fd_sc_hd__a22o_1
*I *2035:B I *D sky130_fd_sc_hd__or3_1
*I *1955:A2 I *D sky130_fd_sc_hd__o21ba_1
*I *2311:Q O *D sky130_fd_sc_hd__dfrtp_1
*CAP
1 *1969:A1 0.000194713
2 *2035:B 0
3 *1955:A2 0.000471976
4 *2311:Q 0
5 *640:25 0.0010086
6 *640:4 0.00128586
7 *1954:A1 *1969:A1 2.9561e-05
8 *1955:A1 *1955:A2 0.000258473
9 *1955:B1_N *1955:A2 0.000219711
10 *1969:A2 *1969:A1 9.90431e-05
11 *1972:A2 *1969:A1 4.07643e-05
12 *1972:A2 *640:25 7.40992e-05
13 *1973:A2 *1969:A1 6.34175e-05
14 *1973:A2 *640:25 7.83659e-05
15 *1988:B1 *640:25 0
16 *2035:C *1969:A1 0.000125724
17 *2264:A *1955:A2 0.000135893
18 *2264:A *640:25 3.17163e-05
19 *2311:RESET_B *640:25 9.90431e-05
20 *2395:A *1955:A2 0.000227526
21 *2427:A *1955:A2 9.77274e-05
22 *170:32 *1955:A2 5.52302e-05
23 *170:42 *1955:A2 1.21859e-05
24 *273:28 *640:25 1.18064e-05
25 *292:18 *1969:A1 0.000162832
26 *295:43 *640:25 0
27 *295:49 *640:25 0
28 *465:18 *1955:A2 5.33978e-05
29 *465:18 *640:25 0
30 *465:64 *640:25 0
31 *608:71 *640:25 7.54343e-05
32 *634:21 *640:25 4.35452e-05
*RES
1 *2311:Q *640:4 9.3 
2 *640:4 *1955:A2 29.2286 
3 *640:4 *640:25 18.9464 
4 *640:25 *2035:B 13.8 
5 *640:25 *1969:A1 19.0857 
*END

*D_NET *641 0.00552711
*CONN
*I *2155:A1 I *D sky130_fd_sc_hd__o31a_1
*I *2083:A I *D sky130_fd_sc_hd__or2_1
*I *2221:B1 I *D sky130_fd_sc_hd__o21ai_1
*I *2222:A1 I *D sky130_fd_sc_hd__o211a_1
*I *2220:A2 I *D sky130_fd_sc_hd__a21boi_1
*I *2359:Q O *D sky130_fd_sc_hd__dfxtp_1
*CAP
1 *2155:A1 0.000317033
2 *2083:A 0.000159691
3 *2221:B1 0
4 *2222:A1 1.11927e-05
5 *2220:A2 8.42695e-05
6 *2359:Q 0.000184328
7 *641:53 0.00119816
8 *641:16 0.000124729
9 *641:14 0.000585803
10 *641:6 0.0014623
11 *641:53 *642:8 0
12 *641:53 *642:42 0
13 *666:DIODE *2155:A1 0.00018077
14 *2078:B *2083:A 5.52238e-05
15 *2082:A *2155:A1 0.000129523
16 *2165:A3 *2155:A1 2.14757e-05
17 *2165:B1 *2155:A1 1.02504e-05
18 *2166:C *2155:A1 0
19 *2221:A1 *641:53 0
20 *2221:A2 *2222:A1 0
21 *2221:A2 *641:16 5.52238e-05
22 *2222:A2 *641:14 0
23 *2222:C1 *2220:A2 0.000187824
24 *2222:C1 *641:16 0.000104622
25 *2223:B *641:14 5.41794e-05
26 *2359:CLK *641:14 6.14193e-05
27 *2359:CLK *641:53 0
28 *2359:D *641:14 3.29354e-05
29 *2359:D *641:16 5.52238e-05
30 *2359:D *641:53 0
31 *355:10 *641:53 0
32 *355:21 *2155:A1 0
33 *355:21 *641:53 0
34 *364:12 *2083:A 0.000139087
35 *364:12 *2155:A1 7.25392e-05
36 *364:12 *641:53 2.94103e-05
37 *469:115 *2220:A2 0.000119539
38 *469:115 *641:16 7.32955e-05
39 *554:96 *2155:A1 1.70474e-05
*RES
1 *2359:Q *641:6 11.4786 
2 *641:6 *641:14 16.1071 
3 *641:14 *641:16 1.76786 
4 *641:16 *2220:A2 12.4786 
5 *641:16 *2222:A1 9.72857 
6 *641:14 *2221:B1 9.3 
7 *641:6 *641:53 17.125 
8 *641:53 *2083:A 16.8 
9 *641:53 *2155:A1 20.7107 
*END

*D_NET *642 0.00401243
*CONN
*I *2068:A I *D sky130_fd_sc_hd__nor2_1
*I *2069:A I *D sky130_fd_sc_hd__or2_1
*I *2223:A_N I *D sky130_fd_sc_hd__nand2b_1
*I *2220:A1 I *D sky130_fd_sc_hd__a21boi_1
*I *2360:Q O *D sky130_fd_sc_hd__dfxtp_1
*CAP
1 *2068:A 8.3255e-05
2 *2069:A 0
3 *2223:A_N 3.58421e-05
4 *2220:A1 0.000469324
5 *2360:Q 6.81135e-05
6 *642:42 0.000442513
7 *642:12 0.00101527
8 *642:8 0.000937476
9 *2069:B *2068:A 5.71472e-05
10 *2077:A *642:12 0.000341977
11 *2155:B1 *2068:A 5.30637e-06
12 *2221:A2 *2220:A1 0.000216121
13 *2222:B1 *2220:A1 3.43705e-05
14 *2222:C1 *2220:A1 5.80706e-06
15 *2223:B *2220:A1 1.25355e-05
16 *2360:D *2220:A1 7.83659e-05
17 *353:10 *642:42 0
18 *355:10 *642:42 2.51343e-06
19 *462:12 *2220:A1 0.000140933
20 *559:34 *2220:A1 4.11014e-05
21 *559:34 *2223:A_N 1.04232e-05
22 *559:34 *642:12 1.40306e-05
23 *601:36 *2220:A1 0
24 *641:53 *642:8 0
25 *641:53 *642:42 0
*RES
1 *2360:Q *642:8 14.8357 
2 *642:8 *642:12 11.6071 
3 *642:12 *2220:A1 25.6571 
4 *642:12 *2223:A_N 10.0321 
5 *642:8 *642:42 10.7321 
6 *642:42 *2069:A 9.3 
7 *642:42 *2068:A 11.0857 
*END

*D_NET *643 0.000359141
*CONN
*I *1938:A I *D sky130_fd_sc_hd__inv_2
*I *2334:Q O *D sky130_fd_sc_hd__dfxtp_1
*CAP
1 *1938:A 0.000138295
2 *2334:Q 0.000138295
3 *2315:D *1938:A 0
4 *170:48 *1938:A 8.25512e-05
5 *469:76 *1938:A 0
*RES
1 *2334:Q *1938:A 30.0821 
*END

*D_NET *644 0.000299363
*CONN
*I *1939:A I *D sky130_fd_sc_hd__inv_2
*I *2335:Q O *D sky130_fd_sc_hd__dfxtp_1
*CAP
1 *1939:A 0.000112158
2 *2335:Q 0.000112158
3 *1939:A *649:58 7.50473e-05
*RES
1 *2335:Q *1939:A 21.1 
*END

*D_NET *645 0.0038227
*CONN
*I *2168:A2 I *D sky130_fd_sc_hd__o22ai_1
*I *2167:B1 I *D sky130_fd_sc_hd__a2bb2o_1
*I *2336:Q O *D sky130_fd_sc_hd__dfxtp_1
*CAP
1 *2168:A2 0.000256094
2 *2167:B1 2.29535e-05
3 *2336:Q 0.000971199
4 *645:16 0.00125025
5 *2167:B1 *650:10 2.06112e-05
6 *2168:A2 *650:10 0.000160427
7 *2168:A2 *650:42 0.000116828
8 *2168:A2 *650:58 0.000103977
9 *645:16 *648:61 0
10 *2168:A1 *2168:A2 5.33005e-05
11 *170:70 *2167:B1 2.4088e-05
12 *170:70 *2168:A2 1.95625e-05
13 *286:46 *2167:B1 6.95627e-05
14 *286:46 *2168:A2 0.000313435
15 *414:10 *645:16 9.05964e-05
16 *613:87 *645:16 0.000349819
17 *615:156 *645:16 0
18 *620:40 *645:16 0
*RES
1 *2336:Q *645:16 29.2212 
2 *645:16 *2167:B1 14.6839 
3 *645:16 *2168:A2 20.6125 
*END

*D_NET *646 0.000169913
*CONN
*I *1940:A I *D sky130_fd_sc_hd__inv_2
*I *2337:Q O *D sky130_fd_sc_hd__dfxtp_1
*CAP
1 *1940:A 5.63828e-05
2 *2337:Q 5.63828e-05
3 *469:93 *1940:A 5.71472e-05
*RES
1 *2337:Q *1940:A 19.8679 
*END

*D_NET *647 0.000903538
*CONN
*I *2172:A2 I *D sky130_fd_sc_hd__a211o_1
*I *2168:B1 I *D sky130_fd_sc_hd__o22ai_1
*I *2338:Q O *D sky130_fd_sc_hd__dfxtp_1
*CAP
1 *2172:A2 0
2 *2168:B1 0.000135323
3 *2338:Q 8.99171e-05
4 *647:8 0.00022524
5 *2150:A *2168:B1 2.89016e-05
6 *2168:B2 *2168:B1 2.89114e-05
7 *2338:D *2168:B1 0
8 *272:12 *2168:B1 7.0048e-05
9 *272:16 *2168:B1 9.9407e-05
10 *273:42 *2168:B1 0.000122089
11 *273:42 *647:8 2.59355e-05
12 *472:55 *647:8 7.77652e-05
*RES
1 *2338:Q *647:8 11.3893 
2 *647:8 *2168:B1 21.4964 
3 *647:8 *2172:A2 9.3 
*END

*D_NET *648 0.0147742
*CONN
*I *2084:A I *D sky130_fd_sc_hd__nor2_1
*I *2169:A1 I *D sky130_fd_sc_hd__o22ai_1
*I *2001:A_N I *D sky130_fd_sc_hd__and3b_2
*I *1997:B I *D sky130_fd_sc_hd__and3b_1
*I *1947:B I *D sky130_fd_sc_hd__or2_1
*I *1969:B2 I *D sky130_fd_sc_hd__a22o_1
*I *2170:A1 I *D sky130_fd_sc_hd__a2111o_1
*I *2416:A I *D sky130_fd_sc_hd__dlygate4sd3_1
*I *2315:Q O *D sky130_fd_sc_hd__dfxtp_2
*CAP
1 *2084:A 2.16932e-05
2 *2169:A1 0
3 *2001:A_N 0.000202797
4 *1997:B 0
5 *1947:B 1.0284e-05
6 *1969:B2 0.00194241
7 *2170:A1 9.13066e-05
8 *2416:A 0.000126266
9 *2315:Q 0
10 *648:76 0.00061463
11 *648:61 0.000631426
12 *648:40 0.00259999
13 *648:27 0.000636313
14 *648:21 0.00039925
15 *648:19 0.000639542
16 *648:6 0.000441602
17 *1947:B *649:45 4.6025e-06
18 *2001:A_N *649:29 2.89016e-05
19 *2001:A_N *649:33 9.77274e-05
20 *648:40 *2169:B2 5.01117e-05
21 *648:40 *651:55 0.000150632
22 *648:76 *649:33 0.000152841
23 *677:DIODE *1969:B2 7.49387e-06
24 *679:DIODE *648:21 2.59355e-05
25 *1948:B *648:76 0.000181796
26 *1954:A1 *1969:B2 0.000181192
27 *1996:B *2001:A_N 0
28 *1999:A1 *1969:B2 0
29 *2152:A2 *1969:B2 4.43256e-05
30 *2152:A3 *1969:B2 8.43535e-06
31 *2152:B1 *1969:B2 0.000139907
32 *2162:A_N *2084:A 4.27935e-05
33 *2162:A_N *648:21 0.00049041
34 *2168:A1 *648:40 0.000325289
35 *2169:B1 *2170:A1 0.00010096
36 *2170:A2 *2170:A1 1.54142e-05
37 *2170:A2 *648:27 0.000109466
38 *2315:D *2416:A 0
39 *2315:D *648:19 0
40 *2316:CLK *1969:B2 0.000101545
41 *2335:CLK *1969:B2 2.04825e-05
42 *170:70 *648:40 0
43 *276:12 *648:21 5.52238e-05
44 *276:12 *648:27 1.69961e-05
45 *286:46 *648:40 0.000220223
46 *316:8 *2001:A_N 0
47 *334:68 *1969:B2 0.000374261
48 *335:14 *1947:B 1.01912e-05
49 *335:14 *648:76 3.84352e-05
50 *414:16 *648:21 5.33433e-05
51 *465:171 *1947:B 3.43988e-06
52 *465:171 *648:76 2.46196e-05
53 *472:61 *1969:B2 0.000267672
54 *601:36 *2416:A 9.81719e-05
55 *601:36 *648:19 0.000248626
56 *615:148 *1969:B2 0.000250195
57 *615:156 *2001:A_N 7.75022e-05
58 *620:26 *1969:B2 0
59 *620:40 *1969:B2 0.000811075
60 *620:40 *648:61 0.000476417
61 *621:36 *648:40 0
62 *621:42 *648:40 0
63 *621:167 *648:21 0.000119203
64 *621:173 *648:19 0.000462113
65 *634:78 *1969:B2 0.000528677
66 *645:16 *648:61 0
*RES
1 *2315:Q *648:6 13.8 
2 *648:6 *2416:A 16.9607 
3 *648:6 *648:19 13.4286 
4 *648:19 *648:21 7.92857 
5 *648:21 *648:27 2.21429 
6 *648:27 *2170:A1 10.6571 
7 *648:27 *648:40 18.2046 
8 *648:40 *1969:B2 43.7679 
9 *648:40 *648:61 4.17767 
10 *648:61 *1947:B 14.0768 
11 *648:61 *648:76 10.3304 
12 *648:76 *1997:B 9.3 
13 *648:76 *2001:A_N 21.5143 
14 *648:21 *2169:A1 9.3 
15 *648:19 *2084:A 9.83571 
*END

*D_NET *649 0.0132568
*CONN
*I *2001:C I *D sky130_fd_sc_hd__and3b_2
*I *1997:A_N I *D sky130_fd_sc_hd__and3b_1
*I *1947:A I *D sky130_fd_sc_hd__or2_1
*I *2171:A1 I *D sky130_fd_sc_hd__a221o_1
*I *2147:A I *D sky130_fd_sc_hd__and2_1
*I *1972:B2 I *D sky130_fd_sc_hd__a22o_1
*I *2167:A1_N I *D sky130_fd_sc_hd__a2bb2o_1
*I *2154:A I *D sky130_fd_sc_hd__and2_1
*I *2340:Q O *D sky130_fd_sc_hd__dfxtp_1
*CAP
1 *2001:C 0
2 *1997:A_N 0
3 *1947:A 0
4 *2171:A1 0.000120282
5 *2147:A 0
6 *1972:B2 0.00087805
7 *2167:A1_N 0
8 *2154:A 8.48689e-05
9 *2340:Q 8.56257e-05
10 *649:58 0.00190642
11 *649:54 0.00137614
12 *649:45 0.000620097
13 *649:33 0.000594446
14 *649:29 0.000360775
15 *649:23 0.00110731
16 *649:8 0.00111886
17 *1972:B2 *650:58 0.000576118
18 *649:33 *1996:A 9.41642e-05
19 *673:DIODE *1972:B2 5.52238e-05
20 *673:DIODE *649:58 2.77258e-05
21 *674:DIODE *649:23 5.71472e-05
22 *1939:A *649:58 7.50473e-05
23 *1947:B *649:45 4.6025e-06
24 *1948:B *649:33 9.80173e-05
25 *1972:A1 *1972:B2 9.7049e-06
26 *1987:B2 *1972:B2 2.14757e-05
27 *2001:A_N *649:29 2.89016e-05
28 *2001:A_N *649:33 9.77274e-05
29 *2001:B *649:29 0.000101997
30 *2001:B *649:33 0.000105163
31 *2154:B *2154:A 4.1331e-06
32 *2167:A2_N *649:45 3.46775e-05
33 *2167:A2_N *649:54 3.80414e-05
34 *2167:B2 *649:45 1.04232e-05
35 *2167:B2 *649:54 0
36 *2168:A1 *649:45 0.000119483
37 *2171:A2 *2171:A1 0.000125724
38 *2335:D *649:58 5.25887e-05
39 *2336:D *649:23 0.00044659
40 *170:70 *649:45 0
41 *271:16 *649:45 0.000192766
42 *273:42 *1972:B2 0.000696543
43 *277:6 *649:54 8.25843e-06
44 *277:6 *649:58 6.70515e-05
45 *286:46 *649:45 0.00024426
46 *295:43 *1972:B2 0.00011262
47 *315:6 *649:33 0.000102207
48 *316:28 *2154:A 0.000149911
49 *316:28 *649:23 0.000217478
50 *319:8 *649:23 5.33005e-05
51 *334:68 *1972:B2 0.000204011
52 *335:14 *649:45 0
53 *373:10 *2154:A 0
54 *373:10 *649:23 0
55 *465:129 *2171:A1 0
56 *465:171 *649:45 0.000361932
57 *555:20 *1972:B2 7.1271e-05
58 *613:27 *1972:B2 3.30237e-05
59 *613:47 *1972:B2 7.92879e-05
60 *615:128 *649:58 1.92789e-05
61 *621:36 *2171:A1 5.31541e-05
62 *634:63 *1972:B2 0
63 *648:76 *649:33 0.000152841
*RES
1 *2340:Q *649:8 14.7464 
2 *649:8 *2154:A 15.7464 
3 *649:8 *649:23 21.817 
4 *649:23 *649:29 3.07589 
5 *649:29 *649:33 6.19643 
6 *649:33 *649:45 20.1071 
7 *649:45 *2167:A1_N 9.3 
8 *649:45 *649:54 2.91071 
9 *649:54 *649:58 13.1786 
10 *649:58 *1972:B2 41.2107 
11 *649:58 *2147:A 9.3 
12 *649:54 *2171:A1 21.1571 
13 *649:33 *1947:A 9.3 
14 *649:29 *1997:A_N 9.3 
15 *649:23 *2001:C 9.3 
*END

*D_NET *650 0.00968256
*CONN
*I *1948:A I *D sky130_fd_sc_hd__nor2_1
*I *1975:B2 I *D sky130_fd_sc_hd__a22o_1
*I *1932:A I *D sky130_fd_sc_hd__inv_2
*I *1996:A I *D sky130_fd_sc_hd__nor2_1
*I *2341:Q O *D sky130_fd_sc_hd__dfxtp_1
*CAP
1 *1948:A 6.16072e-05
2 *1975:B2 0
3 *1932:A 2.38738e-05
4 *1996:A 9.94527e-05
5 *2341:Q 0.000105408
6 *650:58 0.00149168
7 *650:42 0.00159364
8 *650:18 0.000356891
9 *650:10 0.000379328
10 *1948:B *1948:A 5.04841e-06
11 *1972:B2 *650:58 0.000576118
12 *1985:A2 *650:58 0.000195555
13 *1987:B2 *650:58 0.000646263
14 *1990:A2 *650:58 0
15 *1990:B2 *650:58 0.000219711
16 *2150:A *650:58 0.000363837
17 *2167:B1 *650:10 2.06112e-05
18 *2168:A1 *650:58 5.33005e-05
19 *2168:A2 *650:10 0.000160427
20 *2168:A2 *650:42 0.000116828
21 *2168:A2 *650:58 0.000103977
22 *2168:B2 *650:58 0.000128496
23 *2333:CLK *650:58 0.000222666
24 *2333:D *650:58 1.76204e-05
25 *2339:CLK *650:58 0.000691785
26 *2341:CLK *1996:A 5.83304e-05
27 *170:70 *650:10 0.000168781
28 *170:70 *650:42 0.000125371
29 *271:16 *650:10 5.52238e-05
30 *273:42 *650:58 0.000298813
31 *292:44 *650:58 0.000211229
32 *292:59 *650:58 6.26276e-05
33 *335:14 *650:18 0.000181796
34 *465:171 *1996:A 0.000177948
35 *472:14 *1996:A 0.000117903
36 *472:39 *1932:A 1.24368e-05
37 *472:39 *650:18 0
38 *555:10 *650:58 1.02821e-05
39 *613:87 *1932:A 4.18895e-05
40 *613:87 *650:18 0.000243503
41 *620:26 *650:58 8.71761e-05
42 *620:30 *650:58 0.00010096
43 *634:63 *650:58 0
44 *649:33 *1996:A 9.41642e-05
*RES
1 *2341:Q *650:10 16.5857 
2 *650:10 *650:18 9.28571 
3 *650:18 *1996:A 21.4964 
4 *650:18 *1932:A 9.83571 
5 *650:10 *650:42 6.14286 
6 *650:42 *650:58 46.4643 
7 *650:58 *1975:B2 9.3 
8 *650:42 *1948:A 10.2643 
*END

*D_NET *651 0.0145162
*CONN
*I *1956:A I *D sky130_fd_sc_hd__or2_1
*I *1978:B2 I *D sky130_fd_sc_hd__a22o_1
*I *1950:A_N I *D sky130_fd_sc_hd__and3b_1
*I *1949:A I *D sky130_fd_sc_hd__and3_1
*I *2169:B2 I *D sky130_fd_sc_hd__o22ai_1
*I *2171:B2 I *D sky130_fd_sc_hd__a221o_1
*I *2149:A I *D sky130_fd_sc_hd__and2_1
*I *2342:Q O *D sky130_fd_sc_hd__dfxtp_1
*CAP
1 *1956:A 0.000100652
2 *1978:B2 0.000971376
3 *1950:A_N 0
4 *1949:A 3.88502e-05
5 *2169:B2 0.000122896
6 *2171:B2 5.51913e-05
7 *2149:A 0.000497733
8 *2342:Q 0.000288109
9 *651:81 0.00115908
10 *651:72 0.000267052
11 *651:55 0.00058146
12 *651:40 0.000768348
13 *651:27 0.000668673
14 *651:10 0.00111648
15 *1956:A *1950:B 2.61337e-05
16 *1956:A *1956:B 0.000140933
17 *1956:A *652:17 9.71197e-05
18 *651:81 *1950:B 5.33882e-05
19 *1933:A *1978:B2 0.000140933
20 *1950:C *651:72 1.76039e-05
21 *2000:A2 *1956:A 0.000315165
22 *2093:A1 *651:10 0.000110076
23 *2149:B *2149:A 7.84855e-05
24 *2151:A *651:72 1.02504e-05
25 *2151:A *651:81 4.56437e-05
26 *2168:A1 *651:55 0.000335038
27 *2170:A2 *2169:B2 0.00014183
28 *2170:B1 *2169:B2 3.69697e-05
29 *2170:B1 *651:55 6.37408e-06
30 *2170:C1 *2169:B2 8.66164e-05
31 *2171:A2 *651:40 6.25394e-06
32 *2171:B1 *651:27 0
33 *2171:C1 *651:27 0
34 *2172:C1 *651:40 5.52302e-05
35 *2172:C1 *651:55 0.000802292
36 *2316:CLK *1978:B2 5.52238e-05
37 *2316:D *1978:B2 1.64343e-05
38 *2337:D *2149:A 1.74352e-05
39 *273:42 *1949:A 2.89114e-05
40 *278:10 *651:27 0
41 *286:12 *651:55 2.50217e-05
42 *286:12 *651:72 7.80714e-06
43 *286:12 *651:81 0
44 *286:46 *651:55 0
45 *295:16 *1978:B2 0.000484257
46 *295:101 *1956:A 4.72917e-05
47 *295:101 *1978:B2 0.00272777
48 *465:129 *651:10 0.000224231
49 *465:129 *651:27 0.000228996
50 *465:171 *2171:B2 7.70134e-06
51 *465:171 *651:27 2.24828e-05
52 *465:171 *651:40 2.65014e-05
53 *469:93 *2149:A 0.000488486
54 *472:55 *1949:A 2.89114e-05
55 *556:48 *1978:B2 0.00057721
56 *621:34 *1956:A 3.48235e-05
57 *621:34 *651:72 5.84267e-05
58 *621:34 *651:81 5.84075e-05
59 *621:36 *2169:B2 6.8646e-06
60 *648:40 *2169:B2 5.01117e-05
61 *648:40 *651:55 0.000150632
*RES
1 *2342:Q *651:10 20.0679 
2 *651:10 *2149:A 21.2286 
3 *651:10 *651:27 10.1429 
4 *651:27 *2171:B2 10.4652 
5 *651:27 *651:40 7.91071 
6 *651:40 *2169:B2 16.925 
7 *651:40 *651:55 10.75 
8 *651:55 *1949:A 14.7643 
9 *651:55 *651:72 3.32143 
10 *651:72 *1950:A_N 13.8 
11 *651:72 *651:81 2.25 
12 *651:81 *1978:B2 45.0857 
13 *651:81 *1956:A 17.8357 
*END

*D_NET *652 0.00247122
*CONN
*I *2424:A I *D sky130_fd_sc_hd__dlygate4sd3_1
*I *1956:B I *D sky130_fd_sc_hd__or2_1
*I *1950:B I *D sky130_fd_sc_hd__and3b_1
*I *2409:A I *D sky130_fd_sc_hd__dlygate4sd3_1
*I *2316:Q O *D sky130_fd_sc_hd__dfxtp_1
*CAP
1 *2424:A 0.000104889
2 *1956:B 2.46096e-05
3 *1950:B 0.000140117
4 *2409:A 0
5 *2316:Q 6.61982e-05
6 *652:17 0.000307186
7 *652:10 0.000218173
8 *652:6 0.000246801
9 *1956:A *1950:B 2.61337e-05
10 *1956:A *1956:B 0.000140933
11 *1956:A *652:17 9.71197e-05
12 *2000:A2 *652:17 9.16074e-05
13 *2151:A *1950:B 0.00010096
14 *286:12 *1950:B 5.03694e-05
15 *295:101 *1956:B 0.000128496
16 *295:101 *652:6 3.48705e-05
17 *295:101 *652:10 0.000168179
18 *295:101 *652:17 0.00047119
19 *430:10 *2424:A 0
20 *620:18 *2424:A 0
21 *651:81 *1950:B 5.33882e-05
*RES
1 *2316:Q *652:6 10.2464 
2 *652:6 *652:10 2.08929 
3 *652:10 *2409:A 9.3 
4 *652:10 *652:17 4.64286 
5 *652:17 *1950:B 21.1929 
6 *652:17 *1956:B 10.6571 
7 *652:6 *2424:A 19.9429 
*END
