*SPEF "ieee 1481-1999"
*DESIGN "caravel_secure_boot"
*DATE "03:49:51 Friday February 20, 2026"
*VENDOR "The OpenROAD Project"
*PROGRAM "OpenROAD"
*VERSION "edf00dff99f6c40d67a30c0e22a8191c5d2ed9d6"
*DESIGN_FLOW "NAME_SCOPE LOCAL" "PIN_CAP NONE"
*DIVIDER /
*DELIMITER :
*BUS_DELIMITER []
*T_UNIT 1 NS
*C_UNIT 1 PF
*R_UNIT 1 OHM
*L_UNIT 1 HENRY

*NAME_MAP
*3 clk
*4 clock_glitch
*5 cold_reset_req
*6 debug_enable
*7 file_denied
*8 fsm_error
*9 fw_fail
*10 fw_ok
*11 global_pin_ok
*12 group_autolock
*13 group_error
*14 group_suspended
*15 group_unlocked
*16 hdr_parse_fail
*17 illegal_in
*18 power_glitch
*19 reset
*20 safe_led
*21 security_breach
*22 size_mismatch
*23 tamper_in
*24 unlock_enable
*25 unlock_req
*26 warm_reset_req
*27 _000_
*28 _001_
*29 _002_
*30 _003_
*31 _004_
*32 _005_
*33 _006_
*34 _007_
*35 _008_
*36 _009_
*37 _010_
*38 _011_
*39 _012_
*40 _013_
*41 _014_
*42 _015_
*43 _016_
*44 _017_
*45 _018_
*46 _019_
*47 _020_
*48 _021_
*49 _022_
*50 _023_
*51 _024_
*52 _025_
*53 _026_
*54 _027_
*55 _028_
*56 _029_
*57 _030_
*58 _031_
*59 _032_
*60 _033_
*61 _034_
*62 _035_
*63 _036_
*64 _037_
*65 _038_
*66 _039_
*67 _040_
*68 _041_
*69 _042_
*70 _043_
*71 _044_
*72 _045_
*73 _046_
*74 _047_
*75 _048_
*76 _049_
*77 _050_
*78 _051_
*79 _052_
*80 _053_
*81 _054_
*82 _055_
*83 _056_
*84 _057_
*85 _058_
*86 _059_
*87 _060_
*88 _061_
*89 _062_
*90 _063_
*91 _064_
*92 _065_
*93 _066_
*94 _067_
*95 _068_
*96 _069_
*97 _070_
*98 _071_
*99 _072_
*100 _073_
*101 _074_
*102 _075_
*103 _076_
*104 _077_
*105 _078_
*106 _079_
*107 _080_
*108 _081_
*109 _082_
*110 _083_
*111 _084_
*112 _085_
*113 _086_
*114 _087_
*115 _088_
*116 _089_
*117 _090_
*118 _091_
*119 _092_
*120 _093_
*121 _094_
*122 _095_
*123 _096_
*124 _097_
*125 _098_
*126 _099_
*127 _100_
*128 _101_
*129 _102_
*130 _103_
*131 _104_
*132 _105_
*133 _106_
*134 _107_
*135 _108_
*136 _109_
*137 _110_
*138 _111_
*139 _112_
*140 _113_
*141 _114_
*142 _115_
*143 _116_
*144 _117_
*145 _118_
*146 _119_
*147 _120_
*148 _121_
*149 _122_
*150 _123_
*151 _124_
*152 _125_
*153 _126_
*154 _127_
*155 _128_
*156 _129_
*157 _130_
*158 _131_
*159 _132_
*160 _133_
*161 _134_
*162 _135_
*163 _136_
*164 _137_
*165 _138_
*166 _139_
*167 _140_
*168 _141_
*169 _142_
*170 _143_
*171 _144_
*172 _145_
*173 _146_
*174 _147_
*175 _148_
*176 _149_
*177 _150_
*178 _151_
*179 _152_
*180 _153_
*181 _154_
*182 _155_
*183 _156_
*184 _157_
*185 _158_
*186 _159_
*187 _160_
*188 _161_
*189 _162_
*190 _163_
*191 _164_
*192 _165_
*193 _166_
*194 _167_
*195 _168_
*196 _169_
*197 _170_
*198 _171_
*199 _172_
*200 _173_
*201 _174_
*202 _175_
*203 _176_
*204 _177_
*205 _178_
*206 _179_
*207 _180_
*208 _181_
*209 _182_
*210 _183_
*211 _184_
*212 _185_
*213 _186_
*214 _187_
*215 _188_
*216 _189_
*217 _190_
*218 _191_
*219 _192_
*220 _193_
*221 _194_
*222 _195_
*223 _196_
*224 _197_
*225 _198_
*226 _199_
*227 _200_
*228 _201_
*229 _202_
*230 _203_
*231 _204_
*232 _205_
*233 _206_
*234 _207_
*235 _208_
*236 _209_
*237 _210_
*238 _211_
*239 _212_
*240 _213_
*241 _214_
*242 _215_
*243 clknet_0_clk
*244 clknet_2_0__leaf_clk
*245 clknet_2_1__leaf_clk
*246 clknet_2_2__leaf_clk
*247 clknet_2_3__leaf_clk
*248 net1
*249 net10
*250 net11
*251 net12
*252 net13
*253 net14
*254 net15
*255 net16
*256 net17
*257 net18
*258 net19
*259 net2
*260 net20
*261 net21
*262 net22
*263 net23
*264 net24
*265 net25
*266 net26
*267 net27
*268 net28
*269 net29
*270 net3
*271 net30
*272 net31
*273 net32
*274 net33
*275 net34
*276 net35
*277 net36
*278 net37
*279 net38
*280 net39
*281 net4
*282 net40
*283 net41
*284 net42
*285 net43
*286 net44
*287 net5
*288 net6
*289 net7
*290 net8
*291 net9
*292 u_system\.global_timeout_count\[0\]
*293 u_system\.global_timeout_count\[10\]
*294 u_system\.global_timeout_count\[11\]
*295 u_system\.global_timeout_count\[12\]
*296 u_system\.global_timeout_count\[13\]
*297 u_system\.global_timeout_count\[14\]
*298 u_system\.global_timeout_count\[15\]
*299 u_system\.global_timeout_count\[1\]
*300 u_system\.global_timeout_count\[2\]
*301 u_system\.global_timeout_count\[3\]
*302 u_system\.global_timeout_count\[4\]
*303 u_system\.global_timeout_count\[5\]
*304 u_system\.global_timeout_count\[6\]
*305 u_system\.global_timeout_count\[7\]
*306 u_system\.global_timeout_count\[8\]
*307 u_system\.global_timeout_count\[9\]
*308 u_system\.group_state_bits\[0\]
*309 u_system\.group_state_bits\[1\]
*310 u_system\.group_state_bits\[2\]
*311 u_system\.group_state_bits\[3\]
*312 u_system\.group_timeout_count\[0\]
*313 u_system\.group_timeout_count\[10\]
*314 u_system\.group_timeout_count\[11\]
*315 u_system\.group_timeout_count\[12\]
*316 u_system\.group_timeout_count\[13\]
*317 u_system\.group_timeout_count\[14\]
*318 u_system\.group_timeout_count\[15\]
*319 u_system\.group_timeout_count\[1\]
*320 u_system\.group_timeout_count\[2\]
*321 u_system\.group_timeout_count\[3\]
*322 u_system\.group_timeout_count\[4\]
*323 u_system\.group_timeout_count\[5\]
*324 u_system\.group_timeout_count\[6\]
*325 u_system\.group_timeout_count\[7\]
*326 u_system\.group_timeout_count\[8\]
*327 u_system\.group_timeout_count\[9\]
*328 u_system\.sticky_illegal
*329 u_system\.sticky_tamper
*330 u_system\.u_global\.denial_counter\[0\]
*331 u_system\.u_global\.denial_counter\[1\]
*332 u_system\.u_global\.prev_state\[0\]
*333 u_system\.u_global\.prev_state\[1\]
*334 u_system\.u_global\.prev_state\[2\]
*335 u_system\.u_global\.prev_state\[3\]
*336 u_system\.u_global\.prev_state\[4\]
*337 u_system\.u_global\.state\[0\]
*338 u_system\.u_global\.state\[1\]
*339 u_system\.u_global\.state\[2\]
*340 u_system\.u_global\.state\[3\]
*341 u_system\.u_global\.state\[4\]
*342 FILLER_0_100
*343 FILLER_0_104
*344 FILLER_0_111
*345 FILLER_0_113
*346 FILLER_0_125
*347 FILLER_0_137
*348 FILLER_0_139
*349 FILLER_0_141
*350 FILLER_0_15
*351 FILLER_0_154
*352 FILLER_0_166
*353 FILLER_0_169
*354 FILLER_0_181
*355 FILLER_0_183
*356 FILLER_0_27
*357 FILLER_0_29
*358 FILLER_0_3
*359 FILLER_0_33
*360 FILLER_0_41
*361 FILLER_0_53
*362 FILLER_0_55
*363 FILLER_0_57
*364 FILLER_0_69
*365 FILLER_0_81
*366 FILLER_0_83
*367 FILLER_0_85
*368 FILLER_0_93
*369 FILLER_0_98
*370 FILLER_10_101
*371 FILLER_10_108
*372 FILLER_10_110
*373 FILLER_10_119
*374 FILLER_10_131
*375 FILLER_10_138
*376 FILLER_10_148
*377 FILLER_10_15
*378 FILLER_10_27
*379 FILLER_10_29
*380 FILLER_10_3
*381 FILLER_10_46
*382 FILLER_10_58
*383 FILLER_10_70
*384 FILLER_10_72
*385 FILLER_10_81
*386 FILLER_10_83
*387 FILLER_10_85
*388 FILLER_10_97
*389 FILLER_11_111
*390 FILLER_11_117
*391 FILLER_11_134
*392 FILLER_11_138
*393 FILLER_11_15
*394 FILLER_11_156
*395 FILLER_11_169
*396 FILLER_11_177
*397 FILLER_11_179
*398 FILLER_11_27
*399 FILLER_11_3
*400 FILLER_11_39
*401 FILLER_11_51
*402 FILLER_11_55
*403 FILLER_11_57
*404 FILLER_11_69
*405 FILLER_11_81
*406 FILLER_11_98
*407 FILLER_12_101
*408 FILLER_12_116
*409 FILLER_12_128
*410 FILLER_12_141
*411 FILLER_12_153
*412 FILLER_12_165
*413 FILLER_12_173
*414 FILLER_12_22
*415 FILLER_12_26
*416 FILLER_12_29
*417 FILLER_12_3
*418 FILLER_12_44
*419 FILLER_12_46
*420 FILLER_12_5
*421 FILLER_12_63
*422 FILLER_12_75
*423 FILLER_12_83
*424 FILLER_12_85
*425 FILLER_12_97
*426 FILLER_13_101
*427 FILLER_13_108
*428 FILLER_13_113
*429 FILLER_13_125
*430 FILLER_13_137
*431 FILLER_13_141
*432 FILLER_13_143
*433 FILLER_13_148
*434 FILLER_13_166
*435 FILLER_13_169
*436 FILLER_13_18
*437 FILLER_13_54
*438 FILLER_13_57
*439 FILLER_13_59
*440 FILLER_13_6
*441 FILLER_13_63
*442 FILLER_13_71
*443 FILLER_13_77
*444 FILLER_13_89
*445 FILLER_14_107
*446 FILLER_14_109
*447 FILLER_14_119
*448 FILLER_14_123
*449 FILLER_14_125
*450 FILLER_14_133
*451 FILLER_14_137
*452 FILLER_14_139
*453 FILLER_14_141
*454 FILLER_14_153
*455 FILLER_14_161
*456 FILLER_14_21
*457 FILLER_14_25
*458 FILLER_14_27
*459 FILLER_14_29
*460 FILLER_14_3
*461 FILLER_14_40
*462 FILLER_14_52
*463 FILLER_14_85
*464 FILLER_14_93
*465 FILLER_15_110
*466 FILLER_15_113
*467 FILLER_15_119
*468 FILLER_15_123
*469 FILLER_15_137
*470 FILLER_15_147
*471 FILLER_15_159
*472 FILLER_15_161
*473 FILLER_15_165
*474 FILLER_15_167
*475 FILLER_15_169
*476 FILLER_15_177
*477 FILLER_15_179
*478 FILLER_15_18
*479 FILLER_15_30
*480 FILLER_15_42
*481 FILLER_15_54
*482 FILLER_15_57
*483 FILLER_15_6
*484 FILLER_15_69
*485 FILLER_15_81
*486 FILLER_15_85
*487 FILLER_15_98
*488 FILLER_16_120
*489 FILLER_16_128
*490 FILLER_16_158
*491 FILLER_16_166
*492 FILLER_16_168
*493 FILLER_16_20
*494 FILLER_16_36
*495 FILLER_16_48
*496 FILLER_16_56
*497 FILLER_16_65
*498 FILLER_16_72
*499 FILLER_16_85
*500 FILLER_16_9
*501 FILLER_17_101
*502 FILLER_17_109
*503 FILLER_17_111
*504 FILLER_17_113
*505 FILLER_17_127
*506 FILLER_17_139
*507 FILLER_17_151
*508 FILLER_17_169
*509 FILLER_17_179
*510 FILLER_17_26
*511 FILLER_17_3
*512 FILLER_17_47
*513 FILLER_17_52
*514 FILLER_17_89
*515 FILLER_18_102
*516 FILLER_18_107
*517 FILLER_18_111
*518 FILLER_18_127
*519 FILLER_18_131
*520 FILLER_18_133
*521 FILLER_18_141
*522 FILLER_18_15
*523 FILLER_18_150
*524 FILLER_18_162
*525 FILLER_18_166
*526 FILLER_18_27
*527 FILLER_18_29
*528 FILLER_18_3
*529 FILLER_18_41
*530 FILLER_18_45
*531 FILLER_18_50
*532 FILLER_18_62
*533 FILLER_18_75
*534 FILLER_18_83
*535 FILLER_18_98
*536 FILLER_19_106
*537 FILLER_19_110
*538 FILLER_19_113
*539 FILLER_19_117
*540 FILLER_19_129
*541 FILLER_19_141
*542 FILLER_19_153
*543 FILLER_19_165
*544 FILLER_19_167
*545 FILLER_19_169
*546 FILLER_19_18
*547 FILLER_19_30
*548 FILLER_19_34
*549 FILLER_19_36
*550 FILLER_19_40
*551 FILLER_19_52
*552 FILLER_19_57
*553 FILLER_19_6
*554 FILLER_19_69
*555 FILLER_19_81
*556 FILLER_19_93
*557 FILLER_1_109
*558 FILLER_1_111
*559 FILLER_1_113
*560 FILLER_1_135
*561 FILLER_1_15
*562 FILLER_1_164
*563 FILLER_1_179
*564 FILLER_1_183
*565 FILLER_1_23
*566 FILLER_1_3
*567 FILLER_1_31
*568 FILLER_1_33
*569 FILLER_1_50
*570 FILLER_1_54
*571 FILLER_1_62
*572 FILLER_1_66
*573 FILLER_1_68
*574 FILLER_1_90
*575 FILLER_1_92
*576 FILLER_20_102
*577 FILLER_20_110
*578 FILLER_20_122
*579 FILLER_20_13
*580 FILLER_20_133
*581 FILLER_20_137
*582 FILLER_20_139
*583 FILLER_20_141
*584 FILLER_20_153
*585 FILLER_20_157
*586 FILLER_20_159
*587 FILLER_20_168
*588 FILLER_20_176
*589 FILLER_20_21
*590 FILLER_20_25
*591 FILLER_20_27
*592 FILLER_20_29
*593 FILLER_20_3
*594 FILLER_20_33
*595 FILLER_20_39
*596 FILLER_20_51
*597 FILLER_20_59
*598 FILLER_20_67
*599 FILLER_20_7
*600 FILLER_20_85
*601 FILLER_20_9
*602 FILLER_20_94
*603 FILLER_21_101
*604 FILLER_21_105
*605 FILLER_21_107
*606 FILLER_21_116
*607 FILLER_21_124
*608 FILLER_21_131
*609 FILLER_21_169
*610 FILLER_21_178
*611 FILLER_21_25
*612 FILLER_21_27
*613 FILLER_21_51
*614 FILLER_21_55
*615 FILLER_21_57
*616 FILLER_21_59
*617 FILLER_21_63
*618 FILLER_21_93
*619 FILLER_22_139
*620 FILLER_22_156
*621 FILLER_22_19
*622 FILLER_22_27
*623 FILLER_22_29
*624 FILLER_22_3
*625 FILLER_22_41
*626 FILLER_22_53
*627 FILLER_22_57
*628 FILLER_22_63
*629 FILLER_22_85
*630 FILLER_22_89
*631 FILLER_22_91
*632 FILLER_23_106
*633 FILLER_23_11
*634 FILLER_23_110
*635 FILLER_23_113
*636 FILLER_23_125
*637 FILLER_23_13
*638 FILLER_23_137
*639 FILLER_23_149
*640 FILLER_23_161
*641 FILLER_23_169
*642 FILLER_23_173
*643 FILLER_23_175
*644 FILLER_23_21
*645 FILLER_23_3
*646 FILLER_23_33
*647 FILLER_23_45
*648 FILLER_23_53
*649 FILLER_23_55
*650 FILLER_23_57
*651 FILLER_23_70
*652 FILLER_23_82
*653 FILLER_23_94
*654 FILLER_24_101
*655 FILLER_24_119
*656 FILLER_24_123
*657 FILLER_24_13
*658 FILLER_24_134
*659 FILLER_24_136
*660 FILLER_24_141
*661 FILLER_24_152
*662 FILLER_24_156
*663 FILLER_24_174
*664 FILLER_24_27
*665 FILLER_24_29
*666 FILLER_24_3
*667 FILLER_24_44
*668 FILLER_24_46
*669 FILLER_24_53
*670 FILLER_24_57
*671 FILLER_24_65
*672 FILLER_24_7
*673 FILLER_24_74
*674 FILLER_24_78
*675 FILLER_24_83
*676 FILLER_24_85
*677 FILLER_24_97
*678 FILLER_25_109
*679 FILLER_25_111
*680 FILLER_25_113
*681 FILLER_25_125
*682 FILLER_25_127
*683 FILLER_25_153
*684 FILLER_25_159
*685 FILLER_25_167
*686 FILLER_25_169
*687 FILLER_25_175
*688 FILLER_25_180
*689 FILLER_25_19
*690 FILLER_25_21
*691 FILLER_25_38
*692 FILLER_25_55
*693 FILLER_25_62
*694 FILLER_25_70
*695 FILLER_25_72
*696 FILLER_26_109
*697 FILLER_26_113
*698 FILLER_26_118
*699 FILLER_26_130
*700 FILLER_26_138
*701 FILLER_26_141
*702 FILLER_26_15
*703 FILLER_26_153
*704 FILLER_26_165
*705 FILLER_26_167
*706 FILLER_26_27
*707 FILLER_26_29
*708 FILLER_26_3
*709 FILLER_26_41
*710 FILLER_26_53
*711 FILLER_26_65
*712 FILLER_26_72
*713 FILLER_26_76
*714 FILLER_26_81
*715 FILLER_26_83
*716 FILLER_26_85
*717 FILLER_26_97
*718 FILLER_27_105
*719 FILLER_27_109
*720 FILLER_27_111
*721 FILLER_27_113
*722 FILLER_27_121
*723 FILLER_27_127
*724 FILLER_27_136
*725 FILLER_27_148
*726 FILLER_27_15
*727 FILLER_27_160
*728 FILLER_27_169
*729 FILLER_27_181
*730 FILLER_27_183
*731 FILLER_27_27
*732 FILLER_27_3
*733 FILLER_27_39
*734 FILLER_27_51
*735 FILLER_27_55
*736 FILLER_27_57
*737 FILLER_27_69
*738 FILLER_27_81
*739 FILLER_27_93
*740 FILLER_28_115
*741 FILLER_28_15
*742 FILLER_28_158
*743 FILLER_28_175
*744 FILLER_28_180
*745 FILLER_28_27
*746 FILLER_28_29
*747 FILLER_28_3
*748 FILLER_28_37
*749 FILLER_28_41
*750 FILLER_28_51
*751 FILLER_28_55
*752 FILLER_28_64
*753 FILLER_28_71
*754 FILLER_28_81
*755 FILLER_28_83
*756 FILLER_28_89
*757 FILLER_29_102
*758 FILLER_29_110
*759 FILLER_29_129
*760 FILLER_29_141
*761 FILLER_29_145
*762 FILLER_29_15
*763 FILLER_29_163
*764 FILLER_29_167
*765 FILLER_29_169
*766 FILLER_29_181
*767 FILLER_29_183
*768 FILLER_29_27
*769 FILLER_29_29
*770 FILLER_29_3
*771 FILLER_29_46
*772 FILLER_29_54
*773 FILLER_29_73
*774 FILLER_2_106
*775 FILLER_2_114
*776 FILLER_2_118
*777 FILLER_2_122
*778 FILLER_2_124
*779 FILLER_2_139
*780 FILLER_2_146
*781 FILLER_2_148
*782 FILLER_2_152
*783 FILLER_2_160
*784 FILLER_2_27
*785 FILLER_2_29
*786 FILLER_2_3
*787 FILLER_2_33
*788 FILLER_2_44
*789 FILLER_2_69
*790 FILLER_2_71
*791 FILLER_2_83
*792 FILLER_30_109
*793 FILLER_30_111
*794 FILLER_30_113
*795 FILLER_30_121
*796 FILLER_30_125
*797 FILLER_30_137
*798 FILLER_30_139
*799 FILLER_30_141
*800 FILLER_30_15
*801 FILLER_30_153
*802 FILLER_30_165
*803 FILLER_30_167
*804 FILLER_30_169
*805 FILLER_30_181
*806 FILLER_30_183
*807 FILLER_30_27
*808 FILLER_30_29
*809 FILLER_30_3
*810 FILLER_30_41
*811 FILLER_30_53
*812 FILLER_30_55
*813 FILLER_30_65
*814 FILLER_30_77
*815 FILLER_30_79
*816 FILLER_30_83
*817 FILLER_30_85
*818 FILLER_30_97
*819 FILLER_3_101
*820 FILLER_3_113
*821 FILLER_3_121
*822 FILLER_3_133
*823 FILLER_3_145
*824 FILLER_3_15
*825 FILLER_3_157
*826 FILLER_3_165
*827 FILLER_3_167
*828 FILLER_3_174
*829 FILLER_3_182
*830 FILLER_3_3
*831 FILLER_3_32
*832 FILLER_3_44
*833 FILLER_3_60
*834 FILLER_3_72
*835 FILLER_3_76
*836 FILLER_3_89
*837 FILLER_4_101
*838 FILLER_4_109
*839 FILLER_4_131
*840 FILLER_4_139
*841 FILLER_4_141
*842 FILLER_4_15
*843 FILLER_4_153
*844 FILLER_4_165
*845 FILLER_4_177
*846 FILLER_4_181
*847 FILLER_4_183
*848 FILLER_4_19
*849 FILLER_4_27
*850 FILLER_4_29
*851 FILLER_4_3
*852 FILLER_4_38
*853 FILLER_4_50
*854 FILLER_4_62
*855 FILLER_4_64
*856 FILLER_4_72
*857 FILLER_4_85
*858 FILLER_4_93
*859 FILLER_4_95
*860 FILLER_5_100
*861 FILLER_5_113
*862 FILLER_5_125
*863 FILLER_5_156
*864 FILLER_5_165
*865 FILLER_5_167
*866 FILLER_5_172
*867 FILLER_5_21
*868 FILLER_5_3
*869 FILLER_5_35
*870 FILLER_5_39
*871 FILLER_5_57
*872 FILLER_5_61
*873 FILLER_5_79
*874 FILLER_5_91
*875 FILLER_6_105
*876 FILLER_6_117
*877 FILLER_6_125
*878 FILLER_6_137
*879 FILLER_6_139
*880 FILLER_6_141
*881 FILLER_6_15
*882 FILLER_6_153
*883 FILLER_6_157
*884 FILLER_6_27
*885 FILLER_6_3
*886 FILLER_6_52
*887 FILLER_6_64
*888 FILLER_6_81
*889 FILLER_6_83
*890 FILLER_6_85
*891 FILLER_6_87
*892 FILLER_7_107
*893 FILLER_7_111
*894 FILLER_7_119
*895 FILLER_7_138
*896 FILLER_7_144
*897 FILLER_7_15
*898 FILLER_7_156
*899 FILLER_7_160
*900 FILLER_7_169
*901 FILLER_7_175
*902 FILLER_7_183
*903 FILLER_7_27
*904 FILLER_7_3
*905 FILLER_7_39
*906 FILLER_7_47
*907 FILLER_7_57
*908 FILLER_7_69
*909 FILLER_7_81
*910 FILLER_7_89
*911 FILLER_7_91
*912 FILLER_8_105
*913 FILLER_8_107
*914 FILLER_8_111
*915 FILLER_8_137
*916 FILLER_8_139
*917 FILLER_8_15
*918 FILLER_8_150
*919 FILLER_8_156
*920 FILLER_8_168
*921 FILLER_8_180
*922 FILLER_8_22
*923 FILLER_8_26
*924 FILLER_8_29
*925 FILLER_8_3
*926 FILLER_8_41
*927 FILLER_8_49
*928 FILLER_8_73
*929 FILLER_8_79
*930 FILLER_8_83
*931 FILLER_8_85
*932 FILLER_8_97
*933 FILLER_9_100
*934 FILLER_9_104
*935 FILLER_9_133
*936 FILLER_9_137
*937 FILLER_9_141
*938 FILLER_9_153
*939 FILLER_9_180
*940 FILLER_9_26
*941 FILLER_9_3
*942 FILLER_9_43
*943 FILLER_9_47
*944 FILLER_9_57
*945 FILLER_9_61
*946 FILLER_9_63
*947 FILLER_9_7
*948 FILLER_9_9
*949 PHY_EDGE_ROW_0_Left_31
*950 PHY_EDGE_ROW_0_Right_0
*951 PHY_EDGE_ROW_10_Left_41
*952 PHY_EDGE_ROW_10_Right_10
*953 PHY_EDGE_ROW_11_Left_42
*954 PHY_EDGE_ROW_11_Right_11
*955 PHY_EDGE_ROW_12_Left_43
*956 PHY_EDGE_ROW_12_Right_12
*957 PHY_EDGE_ROW_13_Left_44
*958 PHY_EDGE_ROW_13_Right_13
*959 PHY_EDGE_ROW_14_Left_45
*960 PHY_EDGE_ROW_14_Right_14
*961 PHY_EDGE_ROW_15_Left_46
*962 PHY_EDGE_ROW_15_Right_15
*963 PHY_EDGE_ROW_16_Left_47
*964 PHY_EDGE_ROW_16_Right_16
*965 PHY_EDGE_ROW_17_Left_48
*966 PHY_EDGE_ROW_17_Right_17
*967 PHY_EDGE_ROW_18_Left_49
*968 PHY_EDGE_ROW_18_Right_18
*969 PHY_EDGE_ROW_19_Left_50
*970 PHY_EDGE_ROW_19_Right_19
*971 PHY_EDGE_ROW_1_Left_32
*972 PHY_EDGE_ROW_1_Right_1
*973 PHY_EDGE_ROW_20_Left_51
*974 PHY_EDGE_ROW_20_Right_20
*975 PHY_EDGE_ROW_21_Left_52
*976 PHY_EDGE_ROW_21_Right_21
*977 PHY_EDGE_ROW_22_Left_53
*978 PHY_EDGE_ROW_22_Right_22
*979 PHY_EDGE_ROW_23_Left_54
*980 PHY_EDGE_ROW_23_Right_23
*981 PHY_EDGE_ROW_24_Left_55
*982 PHY_EDGE_ROW_24_Right_24
*983 PHY_EDGE_ROW_25_Left_56
*984 PHY_EDGE_ROW_25_Right_25
*985 PHY_EDGE_ROW_26_Left_57
*986 PHY_EDGE_ROW_26_Right_26
*987 PHY_EDGE_ROW_27_Left_58
*988 PHY_EDGE_ROW_27_Right_27
*989 PHY_EDGE_ROW_28_Left_59
*990 PHY_EDGE_ROW_28_Right_28
*991 PHY_EDGE_ROW_29_Left_60
*992 PHY_EDGE_ROW_29_Right_29
*993 PHY_EDGE_ROW_2_Left_33
*994 PHY_EDGE_ROW_2_Right_2
*995 PHY_EDGE_ROW_30_Left_61
*996 PHY_EDGE_ROW_30_Right_30
*997 PHY_EDGE_ROW_3_Left_34
*998 PHY_EDGE_ROW_3_Right_3
*999 PHY_EDGE_ROW_4_Left_35
*1000 PHY_EDGE_ROW_4_Right_4
*1001 PHY_EDGE_ROW_5_Left_36
*1002 PHY_EDGE_ROW_5_Right_5
*1003 PHY_EDGE_ROW_6_Left_37
*1004 PHY_EDGE_ROW_6_Right_6
*1005 PHY_EDGE_ROW_7_Left_38
*1006 PHY_EDGE_ROW_7_Right_7
*1007 PHY_EDGE_ROW_8_Left_39
*1008 PHY_EDGE_ROW_8_Right_8
*1009 PHY_EDGE_ROW_9_Left_40
*1010 PHY_EDGE_ROW_9_Right_9
*1011 TAP_TAPCELL_ROW_0_62
*1012 TAP_TAPCELL_ROW_0_63
*1013 TAP_TAPCELL_ROW_0_64
*1014 TAP_TAPCELL_ROW_0_65
*1015 TAP_TAPCELL_ROW_0_66
*1016 TAP_TAPCELL_ROW_0_67
*1017 TAP_TAPCELL_ROW_10_95
*1018 TAP_TAPCELL_ROW_10_96
*1019 TAP_TAPCELL_ROW_10_97
*1020 TAP_TAPCELL_ROW_11_100
*1021 TAP_TAPCELL_ROW_11_98
*1022 TAP_TAPCELL_ROW_11_99
*1023 TAP_TAPCELL_ROW_12_101
*1024 TAP_TAPCELL_ROW_12_102
*1025 TAP_TAPCELL_ROW_12_103
*1026 TAP_TAPCELL_ROW_13_104
*1027 TAP_TAPCELL_ROW_13_105
*1028 TAP_TAPCELL_ROW_13_106
*1029 TAP_TAPCELL_ROW_14_107
*1030 TAP_TAPCELL_ROW_14_108
*1031 TAP_TAPCELL_ROW_14_109
*1032 TAP_TAPCELL_ROW_15_110
*1033 TAP_TAPCELL_ROW_15_111
*1034 TAP_TAPCELL_ROW_15_112
*1035 TAP_TAPCELL_ROW_16_113
*1036 TAP_TAPCELL_ROW_16_114
*1037 TAP_TAPCELL_ROW_16_115
*1038 TAP_TAPCELL_ROW_17_116
*1039 TAP_TAPCELL_ROW_17_117
*1040 TAP_TAPCELL_ROW_17_118
*1041 TAP_TAPCELL_ROW_18_119
*1042 TAP_TAPCELL_ROW_18_120
*1043 TAP_TAPCELL_ROW_18_121
*1044 TAP_TAPCELL_ROW_19_122
*1045 TAP_TAPCELL_ROW_19_123
*1046 TAP_TAPCELL_ROW_19_124
*1047 TAP_TAPCELL_ROW_1_68
*1048 TAP_TAPCELL_ROW_1_69
*1049 TAP_TAPCELL_ROW_1_70
*1050 TAP_TAPCELL_ROW_20_125
*1051 TAP_TAPCELL_ROW_20_126
*1052 TAP_TAPCELL_ROW_20_127
*1053 TAP_TAPCELL_ROW_21_128
*1054 TAP_TAPCELL_ROW_21_129
*1055 TAP_TAPCELL_ROW_21_130
*1056 TAP_TAPCELL_ROW_22_131
*1057 TAP_TAPCELL_ROW_22_132
*1058 TAP_TAPCELL_ROW_22_133
*1059 TAP_TAPCELL_ROW_23_134
*1060 TAP_TAPCELL_ROW_23_135
*1061 TAP_TAPCELL_ROW_23_136
*1062 TAP_TAPCELL_ROW_24_137
*1063 TAP_TAPCELL_ROW_24_138
*1064 TAP_TAPCELL_ROW_24_139
*1065 TAP_TAPCELL_ROW_25_140
*1066 TAP_TAPCELL_ROW_25_141
*1067 TAP_TAPCELL_ROW_25_142
*1068 TAP_TAPCELL_ROW_26_143
*1069 TAP_TAPCELL_ROW_26_144
*1070 TAP_TAPCELL_ROW_26_145
*1071 TAP_TAPCELL_ROW_27_146
*1072 TAP_TAPCELL_ROW_27_147
*1073 TAP_TAPCELL_ROW_27_148
*1074 TAP_TAPCELL_ROW_28_149
*1075 TAP_TAPCELL_ROW_28_150
*1076 TAP_TAPCELL_ROW_28_151
*1077 TAP_TAPCELL_ROW_29_152
*1078 TAP_TAPCELL_ROW_29_153
*1079 TAP_TAPCELL_ROW_29_154
*1080 TAP_TAPCELL_ROW_2_71
*1081 TAP_TAPCELL_ROW_2_72
*1082 TAP_TAPCELL_ROW_2_73
*1083 TAP_TAPCELL_ROW_30_155
*1084 TAP_TAPCELL_ROW_30_156
*1085 TAP_TAPCELL_ROW_30_157
*1086 TAP_TAPCELL_ROW_30_158
*1087 TAP_TAPCELL_ROW_30_159
*1088 TAP_TAPCELL_ROW_30_160
*1089 TAP_TAPCELL_ROW_3_74
*1090 TAP_TAPCELL_ROW_3_75
*1091 TAP_TAPCELL_ROW_3_76
*1092 TAP_TAPCELL_ROW_4_77
*1093 TAP_TAPCELL_ROW_4_78
*1094 TAP_TAPCELL_ROW_4_79
*1095 TAP_TAPCELL_ROW_5_80
*1096 TAP_TAPCELL_ROW_5_81
*1097 TAP_TAPCELL_ROW_5_82
*1098 TAP_TAPCELL_ROW_6_83
*1099 TAP_TAPCELL_ROW_6_84
*1100 TAP_TAPCELL_ROW_6_85
*1101 TAP_TAPCELL_ROW_7_86
*1102 TAP_TAPCELL_ROW_7_87
*1103 TAP_TAPCELL_ROW_7_88
*1104 TAP_TAPCELL_ROW_8_89
*1105 TAP_TAPCELL_ROW_8_90
*1106 TAP_TAPCELL_ROW_8_91
*1107 TAP_TAPCELL_ROW_9_92
*1108 TAP_TAPCELL_ROW_9_93
*1109 TAP_TAPCELL_ROW_9_94
*1110 _216_
*1111 _217_
*1112 _218_
*1113 _219_
*1114 _220_
*1115 _221_
*1116 _222_
*1117 _223_
*1118 _224_
*1119 _225_
*1120 _226_
*1121 _227_
*1122 _228_
*1123 _229_
*1124 _230_
*1125 _231_
*1126 _232_
*1127 _233_
*1128 _234_
*1129 _235_
*1130 _236_
*1131 _237_
*1132 _238_
*1133 _239_
*1134 _240_
*1135 _241_
*1136 _242_
*1137 _243_
*1138 _244_
*1139 _245_
*1140 _246_
*1141 _247_
*1142 _248_
*1143 _249_
*1144 _250_
*1145 _251_
*1146 _252_
*1147 _253_
*1148 _254_
*1149 _255_
*1150 _256_
*1151 _257_
*1152 _258_
*1153 _259_
*1154 _260_
*1155 _261_
*1156 _262_
*1157 _263_
*1158 _264_
*1159 _265_
*1160 _266_
*1161 _267_
*1162 _268_
*1163 _269_
*1164 _270_
*1165 _271_
*1166 _272_
*1167 _273_
*1168 _274_
*1169 _275_
*1170 _276_
*1171 _277_
*1172 _278_
*1173 _279_
*1174 _280_
*1175 _281_
*1176 _282_
*1177 _283_
*1178 _284_
*1179 _285_
*1180 _286_
*1181 _287_
*1182 _288_
*1183 _289_
*1184 _290_
*1185 _291_
*1186 _292_
*1187 _293_
*1188 _294_
*1189 _295_
*1190 _296_
*1191 _297_
*1192 _298_
*1193 _299_
*1194 _300_
*1195 _301_
*1196 _302_
*1197 _303_
*1198 _304_
*1199 _305_
*1200 _306_
*1201 _307_
*1202 _308_
*1203 _309_
*1204 _310_
*1205 _311_
*1206 _312_
*1207 _313_
*1208 _314_
*1209 _315_
*1210 _316_
*1211 _317_
*1212 _318_
*1213 _319_
*1214 _320_
*1215 _321_
*1216 _322_
*1217 _323_
*1218 _324_
*1219 _325_
*1220 _326_
*1221 _327_
*1222 _328_
*1223 _329_
*1224 _330_
*1225 _331_
*1226 _332_
*1227 _333_
*1228 _334_
*1229 _335_
*1230 _336_
*1231 _337_
*1232 _338_
*1233 _339_
*1234 _340_
*1235 _341_
*1236 _342_
*1237 _343_
*1238 _344_
*1239 _345_
*1240 _346_
*1241 _347_
*1242 _348_
*1243 _349_
*1244 _350_
*1245 _351_
*1246 _352_
*1247 _353_
*1248 _354_
*1249 _355_
*1250 _356_
*1251 _357_
*1252 _358_
*1253 _359_
*1254 _360_
*1255 _361_
*1256 _362_
*1257 _363_
*1258 _364_
*1259 _365_
*1260 _366_
*1261 _367_
*1262 _368_
*1263 _369_
*1264 _370_
*1265 _371_
*1266 _372_
*1267 _373_
*1268 _374_
*1269 _375_
*1270 _376_
*1271 _377_
*1272 _378_
*1273 _379_
*1274 _380_
*1275 _381_
*1276 _382_
*1277 _383_
*1278 _384_
*1279 _385_
*1280 _386_
*1281 _387_
*1282 _388_
*1283 _389_
*1284 _390_
*1285 _391_
*1286 _392_
*1287 _393_
*1288 _394_
*1289 _395_
*1290 _396_
*1291 _397_
*1292 _398_
*1293 _399_
*1294 _400_
*1295 _401_
*1296 _402_
*1297 _403_
*1298 _404_
*1299 _405_
*1300 _406_
*1301 _407_
*1302 _408_
*1303 _409_
*1304 _410_
*1305 _411_
*1306 _412_
*1307 _413_
*1308 _414_
*1309 _415_
*1310 _416_
*1311 _417_
*1312 _418_
*1313 _419_
*1314 _420_
*1315 _421_
*1316 _422_
*1317 _423_
*1318 _424_
*1319 _425_
*1320 _426_
*1321 _427_
*1322 _428_
*1323 _429_
*1324 _430_
*1325 _431_
*1326 _432_
*1327 _433_
*1328 _434_
*1329 _435_
*1330 _436_
*1331 _437_
*1332 _438_
*1333 _439_
*1334 _440_
*1335 _441_
*1336 _442_
*1337 _443_
*1338 _444_
*1339 _445_
*1340 _446_
*1341 _447_
*1342 _448_
*1343 _449_
*1344 _450_
*1345 _451_
*1346 _452_
*1347 _453_
*1348 _454_
*1349 _455_
*1350 _456_
*1351 _457_
*1352 _458_
*1353 _459_
*1354 _460_
*1355 _461_
*1356 _462_
*1357 _463_
*1358 _464_
*1359 _465_
*1360 _466_
*1361 _467_
*1362 _468_
*1363 _469_
*1364 _470_
*1365 _471_
*1366 _472_
*1367 _473_
*1368 _474_
*1369 _475_
*1370 _476_
*1371 _477_
*1372 _478_
*1373 _479_
*1374 _480_
*1375 _481_
*1376 _482_
*1377 _483_
*1378 _484_
*1379 _485_
*1380 _486_
*1381 _487_
*1382 _488_
*1383 _489_
*1384 clkbuf_0_clk
*1385 clkbuf_2_0__f_clk
*1386 clkbuf_2_1__f_clk
*1387 clkbuf_2_2__f_clk
*1388 clkbuf_2_3__f_clk
*1389 clkload0
*1390 clkload1
*1391 clkload2
*1392 fanout24
*1393 fanout25
*1394 fanout26
*1395 fanout27
*1396 fanout28
*1397 fanout29
*1398 hold1
*1399 hold10
*1400 hold11
*1401 hold12
*1402 hold13
*1403 hold14
*1404 hold15
*1405 hold2
*1406 hold3
*1407 hold4
*1408 hold5
*1409 hold6
*1410 hold7
*1411 hold8
*1412 hold9
*1413 input1
*1414 input10
*1415 input11
*1416 input12
*1417 input13
*1418 input14
*1419 input15
*1420 input2
*1421 input3
*1422 input4
*1423 input5
*1424 input6
*1425 input7
*1426 input8
*1427 input9
*1428 output16
*1429 output17
*1430 output18
*1431 output19
*1432 output20
*1433 output21
*1434 output22
*1435 output23

*PORTS
clk I
clock_glitch I
cold_reset_req I
debug_enable O
file_denied I
fsm_error O
fw_fail I
fw_ok I
global_pin_ok I
group_autolock I
group_error O
group_suspended O
group_unlocked O
hdr_parse_fail I
illegal_in I
power_glitch I
reset I
safe_led O
security_breach O
size_mismatch I
tamper_in I
unlock_enable O
unlock_req I
warm_reset_req I

*D_NET *3 0.00910465
*CONN
*P clk I
*I *1384:A I *D sky130_fd_sc_hd__clkbuf_16
*CAP
1 clk 0.00415746
2 *1384:A 0.00415746
3 *1384:A *1266:B1 0
4 *1384:A *1275:B1 0
5 *1384:A *1311:A2 0.000118496
6 *1384:A *1365:CLK 0
7 *1384:A *1371:CLK 0
8 *1384:A *1371:D 0
9 *1384:A *1372:D 0
10 *1384:A *1394:A 0
11 *1384:A *173:14 0
12 *1384:A *211:10 0.000265164
13 *1384:A *211:16 0.000406062
14 *1384:A *247:44 0
15 *1384:A *247:55 0
*RES
1 clk *1384:A 34.4179 
*END

*D_NET *4 0.000562788
*CONN
*P clock_glitch I
*I *1413:A I *D sky130_fd_sc_hd__clkbuf_1
*CAP
1 clock_glitch 0.000270635
2 *1413:A 0.000270635
3 *1413:A *1414:A 2.15176e-05
*RES
1 clock_glitch *1413:A 7.0893 
*END

*D_NET *5 0.000765482
*CONN
*P cold_reset_req I
*I *1420:A I *D sky130_fd_sc_hd__buf_1
*CAP
1 cold_reset_req 0.000248466
2 *1420:A 0.000248466
3 *1420:A security_breach 9.25475e-05
4 *1420:A *1318:A2 6.06649e-05
5 *1420:A *1417:A 0.000115337
6 *1420:A *1434:A 0
*RES
1 cold_reset_req *1420:A 6.09983 
*END

*D_NET *6 0.000568538
*CONN
*P debug_enable O
*I *1428:X O *D sky130_fd_sc_hd__buf_2
*CAP
1 debug_enable 0.000193275
2 *1428:X 0.000193275
3 debug_enable group_suspended 9.50048e-05
4 debug_enable unlock_enable 8.69828e-05
*RES
1 *1428:X debug_enable 5.61003 
*END

*D_NET *7 0.000794837
*CONN
*P file_denied I
*I *1421:A I *D sky130_fd_sc_hd__buf_1
*CAP
1 file_denied 0.000383657
2 *1421:A 0.000383657
3 *1421:A *1425:A 0
4 *1421:A *1432:A 2.75229e-05
*RES
1 file_denied *1421:A 10.35 
*END

*D_NET *8 0.00114758
*CONN
*P fsm_error O
*I *1429:X O *D sky130_fd_sc_hd__buf_2
*CAP
1 fsm_error 0.000412757
2 *1429:X 0.000412757
3 fsm_error safe_led 0.000187117
4 fsm_error security_breach 0
5 fsm_error *1210:A 0
6 fsm_error *1429:A 7.35235e-05
7 fsm_error *1433:A 6.14235e-05
*RES
1 *1429:X fsm_error 9.12003 
*END

*D_NET *9 0.000908095
*CONN
*P fw_fail I
*I *1422:A I *D sky130_fd_sc_hd__clkbuf_1
*CAP
1 fw_fail 0.000302672
2 *1422:A 0.000302672
3 *1422:A *1313:B 0.000106344
4 *1422:A *1361:CLK 0.000173916
5 *1422:A *1416:A 2.24901e-05
6 *1422:A *1426:A 0
*RES
1 fw_fail *1422:A 7.14003 
*END

*D_NET *10 0.000979092
*CONN
*P fw_ok I
*I *1423:A I *D sky130_fd_sc_hd__clkbuf_1
*CAP
1 fw_ok 0.000489546
2 *1423:A 0.000489546
*RES
1 fw_ok *1423:A 12.135 
*END

*D_NET *11 0.000962194
*CONN
*P global_pin_ok I
*I *1424:A I *D sky130_fd_sc_hd__clkbuf_1
*CAP
1 global_pin_ok 0.000374306
2 *1424:A 0.000374306
3 *1424:A group_error 0.000111366
4 *1424:A unlock_enable 0.000102216
5 *1424:A *1205:B1 0
6 *1424:A *250:35 0
*RES
1 global_pin_ok *1424:A 7.4331 
*END

*D_NET *12 0.000802316
*CONN
*P group_autolock I
*I *1425:A I *D sky130_fd_sc_hd__buf_1
*CAP
1 group_autolock 0.000387396
2 *1425:A 0.000387396
3 *1425:A group_unlocked 0
4 *1425:A *1432:A 2.75229e-05
5 *1421:A *1425:A 0
*RES
1 group_autolock *1425:A 10.35 
*END

*D_NET *13 0.00062522
*CONN
*P group_error O
*I *1430:X O *D sky130_fd_sc_hd__buf_2
*CAP
1 group_error 0.000195021
2 *1430:X 0.000195021
3 group_error *1205:B1 0
4 group_error *1419:A 9.25475e-05
5 group_error *1430:A 3.12639e-05
6 *1424:A group_error 0.000111366
*RES
1 *1430:X group_error 5.53157 
*END

*D_NET *14 0.000574568
*CONN
*P group_suspended O
*I *1431:X O *D sky130_fd_sc_hd__buf_2
*CAP
1 group_suspended 0.000176872
2 *1431:X 0.000176872
3 group_suspended unlock_enable 0
4 group_suspended *1418:A 9.25475e-05
5 group_suspended *1431:A 3.32709e-05
6 debug_enable group_suspended 9.50048e-05
*RES
1 *1431:X group_suspended 5.4733 
*END

*D_NET *15 0.000813966
*CONN
*P group_unlocked O
*I *1432:X O *D sky130_fd_sc_hd__buf_2
*CAP
1 group_unlocked 0.000406983
2 *1432:X 0.000406983
3 *1425:A group_unlocked 0
*RES
1 *1432:X group_unlocked 10.185 
*END

*D_NET *16 0.00079234
*CONN
*P hdr_parse_fail I
*I *1426:A I *D sky130_fd_sc_hd__clkbuf_1
*CAP
1 hdr_parse_fail 0.000364761
2 *1426:A 0.000364761
3 *1426:A *1313:D 0
4 *1426:A *1414:A 3.14094e-05
5 *1426:A *1416:A 3.14094e-05
6 *1426:A *268:83 0
7 *1422:A *1426:A 0
*RES
1 hdr_parse_fail *1426:A 5.6481 
*END

*D_NET *17 0.000502008
*CONN
*P illegal_in I
*I *1427:A I *D sky130_fd_sc_hd__clkbuf_1
*CAP
1 illegal_in 0.000148665
2 *1427:A 0.000148665
3 *1427:A *1318:A2 2.51475e-05
4 *1427:A *1417:A 9.25475e-05
5 *1427:A *1419:A 8.69828e-05
*RES
1 illegal_in *1427:A 5.16003 
*END

*D_NET *18 0.000618174
*CONN
*P power_glitch I
*I *1414:A I *D sky130_fd_sc_hd__clkbuf_1
*CAP
1 power_glitch 0.000282623
2 *1414:A 0.000282623
3 *1414:A *1313:D 0
4 *1414:A *1416:A 0
5 *1413:A *1414:A 2.15176e-05
6 *1426:A *1414:A 3.14094e-05
*RES
1 power_glitch *1414:A 7.5993 
*END

*D_NET *19 0.000629277
*CONN
*P reset I
*I *1415:A I *D sky130_fd_sc_hd__clkbuf_2
*CAP
1 reset 0.000314639
2 *1415:A 0.000314639
3 *1415:A *1418:A 0
4 *1415:A *269:12 0
*RES
1 reset *1415:A 5.7283 
*END

*D_NET *20 0.00126846
*CONN
*P safe_led O
*I *1433:X O *D sky130_fd_sc_hd__buf_2
*CAP
1 safe_led 0.000336515
2 *1433:X 0.000336515
3 safe_led security_breach 7.93884e-05
4 safe_led *1429:A 0.000189966
5 safe_led *1433:A 0
6 safe_led *256:10 0.000138961
7 fsm_error safe_led 0.000187117
*RES
1 *1433:X safe_led 9.21177 
*END

*D_NET *21 0.0007138
*CONN
*P security_breach O
*I *1434:X O *D sky130_fd_sc_hd__buf_2
*CAP
1 security_breach 0.000268839
2 *1434:X 0.000268839
3 security_breach *1316:A2 0
4 security_breach *1433:A 4.18603e-06
5 fsm_error security_breach 0
6 safe_led security_breach 7.93884e-05
7 *1420:A security_breach 9.25475e-05
*RES
1 *1434:X security_breach 6.63003 
*END

*D_NET *22 0.000678513
*CONN
*P size_mismatch I
*I *1416:A I *D sky130_fd_sc_hd__clkbuf_1
*CAP
1 size_mismatch 0.000312307
2 *1416:A 0.000312307
3 *1416:A *1313:D 0
4 *1414:A *1416:A 0
5 *1422:A *1416:A 2.24901e-05
6 *1426:A *1416:A 3.14094e-05
*RES
1 size_mismatch *1416:A 8.1093 
*END

*D_NET *23 0.000955775
*CONN
*P tamper_in I
*I *1417:A I *D sky130_fd_sc_hd__clkbuf_1
*CAP
1 tamper_in 0.000297381
2 *1417:A 0.000297381
3 *1417:A *1318:A2 0.000153129
4 *1420:A *1417:A 0.000115337
5 *1427:A *1417:A 9.25475e-05
*RES
1 tamper_in *1417:A 8.47503 
*END

*D_NET *24 0.000532554
*CONN
*P unlock_enable O
*I *1435:X O *D sky130_fd_sc_hd__buf_2
*CAP
1 unlock_enable 0.000171678
2 *1435:X 0.000171678
3 unlock_enable *1428:A 0
4 debug_enable unlock_enable 8.69828e-05
5 group_suspended unlock_enable 0
6 *1424:A unlock_enable 0.000102216
*RES
1 *1435:X unlock_enable 5.2183 
*END

*D_NET *25 0.000680062
*CONN
*P unlock_req I
*I *1418:A I *D sky130_fd_sc_hd__buf_1
*CAP
1 unlock_req 0.00028871
2 *1418:A 0.00028871
3 *1418:A *253:14 1.00941e-05
4 group_suspended *1418:A 9.25475e-05
5 *1415:A *1418:A 0
*RES
1 unlock_req *1418:A 6.69003 
*END

*D_NET *26 0.000523932
*CONN
*P warm_reset_req I
*I *1419:A I *D sky130_fd_sc_hd__buf_1
*CAP
1 warm_reset_req 0.000172201
2 *1419:A 0.000172201
3 group_error *1419:A 9.25475e-05
4 *1427:A *1419:A 8.69828e-05
*RES
1 warm_reset_req *1419:A 5.41503 
*END

*D_NET *27 0.000368368
*CONN
*I *1330:D I *D sky130_fd_sc_hd__dfxtp_1
*I *1160:X O *D sky130_fd_sc_hd__and2b_1
*CAP
1 *1330:D 0.000184184
2 *1160:X 0.000184184
3 *1330:D *1163:A 0
4 *1330:D *244:61 0
*RES
1 *1160:X *1330:D 10.0087 
*END

*D_NET *28 0.000230666
*CONN
*I *1331:D I *D sky130_fd_sc_hd__dfxtp_1
*I *1163:X O *D sky130_fd_sc_hd__and3_1
*CAP
1 *1331:D 0.000115333
2 *1163:X 0.000115333
*RES
1 *1163:X *1331:D 8.80875 
*END

*D_NET *29 0.000226269
*CONN
*I *1332:D I *D sky130_fd_sc_hd__dfxtp_1
*I *1166:X O *D sky130_fd_sc_hd__and3_1
*CAP
1 *1332:D 9.46959e-05
2 *1166:X 9.46959e-05
3 *1332:D *244:12 3.68769e-05
*RES
1 *1166:X *1332:D 8.80875 
*END

*D_NET *30 0.00106748
*CONN
*I *1333:D I *D sky130_fd_sc_hd__dfxtp_1
*I *1169:X O *D sky130_fd_sc_hd__and3b_1
*CAP
1 *1333:D 0.000201711
2 *1169:X 0.000201711
3 *1333:D *1168:A1 8.23457e-05
4 *1333:D *1169:A_N 3.00381e-05
5 *1333:D *1169:C 0.000118527
6 *1333:D *1333:CLK 0.0001249
7 *1333:D *129:21 7.49066e-05
8 *1333:D *312:45 4.82863e-05
9 *1333:D *319:12 6.74079e-05
10 *1333:D *321:10 0.000117643
*RES
1 *1169:X *1333:D 12.87 
*END

*D_NET *31 0.00100486
*CONN
*I *1334:D I *D sky130_fd_sc_hd__dfxtp_1
*I *1172:X O *D sky130_fd_sc_hd__and3_1
*CAP
1 *1334:D 0.000180307
2 *1172:X 0.000180307
3 *1334:D *1172:B 0.000137571
4 *1334:D *1172:C 7.18738e-05
5 *1334:D *1334:CLK 0.000234674
6 *1334:D *1385:A 0.000156547
7 *1334:D *244:163 3.09233e-05
8 *1334:D *322:48 1.26548e-05
*RES
1 *1172:X *1334:D 12.225 
*END

*D_NET *32 0.000325423
*CONN
*I *1335:D I *D sky130_fd_sc_hd__dfxtp_1
*I *1175:X O *D sky130_fd_sc_hd__and3b_1
*CAP
1 *1335:D 0.00012646
2 *1175:X 0.00012646
3 *1335:D *1175:B 5.51158e-05
4 *1335:D *106:10 1.7386e-05
5 *1335:D *264:86 0
*RES
1 *1175:X *1335:D 9.42375 
*END

*D_NET *33 0.000899614
*CONN
*I *1336:D I *D sky130_fd_sc_hd__dfxtp_1
*I *1178:X O *D sky130_fd_sc_hd__and3_1
*CAP
1 *1336:D 0.000311666
2 *1178:X 0.000311666
3 *1336:D *1178:A 9.37731e-05
4 *1336:D *1178:B 4.99619e-05
5 *1336:D *1178:C 3.16627e-05
6 *1336:D *265:10 0.000100884
*RES
1 *1178:X *1336:D 13.1287 
*END

*D_NET *34 0.000408495
*CONN
*I *1337:D I *D sky130_fd_sc_hd__dfxtp_1
*I *1180:X O *D sky130_fd_sc_hd__and2_1
*CAP
1 *1337:D 0.000154298
2 *1180:X 0.000154298
3 *1337:D *1180:B 3.64998e-06
4 *1337:D *1393:A 8.08439e-05
5 *1337:D *325:8 1.54049e-05
*RES
1 *1180:X *1337:D 9.76875 
*END

*D_NET *35 0.000334089
*CONN
*I *1338:D I *D sky130_fd_sc_hd__dfxtp_1
*I *1183:X O *D sky130_fd_sc_hd__and3_1
*CAP
1 *1338:D 9.40837e-05
2 *1183:X 9.40837e-05
3 *1338:D *1338:CLK 4.99619e-05
4 *1338:D *265:20 9.59594e-05
*RES
1 *1183:X *1338:D 5.435 
*END

*D_NET *36 0.000250383
*CONN
*I *1339:D I *D sky130_fd_sc_hd__dfxtp_1
*I *1186:X O *D sky130_fd_sc_hd__and3_1
*CAP
1 *1339:D 0.000125191
2 *1186:X 0.000125191
*RES
1 *1186:X *1339:D 4.92875 
*END

*D_NET *37 0.000618802
*CONN
*I *1340:D I *D sky130_fd_sc_hd__dfxtp_1
*I *1189:X O *D sky130_fd_sc_hd__and3b_1
*CAP
1 *1340:D 0.00014153
2 *1189:X 0.00014153
3 *1340:D *265:33 0.000240996
4 *1340:D *289:8 0
5 *1340:D *313:19 9.47454e-05
*RES
1 *1189:X *1340:D 10.5337 
*END

*D_NET *38 0.000682923
*CONN
*I *1341:D I *D sky130_fd_sc_hd__dfxtp_1
*I *1192:X O *D sky130_fd_sc_hd__o211a_1
*CAP
1 *1341:D 0.000315409
2 *1192:X 0.000315409
3 *1341:D *1188:C 5.21046e-05
*RES
1 *1192:X *1341:D 11.9137 
*END

*D_NET *39 0.000867805
*CONN
*I *1342:D I *D sky130_fd_sc_hd__dfxtp_1
*I *1195:X O *D sky130_fd_sc_hd__and3_1
*CAP
1 *1342:D 0.000398915
2 *1195:X 0.000398915
3 *1342:D *1195:A 4.82919e-05
4 *1342:D *315:8 2.16833e-05
*RES
1 *1195:X *1342:D 8.63375 
*END

*D_NET *40 0.000341326
*CONN
*I *1343:D I *D sky130_fd_sc_hd__dfxtp_1
*I *1198:X O *D sky130_fd_sc_hd__and3b_1
*CAP
1 *1343:D 9.94459e-05
2 *1198:X 9.94459e-05
3 *1343:D *1198:B 5.20968e-05
4 *1343:D *244:30 9.03376e-05
*RES
1 *1198:X *1343:D 9.15375 
*END

*D_NET *41 0.000542926
*CONN
*I *1344:D I *D sky130_fd_sc_hd__dfxtp_1
*I *1201:X O *D sky130_fd_sc_hd__and3b_1
*CAP
1 *1344:D 0.000231041
2 *1201:X 0.000231041
3 *1344:D *1201:B 8.08439e-05
*RES
1 *1201:X *1344:D 11.0437 
*END

*D_NET *42 0.000285559
*CONN
*I *1345:D I *D sky130_fd_sc_hd__dfxtp_1
*I *1204:X O *D sky130_fd_sc_hd__and3_1
*CAP
1 *1345:D 6.78129e-05
2 *1204:X 6.78129e-05
3 *1345:D *1202:A 5.20335e-05
4 *1345:D *1204:B 9.06864e-05
5 *1345:D *1204:C 7.21296e-06
6 *1345:D *244:115 0
*RES
1 *1204:X *1345:D 8.80875 
*END

*D_NET *43 0.000363936
*CONN
*I *1346:D I *D sky130_fd_sc_hd__dfxtp_1
*I *1205:X O *D sky130_fd_sc_hd__o21a_1
*CAP
1 *1346:D 8.01618e-05
2 *1205:X 8.01618e-05
3 *1346:D *1205:A2 1.4399e-05
4 *1346:D *1205:B1 9.37731e-05
5 *1346:D *250:35 9.54399e-05
*RES
1 *1205:X *1346:D 8.91375 
*END

*D_NET *44 0.00121543
*CONN
*I *1347:D I *D sky130_fd_sc_hd__dfxtp_1
*I *1206:X O *D sky130_fd_sc_hd__or2_1
*CAP
1 *1347:D 0.000215355
2 *1206:X 0.000215355
3 *1347:D *1207:B 0.000452229
4 *1347:D *1347:CLK 0.000113663
5 *1347:D *247:151 0
6 *1347:D *250:50 0.000205368
7 *1347:D *332:10 1.34594e-05
*RES
1 *1206:X *1347:D 13.7738 
*END

*D_NET *45 0.00036309
*CONN
*I *1348:D I *D sky130_fd_sc_hd__dfxtp_1
*I *1207:Y O *D sky130_fd_sc_hd__nor2_1
*CAP
1 *1348:D 0.000181545
2 *1207:Y 0.000181545
3 *1348:D *1348:CLK 0
4 *1348:D *333:10 0
*RES
1 *1207:Y *1348:D 9.91875 
*END

*D_NET *46 0.00103825
*CONN
*I *1349:D I *D sky130_fd_sc_hd__dfxtp_1
*I *1208:Y O *D sky130_fd_sc_hd__nor2_1
*CAP
1 *1349:D 0.000216818
2 *1208:Y 0.000216818
3 *1349:D *1208:A 3.00381e-05
4 *1349:D *1350:CLK 0.000475055
5 *1349:D *165:18 1.12578e-05
6 *1349:D *334:10 8.8266e-05
*RES
1 *1208:Y *1349:D 8.16875 
*END

*D_NET *47 0.00043581
*CONN
*I *1350:D I *D sky130_fd_sc_hd__dfxtp_1
*I *1209:Y O *D sky130_fd_sc_hd__nor2_1
*CAP
1 *1350:D 0.000190993
2 *1209:Y 0.000190993
3 *1350:D *1219:B2 5.53249e-06
4 *1350:D *1350:CLK 4.82919e-05
*RES
1 *1209:Y *1350:D 10.245 
*END

*D_NET *48 0.00029246
*CONN
*I *1351:D I *D sky130_fd_sc_hd__dfxtp_1
*I *1210:X O *D sky130_fd_sc_hd__and2_1
*CAP
1 *1351:D 0.000101773
2 *1210:X 0.000101773
3 *1351:D *1118:A 4.99619e-05
4 *1351:D *247:138 3.89528e-05
*RES
1 *1210:X *1351:D 8.91375 
*END

*D_NET *49 0.000447247
*CONN
*I *1352:D I *D sky130_fd_sc_hd__dfxtp_1
*I *1217:X O *D sky130_fd_sc_hd__o211a_1
*CAP
1 *1352:D 0.00015993
2 *1217:X 0.00015993
3 *1352:D *1215:A2 0
4 *1352:D *1352:CLK 7.82691e-05
5 *1352:D *245:106 0
6 *1352:D *260:38 0
7 *1352:D *330:31 4.91189e-05
*RES
1 *1217:X *1352:D 10.005 
*END

*D_NET *50 0.000814995
*CONN
*I *1353:D I *D sky130_fd_sc_hd__dfxtp_1
*I *1218:X O *D sky130_fd_sc_hd__o221a_1
*CAP
1 *1353:D 0.000393736
2 *1218:X 0.000393736
3 *1353:D *331:8 2.75229e-05
*RES
1 *1218:X *1353:D 9.20375 
*END

*D_NET *51 0.000368381
*CONN
*I *1354:D I *D sky130_fd_sc_hd__dfxtp_1
*I *1236:Y O *D sky130_fd_sc_hd__a21oi_1
*CAP
1 *1354:D 0.00018419
2 *1236:Y 0.00018419
3 *1354:D *1354:CLK 0
4 *1354:D *292:8 0
*RES
1 *1236:Y *1354:D 10.0087 
*END

*D_NET *52 0.000599648
*CONN
*I *1355:D I *D sky130_fd_sc_hd__dfxtp_1
*I *1238:Y O *D sky130_fd_sc_hd__a21oi_1
*CAP
1 *1355:D 0.000299824
2 *1238:Y 0.000299824
3 *1355:D *299:8 0
*RES
1 *1238:Y *1355:D 11.7338 
*END

*D_NET *53 0.000573239
*CONN
*I *1356:D I *D sky130_fd_sc_hd__dfxtp_1
*I *1241:Y O *D sky130_fd_sc_hd__nor2_1
*CAP
1 *1356:D 0.000176609
2 *1241:Y 0.000176609
3 *1356:D *1240:A2 0
4 *1356:D *246:57 0.000141052
5 *1356:D *267:51 7.89689e-05
*RES
1 *1241:Y *1356:D 11.0437 
*END

*D_NET *54 0.00023367
*CONN
*I *1357:D I *D sky130_fd_sc_hd__dfxtp_1
*I *1245:Y O *D sky130_fd_sc_hd__a21oi_1
*CAP
1 *1357:D 0.000116835
2 *1245:Y 0.000116835
*RES
1 *1245:Y *1357:D 8.97375 
*END

*D_NET *55 0.000815808
*CONN
*I *1358:D I *D sky130_fd_sc_hd__dfxtp_1
*I *1247:Y O *D sky130_fd_sc_hd__a21oi_1
*CAP
1 *1358:D 0.000212577
2 *1247:Y 0.000212577
3 *1358:D *1247:A2 0
4 *1358:D *1358:CLK 0.000390655
*RES
1 *1247:Y *1358:D 11.2087 
*END

*D_NET *56 0.000603462
*CONN
*I *1359:D I *D sky130_fd_sc_hd__dfxtp_1
*I *1250:Y O *D sky130_fd_sc_hd__a21oi_1
*CAP
1 *1359:D 0.000195725
2 *1250:Y 0.000195725
3 *1359:D *1250:B1 1.16578e-05
4 *1359:D *1359:CLK 0.000109487
5 *1359:D *169:12 7.03608e-05
6 *1359:D *268:44 2.05056e-05
*RES
1 *1250:Y *1359:D 7.16 
*END

*D_NET *57 0.000288807
*CONN
*I *1360:D I *D sky130_fd_sc_hd__dfxtp_1
*I *1252:Y O *D sky130_fd_sc_hd__a21oi_1
*CAP
1 *1360:D 7.97996e-05
2 *1252:Y 7.97996e-05
3 *1360:D *1251:B 5.20313e-05
4 *1360:D *1252:A2 7.71765e-05
5 *1360:D *304:27 0
6 *1360:D *304:29 0
*RES
1 *1252:Y *1360:D 8.97375 
*END

*D_NET *58 0.000319744
*CONN
*I *1361:D I *D sky130_fd_sc_hd__dfxtp_1
*I *1256:Y O *D sky130_fd_sc_hd__a21oi_1
*CAP
1 *1361:D 0.000139604
2 *1256:Y 0.000139604
3 *1361:D *1240:B1 0
4 *1361:D *1313:A 0
5 *1361:D *1314:C 4.05358e-05
*RES
1 *1256:Y *1361:D 9.555 
*END

*D_NET *59 0.000774306
*CONN
*I *1362:D I *D sky130_fd_sc_hd__dfxtp_1
*I *1258:Y O *D sky130_fd_sc_hd__a21oi_1
*CAP
1 *1362:D 0.000325989
2 *1258:Y 0.000325989
3 *1362:D *1256:B1 7.23602e-05
4 *1362:D *1363:CLK 0
5 *1362:D *1363:D 0
6 *1362:D *244:67 0
7 *1362:D *306:29 4.9968e-05
*RES
1 *1258:Y *1362:D 12.615 
*END

*D_NET *60 8.71829e-05
*CONN
*I *1410:A I *D sky130_fd_sc_hd__dlygate4sd3_1
*I *1261:X O *D sky130_fd_sc_hd__o21a_1
*CAP
1 *1410:A 1.88677e-05
2 *1261:X 1.88677e-05
3 *1410:A *1357:CLK 4.94474e-05
*RES
1 *1261:X *1410:A 3.65 
*END

*D_NET *61 0.000759015
*CONN
*I *1364:D I *D sky130_fd_sc_hd__dfxtp_1
*I *1264:Y O *D sky130_fd_sc_hd__a21oi_1
*CAP
1 *1364:D 0.000294173
2 *1264:Y 0.000294173
3 *1364:D *1252:A1 7.55945e-06
4 *1364:D *1264:B1 3.64998e-06
5 *1364:D *1286:A 0
6 *1364:D *1286:B 1.54049e-05
7 *1364:D *209:10 0.000139231
8 *1364:D *293:10 4.82319e-06
*RES
1 *1264:Y *1364:D 11.1488 
*END

*D_NET *62 0.00047675
*CONN
*I *1365:D I *D sky130_fd_sc_hd__dfxtp_1
*I *1266:Y O *D sky130_fd_sc_hd__a21oi_1
*CAP
1 *1365:D 0.000159217
2 *1266:Y 0.000159217
3 *1365:D *1231:C 2.11921e-05
4 *1365:D *1266:B1 9.57963e-05
5 *1365:D *294:6 4.13269e-05
*RES
1 *1266:Y *1365:D 6.33875 
*END

*D_NET *63 0.000359348
*CONN
*I *1366:D I *D sky130_fd_sc_hd__dfxtp_1
*I *1269:Y O *D sky130_fd_sc_hd__nor2_1
*CAP
1 *1366:D 0.000127523
2 *1269:Y 0.000127523
3 *1366:D *1269:A 2.69968e-05
4 *1366:D *1269:B 4.6368e-06
5 *1366:D *1272:B1 3.77631e-05
6 *1366:D *266:24 2.32206e-05
7 *1366:D *267:27 1.16854e-05
*RES
1 *1269:Y *1366:D 9.42375 
*END

*D_NET *64 0.000316569
*CONN
*I *1367:D I *D sky130_fd_sc_hd__dfxtp_1
*I *1272:Y O *D sky130_fd_sc_hd__a21oi_1
*CAP
1 *1367:D 0.00015522
2 *1272:Y 0.00015522
3 *1367:D *1367:CLK 6.12927e-06
*RES
1 *1272:Y *1367:D 9.97875 
*END

*D_NET *65 0.00041836
*CONN
*I *1368:D I *D sky130_fd_sc_hd__dfxtp_1
*I *1274:X O *D sky130_fd_sc_hd__o21ba_1
*CAP
1 *1368:D 0.000170045
2 *1274:X 0.000170045
3 *1368:D *1274:A2 0
4 *1368:D *1369:CLK 7.82691e-05
*RES
1 *1274:X *1368:D 9.75 
*END

*D_NET *66 0.000219244
*CONN
*I *1369:D I *D sky130_fd_sc_hd__dfxtp_1
*I *1276:Y O *D sky130_fd_sc_hd__nor2_1
*CAP
1 *1369:D 5.92184e-05
2 *1276:Y 5.92184e-05
3 *1369:D *1276:A 0
4 *1369:D *1276:B 9.54469e-05
5 *1369:D *165:18 5.36069e-06
*RES
1 *1276:Y *1369:D 8.46375 
*END

*D_NET *67 0.00106888
*CONN
*I *1370:D I *D sky130_fd_sc_hd__dfxtp_1
*I *1303:X O *D sky130_fd_sc_hd__o21a_1
*CAP
1 *1370:D 0.000376601
2 *1303:X 0.000376601
3 *1370:D *1306:A_N 0
4 *1370:D *1306:B 3.68682e-05
5 *1370:D *1372:D 0
6 *1370:D *1391:A 7.66727e-05
7 *1370:D *243:36 0
8 *1370:D *247:27 0.000202135
*RES
1 *1303:X *1370:D 15.1237 
*END

*D_NET *68 0.000236403
*CONN
*I *1371:D I *D sky130_fd_sc_hd__dfxtp_1
*I *1306:X O *D sky130_fd_sc_hd__and2b_1
*CAP
1 *1371:D 6.32957e-05
2 *1306:X 6.32957e-05
3 *1371:D *1372:D 9.54399e-05
4 *1371:D *1387:A 1.43717e-05
5 *1384:A *1371:D 0
*RES
1 *1306:X *1371:D 8.46375 
*END

*D_NET *69 0.00166466
*CONN
*I *1372:D I *D sky130_fd_sc_hd__dfxtp_1
*I *1315:X O *D sky130_fd_sc_hd__and3_1
*CAP
1 *1372:D 0.000663219
2 *1315:X 0.000663219
3 *1372:D *1306:A_N 0
4 *1372:D *1371:CLK 0.000150888
5 *1372:D *211:10 0
6 *1372:D *247:44 7.75412e-05
7 *1372:D *247:55 1.43521e-05
8 *1370:D *1372:D 0
9 *1371:D *1372:D 9.54399e-05
10 *1384:A *1372:D 0
*RES
1 *1315:X *1372:D 19.6238 
*END

*D_NET *70 0.000295223
*CONN
*I *1406:A I *D sky130_fd_sc_hd__dlygate4sd3_1
*I *1316:X O *D sky130_fd_sc_hd__o31a_1
*CAP
1 *1406:A 7.53716e-05
2 *1316:X 7.53716e-05
3 *1406:A *1316:A1 3.00381e-05
4 *1406:A *1382:A 4.70343e-05
5 *1406:A *247:88 6.74079e-05
*RES
1 *1316:X *1406:A 9.03 
*END

*D_NET *71 0.00126227
*CONN
*I *1374:D I *D sky130_fd_sc_hd__dfxtp_1
*I *1317:X O *D sky130_fd_sc_hd__o21a_1
*CAP
1 *1374:D 0.000159041
2 *1317:X 0.000159041
3 *1374:D *1402:A 2.05056e-05
4 *1374:D *87:64 0.000221968
5 *1374:D *247:96 0.000508226
6 *1374:D *250:35 0.000139238
7 *1374:D *328:10 5.42473e-05
*RES
1 *1317:X *1374:D 13.8038 
*END

*D_NET *72 0.000691583
*CONN
*I *1375:D I *D sky130_fd_sc_hd__dfxtp_1
*I *1318:X O *D sky130_fd_sc_hd__o21a_1
*CAP
1 *1375:D 0.000277712
2 *1318:X 0.000277712
3 *1375:D *1317:A1 7.23533e-05
4 *1375:D *1317:A2 1.1561e-05
5 *1375:D *1318:A1 0
6 *1375:D *87:31 0
7 *1375:D *329:8 5.22443e-05
*RES
1 *1318:X *1375:D 11.8837 
*END

*D_NET *73 0.000314724
*CONN
*I *1376:D I *D sky130_fd_sc_hd__dfxtp_1
*I *1319:X O *D sky130_fd_sc_hd__a31o_1
*CAP
1 *1376:D 0.000128762
2 *1319:X 0.000128762
3 *1376:D *255:32 0
4 *1376:D *269:57 5.72004e-05
*RES
1 *1319:X *1376:D 9.555 
*END

*D_NET *74 0.000417028
*CONN
*I *1377:D I *D sky130_fd_sc_hd__dfxtp_1
*I *1320:Y O *D sky130_fd_sc_hd__nor2_1
*CAP
1 *1377:D 2.79967e-05
2 *1320:Y 2.79967e-05
3 *1377:D *1158:B 0.000150298
4 *1377:D *1320:A 8.57024e-05
5 *1377:D *1377:CLK 2.30292e-05
6 *1377:D *269:25 0.000102006
*RES
1 *1320:Y *1377:D 4.91375 
*END

*D_NET *75 0.000503259
*CONN
*I *1378:D I *D sky130_fd_sc_hd__dfxtp_1
*I *1322:Y O *D sky130_fd_sc_hd__nor3_1
*CAP
1 *1378:D 7.79182e-05
2 *1322:Y 7.79182e-05
3 *1378:D *1322:B 0.000133647
4 *1378:D *1322:C 8.65905e-05
5 *1378:D *1346:CLK 9.59594e-05
6 *1378:D *1378:CLK 9.53428e-06
7 *1378:D *245:127 2.16917e-05
*RES
1 *1322:Y *1378:D 6.125 
*END

*D_NET *76 0.000352355
*CONN
*I *1379:D I *D sky130_fd_sc_hd__dfxtp_1
*I *1323:Y O *D sky130_fd_sc_hd__nor2_1
*CAP
1 *1379:D 7.95117e-05
2 *1323:Y 7.95117e-05
3 *1379:D *1323:B 9.3062e-06
4 *1379:D *1393:A 3.67779e-05
5 *1379:D *250:14 9.37731e-05
6 *1379:D *269:25 4.99619e-05
7 *1379:D *311:10 3.51254e-06
*RES
1 *1323:Y *1379:D 8.91375 
*END

*D_NET *77 0.000371959
*CONN
*I *1380:D I *D sky130_fd_sc_hd__dfxtp_2
*I *1328:X O *D sky130_fd_sc_hd__a21o_1
*CAP
1 *1380:D 9.30908e-05
2 *1328:X 9.30908e-05
3 *1380:D *1328:A2 0
4 *1380:D *254:12 9.03376e-05
5 *1380:D *269:94 9.54399e-05
*RES
1 *1328:X *1380:D 9.15375 
*END

*D_NET *78 0.000266868
*CONN
*I *1381:D I *D sky130_fd_sc_hd__dfxtp_1
*I *1329:X O *D sky130_fd_sc_hd__o21a_1
*CAP
1 *1381:D 8.04311e-05
2 *1329:X 8.04311e-05
3 *1381:D *1381:CLK 5.20335e-05
4 *1381:D *247:123 0
5 *1381:D *250:50 5.39718e-05
6 *1381:D *341:12 0
*RES
1 *1329:X *1381:D 8.80875 
*END

*D_NET *79 0.00166658
*CONN
*I *1222:A1 I *D sky130_fd_sc_hd__o22ai_1
*I *1223:A1 I *D sky130_fd_sc_hd__a2111o_1
*I *1277:B I *D sky130_fd_sc_hd__or3_1
*I *1110:Y O *D sky130_fd_sc_hd__inv_2
*CAP
1 *1222:A1 0.00010342
2 *1223:A1 8.39649e-05
3 *1277:B 0.000128607
4 *1110:Y 0
5 *79:21 0.000505119
6 *79:6 0.000446341
7 *1222:A1 *1207:A 8.42843e-05
8 *1222:A1 *82:40 1.83847e-05
9 *1223:A1 *1222:B1 8.8266e-05
10 *1223:A1 *82:40 1.34503e-05
11 *1277:B *1110:A 7.06865e-05
12 *1277:B *1207:B 0
13 *1277:B *154:10 0.000113271
14 *1277:B *341:37 1.07797e-05
15 *79:21 *1207:B 0
16 *79:21 *1223:B1 0
17 *79:21 *250:66 0
*RES
1 *1110:Y *79:6 3.6 
2 *79:6 *1277:B 5.775 
3 *79:6 *79:21 6.95 
4 *79:21 *1223:A1 2.74 
5 *79:21 *1222:A1 3.73 
*END

*D_NET *80 0.00690592
*CONN
*I *1219:B2 I *D sky130_fd_sc_hd__a22o_1
*I *1209:A I *D sky130_fd_sc_hd__nor2_1
*I *1280:A1 I *D sky130_fd_sc_hd__a21oi_1
*I *1127:A I *D sky130_fd_sc_hd__or3_1
*I *1300:C I *D sky130_fd_sc_hd__and3b_1
*I *1111:Y O *D sky130_fd_sc_hd__inv_2
*CAP
1 *1219:B2 0.000659504
2 *1209:A 0
3 *1280:A1 0.000214857
4 *1127:A 0.000264399
5 *1300:C 0.000112412
6 *1111:Y 8.09894e-05
7 *80:55 0.000826432
8 *80:18 0.000680038
9 *80:14 0.000934693
10 *80:8 0.000664527
11 *1127:A *1308:A 0.000312176
12 *1127:A *231:10 4.82863e-05
13 *1127:A *247:84 0.000106078
14 *1219:B2 *1208:A 6.90876e-05
15 *1219:B2 *1220:A2 0
16 *1219:B2 *1221:A2 5.53249e-06
17 *1219:B2 *1224:B1 5.30673e-05
18 *1219:B2 *1224:C1 0.00020707
19 *1219:B2 *1350:CLK 0
20 *1219:B2 *165:18 0.000354725
21 *1219:B2 *335:12 3.86529e-05
22 *1280:A1 *1122:B 9.02174e-05
23 *1280:A1 *1280:B1 1.85674e-05
24 *1280:A1 *90:10 3.03684e-05
25 *1280:A1 *338:8 0.000107704
26 *1300:C *1300:A_N 9.37731e-05
27 *1300:C *339:23 0.000124007
28 *1300:C *340:22 9.54399e-05
29 *80:14 *1221:A1 6.75724e-05
30 *80:14 *338:8 6.6925e-05
31 *80:14 *340:14 0.000186092
32 *80:14 *340:69 0.000109989
33 *80:18 *1300:A_N 7.23602e-05
34 *80:18 *81:49 0
35 *80:18 *338:16 3.05238e-05
36 *80:18 *340:14 0
37 *80:18 *340:22 2.14129e-05
38 *80:55 *1220:A2 0
39 *80:55 *1221:A1 7.23602e-05
40 *80:55 *250:66 8.05508e-05
41 *1350:D *1219:B2 5.53249e-06
*RES
1 *1111:Y *80:8 4.395 
2 *80:8 *80:14 9.05 
3 *80:14 *80:18 7.205 
4 *80:18 *1300:C 5.865 
5 *80:18 *1127:A 8.55 
6 *80:14 *1280:A1 5.89 
7 *80:8 *80:55 3.42 
8 *80:55 *1209:A 3.6 
9 *80:55 *1219:B2 17.035 
*END

*D_NET *81 0.00810352
*CONN
*I *1208:A I *D sky130_fd_sc_hd__nor2_1
*I *1224:A1 I *D sky130_fd_sc_hd__a211o_1
*I *1220:A1 I *D sky130_fd_sc_hd__o22ai_1
*I *1280:A2 I *D sky130_fd_sc_hd__a21oi_1
*I *1123:B I *D sky130_fd_sc_hd__or3_2
*I *1300:B I *D sky130_fd_sc_hd__and3b_1
*I *1305:A1 I *D sky130_fd_sc_hd__o32a_1
*I *1112:Y O *D sky130_fd_sc_hd__inv_2
*CAP
1 *1208:A 0.000148243
2 *1224:A1 0
3 *1220:A1 0.000149513
4 *1280:A2 0
5 *1123:B 0
6 *1300:B 0
7 *1305:A1 0.00049334
8 *1112:Y 0
9 *81:81 0.000221215
10 *81:62 0.000548743
11 *81:49 0.000636221
12 *81:38 0.000545818
13 *81:31 0.000358457
14 *81:4 0.000615941
15 *1208:A *1208:B 4.99619e-05
16 *1208:A *1224:A2 8.65961e-05
17 *1208:A *1224:B1 1.85674e-05
18 *1208:A *165:18 0.000545352
19 *1208:A *250:66 0.000112767
20 *1208:A *334:10 0.00022257
21 *1220:A1 *1220:B2 2.0053e-05
22 *1220:A1 *1221:A1 1.67738e-05
23 *1220:A1 *1221:B2 0
24 *1220:A1 *1221:C1 2.45311e-05
25 *1305:A1 *1298:B 4.43871e-06
26 *1305:A1 *1303:A1 0.000325647
27 *1305:A1 *1303:A2 0.000314452
28 *1305:A1 *1305:A2 2.37083e-05
29 *1305:A1 *1305:A3 4.99619e-05
30 *1305:A1 *1312:B1 2.50049e-05
31 *1305:A1 *1327:C1 7.06865e-05
32 *1305:A1 *155:16 0
33 *1305:A1 *223:10 0.000140905
34 *1305:A1 *223:23 0.000150446
35 *1305:A1 *225:10 0
36 *1305:A1 *243:10 1.48813e-05
37 *1305:A1 *243:36 5.21545e-05
38 *1305:A1 *339:23 1.33293e-05
39 *81:31 *339:23 8.5841e-05
40 *81:38 *339:23 2.26018e-05
41 *81:38 *340:22 0.000164352
42 *81:49 *1122:A 4.18603e-06
43 *81:49 *1300:A_N 0
44 *81:49 *1301:B2 0.00022282
45 *81:49 *231:10 0.000181383
46 *81:49 *287:10 0.000349705
47 *81:49 *340:22 2.75145e-05
48 *81:49 *340:33 1.91597e-05
49 *81:62 *1122:A 6.7449e-05
50 *81:62 *1220:A2 0
51 *81:62 *1220:B1 1.01874e-05
52 *81:62 *1221:B2 1.8517e-05
53 *81:62 *1221:C1 4.60584e-05
54 *81:62 *287:10 0.000600327
55 *81:62 *341:56 0.000139067
56 *81:81 *1220:A2 4.49498e-05
57 *81:81 *287:10 0
58 *1219:B2 *1208:A 6.90876e-05
59 *1349:D *1208:A 3.00381e-05
60 *80:18 *81:49 0
*RES
1 *1112:Y *81:4 1.6 
2 *81:4 *1305:A1 17.99 
3 *81:4 *81:31 2.55 
4 *81:31 *1300:B 1.6 
5 *81:31 *81:38 3.21 
6 *81:38 *1123:B 1.6 
7 *81:38 *81:49 9.53 
8 *81:49 *1280:A2 3.6 
9 *81:49 *81:62 10.475 
10 *81:62 *1220:A1 3.91 
11 *81:62 *81:81 5.38 
12 *81:81 *1224:A1 1.6 
13 *81:81 *1208:A 8.29 
*END

*D_NET *82 0.00580059
*CONN
*I *1129:B I *D sky130_fd_sc_hd__nand2_1
*I *1207:A I *D sky130_fd_sc_hd__nor2_1
*I *1222:B2 I *D sky130_fd_sc_hd__o22ai_1
*I *1219:A1 I *D sky130_fd_sc_hd__a22o_1
*I *1290:A I *D sky130_fd_sc_hd__nor2_1
*I *1113:Y O *D sky130_fd_sc_hd__inv_2
*CAP
1 *1129:B 0.00020842
2 *1207:A 4.3774e-05
3 *1222:B2 0
4 *1219:A1 0
5 *1290:A 0.000382573
6 *1113:Y 0
7 *82:40 0.000240259
8 *82:31 0.000720638
9 *82:19 0.000750348
10 *82:4 0.000400348
11 *1129:B *1281:C1 7.35729e-05
12 *1129:B *337:77 0.000119654
13 *1207:A *1223:A2 4.99619e-05
14 *1207:A *332:10 7.66159e-05
15 *1290:A *1281:A1 0
16 *1290:A *1281:A2 0
17 *1290:A *1281:C1 0.000125857
18 *1290:A *90:10 0
19 *1290:A *93:10 0.0004211
20 *1290:A *208:6 0.000238919
21 *1290:A *259:25 0.000237238
22 *1290:A *337:34 0
23 *82:31 *1113:A 0.000161141
24 *82:31 *1221:A2 0
25 *82:31 *1280:B1 3.15506e-05
26 *82:31 *1281:C1 1.12578e-05
27 *82:31 *90:10 1.08758e-05
28 *82:31 *287:10 0.000379603
29 *82:40 *1116:A 0.000108785
30 *82:40 *1219:A2 0.000257443
31 *82:40 *1222:B1 7.35813e-05
32 *82:40 *1223:A2 0.0001249
33 *82:40 *1223:D1 0.000109939
34 *82:40 *1224:C1 0.000326116
35 *1222:A1 *1207:A 8.42843e-05
36 *1222:A1 *82:40 1.83847e-05
37 *1223:A1 *82:40 1.34503e-05
*RES
1 *1113:Y *82:4 1.6 
2 *82:4 *1290:A 15.53 
3 *82:4 *82:19 0.36 
4 *82:19 *82:31 14.305 
5 *82:31 *1219:A1 1.6 
6 *82:31 *82:40 7.275 
7 *82:40 *1222:B2 1.6 
8 *82:40 *1207:A 3.4825 
9 *82:19 *1129:B 5.86 
*END

*D_NET *83 0.000636183
*CONN
*I *1273:A1 I *D sky130_fd_sc_hd__a41o_1
*I *1114:Y O *D sky130_fd_sc_hd__inv_2
*CAP
1 *1273:A1 0.000158427
2 *1114:Y 0.000158427
3 *1273:A1 *1271:A 2.16833e-05
4 *1273:A1 *172:12 2.05056e-05
5 *1273:A1 *172:38 5.83121e-06
6 *1273:A1 *267:14 0.000271308
*RES
1 *1114:Y *1273:A1 6.41 
*END

*D_NET *84 0.000235952
*CONN
*I *1292:A1 I *D sky130_fd_sc_hd__a21oi_1
*I *1115:Y O *D sky130_fd_sc_hd__inv_2
*CAP
1 *1292:A1 6.55316e-05
2 *1115:Y 6.55316e-05
3 *1292:A1 *1213:A2 7.81954e-05
4 *1292:A1 *1293:A2 2.66935e-05
5 *1292:A1 *222:10 0
*RES
1 *1115:Y *1292:A1 8.835 
*END

*D_NET *85 0.000602494
*CONN
*I *1221:A2 I *D sky130_fd_sc_hd__a221o_1
*I *1116:Y O *D sky130_fd_sc_hd__inv_2
*CAP
1 *1221:A2 0.000207498
2 *1116:Y 0.000207498
3 *1221:A2 *1223:C1 0
4 *1221:A2 *86:12 0.000181965
5 *1221:A2 *287:10 0
6 *1219:B2 *1221:A2 5.53249e-06
7 *82:31 *1221:A2 0
*RES
1 *1116:Y *1221:A2 10.7475 
*END

*D_NET *86 0.00358919
*CONN
*I *1221:B1 I *D sky130_fd_sc_hd__a221o_1
*I *1220:B1 I *D sky130_fd_sc_hd__o22ai_1
*I *1117:Y O *D sky130_fd_sc_hd__inv_2
*CAP
1 *1221:B1 0
2 *1220:B1 7.93558e-05
3 *1117:Y 0.000951271
4 *86:12 0.00103063
5 *1220:B1 *1220:B2 4.82863e-05
6 *1220:B1 *1221:A1 0.000252214
7 *1220:B1 *1221:B2 9.4538e-05
8 *86:12 *1117:A 0
9 *86:12 *1221:A1 1.17409e-05
10 *86:12 *1223:C1 0.000392136
11 *86:12 *247:151 0
12 *86:12 *250:50 0.000536874
13 *1221:A2 *86:12 0.000181965
14 *81:62 *1220:B1 1.01874e-05
*RES
1 *1117:Y *86:12 23.045 
2 *86:12 *1220:B1 4.3 
3 *86:12 *1221:B1 1.6 
*END

*D_NET *87 0.0137578
*CONN
*I *1210:B I *D sky130_fd_sc_hd__and2_1
*I *1316:B1 I *D sky130_fd_sc_hd__o31a_1
*I *1296:A1 I *D sky130_fd_sc_hd__a21oi_1
*I *1287:A1 I *D sky130_fd_sc_hd__a41o_1
*I *1312:C1 I *D sky130_fd_sc_hd__o311a_1
*I *1318:B1 I *D sky130_fd_sc_hd__o21a_1
*I *1317:B1 I *D sky130_fd_sc_hd__o21a_1
*I *1205:B1 I *D sky130_fd_sc_hd__o21a_1
*I *1329:B1 I *D sky130_fd_sc_hd__o21a_1
*I *1118:Y O *D sky130_fd_sc_hd__inv_2
*CAP
1 *1210:B 3.37437e-05
2 *1316:B1 0
3 *1296:A1 0.000120711
4 *1287:A1 0.000134036
5 *1312:C1 0.000628431
6 *1318:B1 9.13911e-05
7 *1317:B1 0
8 *1205:B1 0.00028984
9 *1329:B1 0.000173845
10 *1118:Y 0.000177141
11 *87:83 0.00040085
12 *87:64 0.00254382
13 *87:48 9.13911e-05
14 *87:33 0.00033601
15 *87:31 0.00218662
16 *87:25 0.000663781
17 *87:12 0.000637645
18 *87:8 0.000382063
19 *1205:B1 *250:35 0.000250098
20 *1210:B *1210:A 5.4003e-05
21 *1210:B *247:138 0
22 *1287:A1 *1287:A2 5.05521e-05
23 *1287:A1 *1287:A3 0
24 *1287:A1 *214:10 0
25 *1287:A1 *221:12 2.03578e-05
26 *1287:A1 *243:14 7.54567e-05
27 *1296:A1 *1295:B1_N 4.47125e-05
28 *1296:A1 *1296:B1 4.66108e-05
29 *1296:A1 *214:19 0.000263002
30 *1296:A1 *221:12 0.000113247
31 *1312:C1 *1287:A3 0
32 *1312:C1 *1306:A_N 0
33 *1312:C1 *1312:A3 0
34 *1312:C1 *211:16 0
35 *1318:B1 *254:12 0.000238919
36 *1329:B1 *341:22 0.000124895
37 *87:8 *1118:A 4.87218e-05
38 *87:8 *1210:A 2.75229e-05
39 *87:12 *1210:A 0.000186092
40 *87:12 *1433:A 0
41 *87:12 *247:123 0
42 *87:12 *247:138 0
43 *87:25 *1316:A2 0.000158762
44 *87:25 *1382:A 0.000222061
45 *87:25 *1433:A 0
46 *87:25 *1434:A 0.000210151
47 *87:25 *247:88 0
48 *87:25 *247:123 0
49 *87:31 *1317:A2 1.71013e-05
50 *87:31 *1318:A1 0
51 *87:31 *1318:A2 0
52 *87:31 *1382:A 0.000161623
53 *87:31 *1434:A 0.000117825
54 *87:31 *250:35 0.000291298
55 *87:33 *1317:A1 2.03321e-05
56 *87:33 *1317:A2 3.86529e-05
57 *87:33 *250:35 0.000132089
58 *87:64 *1326:B1 9.07709e-05
59 *87:64 *1326:C1 4.58257e-05
60 *87:64 *1380:CLK 2.30292e-05
61 *87:64 *1402:A 1.78384e-05
62 *87:64 *155:16 0.0012075
63 *87:64 *247:96 3.46272e-05
64 *87:83 *221:12 0.000108543
65 *87:83 *243:14 7.97078e-05
66 *87:83 *243:36 2.88519e-05
67 group_error *1205:B1 0
68 *1346:D *1205:B1 9.37731e-05
69 *1374:D *87:64 0.000221968
70 *1375:D *87:31 0
71 *1424:A *1205:B1 0
*RES
1 *1118:Y *87:8 5.775 
2 *87:8 *87:12 5.42 
3 *87:12 *1329:B1 4.465 
4 *87:12 *87:25 9.275 
5 *87:25 *87:31 7.98 
6 *87:31 *87:33 1.635 
7 *87:33 *1205:B1 10.125 
8 *87:33 *87:48 2 
9 *87:48 *1317:B1 1.6 
10 *87:48 *1318:B1 3.775 
11 *87:31 *87:64 24.875 
12 *87:64 *1312:C1 12.95 
13 *87:64 *87:83 5.42 
14 *87:83 *1287:A1 6.54 
15 *87:83 *1296:A1 7.155 
16 *87:25 *1316:B1 3.6 
17 *87:8 *1210:B 4.47 
*END

*D_NET *88 0.00637594
*CONN
*I *1134:A I *D sky130_fd_sc_hd__and4_1
*I *1145:A1 I *D sky130_fd_sc_hd__a31oi_1
*I *1120:A I *D sky130_fd_sc_hd__inv_2
*I *1218:A1 I *D sky130_fd_sc_hd__o221a_1
*I *1321:B2 I *D sky130_fd_sc_hd__o221a_1
*I *1119:X O *D sky130_fd_sc_hd__or4b_2
*CAP
1 *1134:A 0
2 *1145:A1 0
3 *1120:A 0
4 *1218:A1 0.00032763
5 *1321:B2 2.6412e-05
6 *1119:X 9.68715e-05
7 *88:57 0.00140506
8 *88:30 0.00127234
9 *88:18 0.000516297
10 *88:12 0.000444679
11 *1218:A1 *1217:C1 0.000162325
12 *1218:A1 *1218:B1 0
13 *1218:A1 *157:12 4.82919e-05
14 *1218:A1 *157:21 0.000148977
15 *1218:A1 *243:14 8.34426e-05
16 *1218:A1 *260:38 0.000139944
17 *1218:A1 *270:38 0.000360604
18 *1321:B2 *1321:A2 2.75229e-05
19 *1321:B2 *109:8 5.05521e-05
20 *88:12 *1125:A 9.47454e-05
21 *88:12 *1125:C 3.86607e-05
22 *88:12 *96:14 2.09165e-05
23 *88:12 *309:30 2.90086e-05
24 *88:12 *311:23 6.15576e-06
25 *88:18 *110:10 0.00020003
26 *88:18 *309:19 0
27 *88:18 *309:30 0
28 *88:18 *311:23 5.22145e-05
29 *88:30 *1145:A3 0.000138973
30 *88:30 *1321:A2 1.92617e-05
31 *88:30 *1321:B1 8.37092e-06
32 *88:30 *109:8 2.02929e-05
33 *88:57 *1150:B 8.41015e-06
34 *88:57 *1156:D1 1.88656e-05
35 *88:57 *104:14 0.000545469
36 *88:57 *245:25 0
37 *88:57 *253:14 6.36199e-05
*RES
1 *1119:X *88:12 6.045 
2 *88:12 *88:18 8.57 
3 *88:18 *88:30 3.81 
4 *88:30 *1321:B2 2.395 
5 *88:30 *88:57 12.7266 
6 *88:57 *1218:A1 14.36 
7 *88:57 *1120:A 1.6 
8 *88:18 *1145:A1 1.6 
9 *88:12 *1134:A 3.6 
*END

*D_NET *89 0.000571674
*CONN
*I *1280:B1 I *D sky130_fd_sc_hd__a21oi_1
*I *1121:Y O *D sky130_fd_sc_hd__nor3_1
*CAP
1 *1280:B1 9.86917e-05
2 *1121:Y 9.86917e-05
3 *1280:B1 *1113:A 0.000162089
4 *1280:B1 *1121:B 2.67022e-05
5 *1280:B1 *1281:C1 0.000120655
6 *1280:B1 *90:10 1.47256e-05
7 *1280:A1 *1280:B1 1.85674e-05
8 *82:31 *1280:B1 3.15506e-05
*RES
1 *1121:Y *1280:B1 10.08 
*END

*D_NET *90 0.00156393
*CONN
*I *1127:C I *D sky130_fd_sc_hd__or3_1
*I *1123:C I *D sky130_fd_sc_hd__or3_2
*I *1122:X O *D sky130_fd_sc_hd__or3_1
*CAP
1 *1127:C 0
2 *1123:C 0.000115564
3 *1122:X 0.000323967
4 *90:10 0.000439531
5 *1123:C *1301:B2 5.72916e-05
6 *1123:C *1308:D 9.50342e-06
7 *1123:C *93:10 6.14776e-05
8 *1123:C *339:23 0.00015896
9 *1123:C *340:33 0.000160635
10 *90:10 *1122:B 7.92464e-06
11 *90:10 *1308:D 4.21314e-05
12 *90:10 *93:10 2.66935e-05
13 *90:10 *287:10 0.000104283
14 *1280:A1 *90:10 3.03684e-05
15 *1280:B1 *90:10 1.47256e-05
16 *1290:A *90:10 0
17 *82:31 *90:10 1.08758e-05
*RES
1 *1122:X *90:10 9.105 
2 *90:10 *1123:C 6.975 
3 *90:10 *1127:C 3.6 
*END

*D_NET *91 0.00338837
*CONN
*I *1307:A I *D sky130_fd_sc_hd__or3b_1
*I *1324:B I *D sky130_fd_sc_hd__or4_1
*I *1124:A I *D sky130_fd_sc_hd__inv_2
*I *1213:A1 I *D sky130_fd_sc_hd__a21oi_1
*I *1123:X O *D sky130_fd_sc_hd__or3_2
*CAP
1 *1307:A 0
2 *1324:B 0.000163744
3 *1124:A 5.66106e-05
4 *1213:A1 0
5 *1123:X 0.00055741
6 *91:16 0.000196845
7 *91:12 0.000315275
8 *91:10 0.000568706
9 *1124:A *1213:B1 0.00012657
10 *1124:A *156:10 5.05521e-05
11 *1124:A *255:10 4.60584e-05
12 *1324:B *1324:C 2.75229e-05
13 *91:10 *1291:A 0.000176873
14 *91:10 *1300:A_N 0
15 *91:10 *1301:A1_N 0
16 *91:10 *1302:A1 4.18203e-05
17 *91:10 *1304:B 7.55313e-05
18 *91:10 *1304:D 0.000137571
19 *91:10 *1309:A3 0
20 *91:10 *1309:B1 0.00012593
21 *91:10 *1327:A1 0
22 *91:10 *215:10 0.00011379
23 *91:10 *225:10 0
24 *91:10 *231:10 0.000208121
25 *91:10 *254:27 0.000351152
26 *91:10 *259:31 0
27 *91:10 *330:73 0
28 *91:10 *339:23 4.82863e-05
29 *91:10 *340:22 0
30 *91:12 *330:73 0
31 *91:16 *330:73 0
*RES
1 *1123:X *91:10 17.16 
2 *91:10 *91:12 0.2325 
3 *91:12 *91:16 4.0175 
4 *91:16 *1213:A1 1.6 
5 *91:16 *1124:A 3.43 
6 *91:12 *1324:B 5.6775 
7 *91:10 *1307:A 3.6 
*END

*D_NET *92 0.00109684
*CONN
*I *1126:A I *D sky130_fd_sc_hd__inv_2
*I *1134:B I *D sky130_fd_sc_hd__and4_1
*I *1125:X O *D sky130_fd_sc_hd__or4b_1
*CAP
1 *1126:A 0.000162955
2 *1134:B 7.18478e-05
3 *1125:X 0
4 *92:4 0.000234803
5 *1126:A *1125:A 9.80032e-06
6 *1126:A *1125:B 8.40213e-05
7 *1126:A *1125:D_N 0.00026908
8 *1134:B *1125:A 9.11179e-05
9 *1134:B *1125:B 1.12578e-05
10 *1134:B *1125:C 4.21973e-05
11 *1134:B *1125:D_N 0
12 *1134:B *1134:C 0
13 *1134:B *96:14 0.000119756
*RES
1 *1125:X *92:4 1.6 
2 *92:4 *1134:B 3.7 
3 *92:4 *1126:A 5.08 
*END

*D_NET *93 0.00690213
*CONN
*I *1130:B1 I *D sky130_fd_sc_hd__o21ai_1
*I *1301:A1_N I *D sky130_fd_sc_hd__a2bb2o_1
*I *1309:A3 I *D sky130_fd_sc_hd__o311a_1
*I *1325:B1 I *D sky130_fd_sc_hd__a2bb2o_1
*I *1127:X O *D sky130_fd_sc_hd__or3_1
*CAP
1 *1130:B1 0.000837152
2 *1301:A1_N 0.000100408
3 *1309:A3 7.40972e-05
4 *1325:B1 0.000258282
5 *1127:X 0
6 *93:27 0.000610136
7 *93:10 0.00109065
8 *93:4 0.00123389
9 *1130:B1 *1329:A2 9.91801e-05
10 *1130:B1 *202:25 0.000224698
11 *1130:B1 *206:12 0.000913966
12 *1130:B1 *247:84 7.99093e-05
13 *1130:B1 *247:123 1.07797e-05
14 *1130:B1 *261:6 5.83121e-06
15 *1301:A1_N *1292:A2 2.85206e-05
16 *1301:A1_N *1301:B1 8.40269e-05
17 *1301:A1_N *1302:A1 2.52525e-06
18 *1301:A1_N *216:8 2.49909e-05
19 *1309:A3 *1292:A2 7.89767e-05
20 *1309:A3 *1309:B1 9.50342e-06
21 *1325:B1 *1325:B2 0.000199541
22 *1325:B1 *1327:A1 8.8266e-05
23 *1325:B1 *1327:A2 0.000164874
24 *1325:B1 *231:10 0
25 *1325:B1 *337:34 0
26 *93:10 *1301:B2 0
27 *93:10 *202:25 4.66108e-05
28 *93:10 *231:10 0
29 *93:10 *337:34 0
30 *93:27 *1301:B1 8.65961e-05
31 *93:27 *1301:B2 1.57776e-05
32 *93:27 *216:8 2.36616e-05
33 *1123:C *93:10 6.14776e-05
34 *1290:A *93:10 0.0004211
35 *90:10 *93:10 2.66935e-05
36 *91:10 *1301:A1_N 0
37 *91:10 *1309:A3 0
*RES
1 *1127:X *93:4 1.6 
2 *93:4 *93:10 9.95 
3 *93:10 *1325:B1 9.225 
4 *93:10 *93:27 8.935 
5 *93:27 *1309:A3 5.235 
6 *93:27 *1301:A1_N 5.565 
7 *93:4 *1130:B1 18.725 
*END

*D_NET *94 0.00100507
*CONN
*I *1130:A1 I *D sky130_fd_sc_hd__o21ai_1
*I *1212:A I *D sky130_fd_sc_hd__or2_1
*I *1128:X O *D sky130_fd_sc_hd__or3_1
*CAP
1 *1130:A1 0.000237043
2 *1212:A 0
3 *1128:X 9.44921e-05
4 *94:8 0.000331535
5 *1130:A1 *1130:A2 2.8185e-05
6 *1130:A1 *1212:B 7.57202e-05
7 *1130:A1 *1401:A 0.000157343
8 *94:8 *1128:A 1.08758e-05
9 *94:8 *1212:B 4.66108e-05
10 *94:8 *1401:A 2.32597e-05
*RES
1 *1128:X *94:8 3.1 
2 *94:8 *1212:A 1.6 
3 *94:8 *1130:A1 5.86 
*END

*D_NET *95 0.002175
*CONN
*I *1279:A1 I *D sky130_fd_sc_hd__a31o_1
*I *1130:A2 I *D sky130_fd_sc_hd__o21ai_1
*I *1129:Y O *D sky130_fd_sc_hd__nand2_1
*CAP
1 *1279:A1 0
2 *1130:A2 0.000338143
3 *1129:Y 0.000162925
4 *95:10 0.000501069
5 *1130:A2 *1206:A 4.61744e-05
6 *1130:A2 *1212:B 0.00015997
7 *1130:A2 *1401:A 0.000352161
8 *1130:A2 *154:10 9.50342e-06
9 *1130:A2 *155:16 1.71013e-05
10 *1130:A2 *250:50 0
11 *1130:A2 *269:94 0
12 *95:10 *1129:A 4.66742e-05
13 *95:10 *1206:A 6.65717e-05
14 *95:10 *154:10 0.000304927
15 *95:10 *341:22 0.000141592
16 *1130:A1 *1130:A2 2.8185e-05
*RES
1 *1129:Y *95:10 8.07 
2 *95:10 *1130:A2 10.245 
3 *95:10 *1279:A1 3.6 
*END

*D_NET *96 0.00463479
*CONN
*I *1134:C I *D sky130_fd_sc_hd__and4_1
*I *1145:A2 I *D sky130_fd_sc_hd__a31oi_1
*I *1150:A I *D sky130_fd_sc_hd__or3_1
*I *1132:A I *D sky130_fd_sc_hd__inv_2
*I *1149:A I *D sky130_fd_sc_hd__nor2_1
*I *1131:X O *D sky130_fd_sc_hd__or4b_2
*CAP
1 *1134:C 2.14525e-05
2 *1145:A2 0
3 *1150:A 0
4 *1132:A 0
5 *1149:A 0.000271314
6 *1131:X 0.000259753
7 *96:32 0.000351721
8 *96:26 0.000321768
9 *96:20 0.00060404
10 *96:14 0.000643884
11 *1149:A *1144:A 0.000134249
12 *1149:A *1148:C 0
13 *1149:A *1149:B 7.86524e-05
14 *1149:A *1150:C 2.42148e-05
15 *1149:A *1156:A2 0
16 *1149:A *1157:B1 8.65961e-05
17 *1149:A *1321:B1 7.23706e-05
18 *1149:A *98:10 0.00017688
19 *1149:A *122:12 4.60584e-05
20 *1149:A *245:25 0
21 *1149:A *255:32 0
22 *96:14 *1125:A 9.30787e-05
23 *96:14 *1125:B 8.82557e-05
24 *96:14 *1125:C 1.61831e-05
25 *96:14 *1131:C 0.00023468
26 *96:14 *311:23 3.59531e-06
27 *96:14 *311:36 6.40897e-05
28 *96:20 *1125:B 2.75229e-05
29 *96:20 *1125:C 4.9253e-06
30 *96:20 *1134:D 1.83756e-05
31 *96:20 *1150:B 0
32 *96:20 *1157:B1 4.18603e-06
33 *96:20 *1322:C 6.15731e-05
34 *96:20 *101:16 6.59716e-05
35 *96:26 *1150:B 4.58166e-05
36 *96:26 *1157:B1 0.000483011
37 *96:32 *1150:B 7.00889e-06
38 *96:32 *1150:C 4.99619e-05
39 *96:32 *1157:B1 4.63347e-05
40 *96:32 *122:12 8.65905e-05
41 *1134:B *1134:C 0
42 *1134:B *96:14 0.000119756
43 *88:12 *96:14 2.09165e-05
*RES
1 *1131:X *96:14 10.895 
2 *96:14 *96:20 8.39 
3 *96:20 *96:26 7.79 
4 *96:26 *96:32 2.205 
5 *96:32 *1149:A 12.365 
6 *96:32 *1132:A 1.6 
7 *96:26 *1150:A 1.6 
8 *96:20 *1145:A2 3.6 
9 *96:14 *1134:C 1.96 
*END

*D_NET *97 0.00122325
*CONN
*I *1155:B1 I *D sky130_fd_sc_hd__o31ai_1
*I *1132:Y O *D sky130_fd_sc_hd__inv_2
*CAP
1 *1155:B1 0.000245165
2 *1132:Y 0.000245165
3 *1155:B1 *1148:A 0
4 *1155:B1 *1148:C 1.60203e-05
5 *1155:B1 *1155:A1 0.000239807
6 *1155:B1 *108:25 0.000164874
7 *1155:B1 *122:12 4.82919e-05
8 *1155:B1 *245:25 0.000234674
9 *1155:B1 *245:31 2.92496e-05
*RES
1 *1132:Y *1155:B1 13.185 
*END

*D_NET *98 0.00391671
*CONN
*I *1134:D I *D sky130_fd_sc_hd__and4_1
*I *1156:B1 I *D sky130_fd_sc_hd__a2111o_1
*I *1144:A I *D sky130_fd_sc_hd__or3_1
*I *1133:X O *D sky130_fd_sc_hd__or4b_1
*CAP
1 *1134:D 0.000223375
2 *1156:B1 0.000315372
3 *1144:A 8.5667e-05
4 *1133:X 0
5 *98:10 0.00104713
6 *98:4 0.000869462
7 *1134:D *1133:C 4.66742e-05
8 *1134:D *1136:C 7.23533e-05
9 *1134:D *1159:B_N 9.50342e-06
10 *1134:D *308:12 5.30673e-05
11 *1134:D *308:21 2.7441e-05
12 *1134:D *309:30 7.06865e-05
13 *1144:A *1149:B 0.000134249
14 *1144:A *1321:B1 8.40213e-05
15 *1144:A *109:8 7.00889e-06
16 *1156:B1 *1146:B 7.61941e-05
17 *1156:B1 *1389:A 1.56428e-05
18 *1156:B1 *245:25 9.30717e-05
19 *98:10 *1149:B 0.000183738
20 *98:10 *1319:A3 0.000107112
21 *98:10 *1319:B1 2.50702e-05
22 *98:10 *269:53 1.03323e-05
23 *98:10 *308:12 3.00381e-05
24 *1149:A *1144:A 0.000134249
25 *1149:A *98:10 0.00017688
26 *96:20 *1134:D 1.83756e-05
*RES
1 *1133:X *98:4 1.6 
2 *98:4 *98:10 11.15 
3 *98:10 *1144:A 6.03 
4 *98:10 *1156:B1 11.59 
5 *98:4 *1134:D 9.095 
*END

*D_NET *99 0.00290046
*CONN
*I *1136:C I *D sky130_fd_sc_hd__or3_2
*I *1159:B_N I *D sky130_fd_sc_hd__and4bb_1
*I *1134:X O *D sky130_fd_sc_hd__and4_1
*CAP
1 *1136:C 0.000648759
2 *1159:B_N 0.000384329
3 *1134:X 0
4 *99:6 0.00103309
5 *1136:C *1133:B 7.4027e-05
6 *1136:C *1346:CLK 0
7 *1136:C *101:10 8.65961e-05
8 *1136:C *101:16 0
9 *1136:C *250:35 0
10 *1136:C *308:12 0
11 *1136:C *309:30 1.26626e-05
12 *1136:C *309:43 4.29069e-05
13 *1136:C *310:10 0.000144965
14 *1159:B_N *1157:B1 0
15 *1159:B_N *101:16 0
16 *1159:B_N *245:71 5.05437e-05
17 *1159:B_N *309:19 0.00028617
18 *1159:B_N *309:30 5.45594e-05
19 *1134:D *1136:C 7.23533e-05
20 *1134:D *1159:B_N 9.50342e-06
*RES
1 *1134:X *99:6 3.6 
2 *99:6 *1159:B_N 11.64 
3 *99:6 *1136:C 15.42 
*END

*D_NET *100 0.00289014
*CONN
*I *1319:A1 I *D sky130_fd_sc_hd__a31o_1
*I *1328:A1 I *D sky130_fd_sc_hd__a21o_1
*I *1135:Y O *D sky130_fd_sc_hd__nor2_1
*CAP
1 *1319:A1 0.000446672
2 *1328:A1 9.47919e-05
3 *1135:Y 0.000387866
4 *100:6 0.000929329
5 *1319:A1 *1322:C 0
6 *1319:A1 *101:10 0
7 *1319:A1 *269:57 0.000519815
8 *1319:A1 *269:66 0.000139245
9 *1319:A1 *269:79 0.000209179
10 *1328:A1 *269:94 4.66108e-05
11 *100:6 *1135:B 3.00381e-05
12 *100:6 *269:94 8.65961e-05
*RES
1 *1135:Y *100:6 7.915 
2 *100:6 *1328:A1 3.1 
3 *100:6 *1319:A1 15.65 
*END

*D_NET *101 0.00726074
*CONN
*I *1205:A2 I *D sky130_fd_sc_hd__o21a_1
*I *1322:B I *D sky130_fd_sc_hd__nor3_1
*I *1145:B1 I *D sky130_fd_sc_hd__a31oi_1
*I *1157:B1 I *D sky130_fd_sc_hd__a31o_1
*I *1136:X O *D sky130_fd_sc_hd__or3_2
*CAP
1 *1205:A2 0.000471047
2 *1322:B 0.000236635
3 *1145:B1 0
4 *1157:B1 0.000498108
5 *1136:X 0.000418961
6 *101:48 0.000707681
7 *101:16 0.00109039
8 *101:10 0.00101124
9 *1157:B1 *1148:B 8.73389e-06
10 *1157:B1 *1150:C 3.25676e-05
11 *1157:B1 *1151:B1 0.000452847
12 *1157:B1 *1157:A1 9.22715e-05
13 *1157:B1 *1157:A3 0.000213166
14 *1157:B1 *1321:B1 0.000422743
15 *1157:B1 *1321:C1 4.99619e-05
16 *1157:B1 *113:8 0.000122331
17 *1157:B1 *122:12 8.59944e-05
18 *1205:A2 *1346:CLK 0.000207198
19 *1205:A2 *310:10 4.82919e-05
20 *1322:B *1346:CLK 1.323e-05
21 *1322:B *245:127 1.33293e-05
22 *101:10 *1322:C 0
23 *101:16 *1322:C 0
24 *101:16 *308:12 0.000143266
25 *1136:C *101:10 8.65961e-05
26 *1136:C *101:16 0
27 *1149:A *1157:B1 8.65961e-05
28 *1159:B_N *1157:B1 0
29 *1159:B_N *101:16 0
30 *1319:A1 *101:10 0
31 *1346:D *1205:A2 1.4399e-05
32 *1378:D *1322:B 0.000133647
33 *96:20 *1157:B1 4.18603e-06
34 *96:20 *101:16 6.59716e-05
35 *96:26 *1157:B1 0.000483011
36 *96:32 *1157:B1 4.63347e-05
*RES
1 *1136:X *101:10 8.955 
2 *101:10 *101:16 10.35 
3 *101:16 *1157:B1 19.065 
4 *101:16 *1145:B1 3.6 
5 *101:10 *101:48 2 
6 *101:48 *1322:B 4.825 
7 *101:48 *1205:A2 9.07 
*END

*D_NET *102 0.00507995
*CONN
*I *1147:D1 I *D sky130_fd_sc_hd__o2111a_1
*I *1184:A1 I *D sky130_fd_sc_hd__a21o_1
*I *1181:A I *D sky130_fd_sc_hd__nand2_1
*I *1137:X O *D sky130_fd_sc_hd__and3_1
*CAP
1 *1147:D1 0.00105355
2 *1184:A1 0
3 *1181:A 5.21699e-05
4 *1137:X 0.000196723
5 *102:23 0.00120436
6 *102:10 0.0003997
7 *1147:D1 *1152:A1 0.000310323
8 *1147:D1 *1155:A1 1.08758e-05
9 *1147:D1 *108:14 0.000125284
10 *1147:D1 *112:6 0.000113872
11 *1147:D1 *245:37 0
12 *1147:D1 *245:41 0
13 *1181:A *103:6 9.4087e-05
14 *1181:A *133:41 4.89587e-05
15 *1181:A *133:48 8.8266e-05
16 *102:10 *1182:A1 0.000351268
17 *102:10 *1182:A2 1.61831e-05
18 *102:10 *103:6 0.00045107
19 *102:10 *133:48 0.000235172
20 *102:10 *324:36 0.000201508
21 *102:10 *325:19 0.00012657
22 *102:23 *245:41 0
*RES
1 *1137:X *102:10 9.76 
2 *102:10 *1181:A 3.445 
3 *102:10 *102:23 4.145 
4 *102:23 *1184:A1 3.6 
5 *102:23 *1147:D1 18.1575 
*END

*D_NET *103 0.00759849
*CONN
*I *1185:A I *D sky130_fd_sc_hd__nand2_1
*I *1139:B1 I *D sky130_fd_sc_hd__o211a_1
*I *1152:C1 I *D sky130_fd_sc_hd__o211a_1
*I *1188:B I *D sky130_fd_sc_hd__and3_1
*I *1190:C I *D sky130_fd_sc_hd__and4_1
*I *1187:A1 I *D sky130_fd_sc_hd__a21o_1
*I *1138:X O *D sky130_fd_sc_hd__and4_1
*CAP
1 *1185:A 7.89292e-05
2 *1139:B1 6.43723e-05
3 *1152:C1 2.25496e-05
4 *1188:B 0.000425869
5 *1190:C 0.000230418
6 *1187:A1 6.12044e-05
7 *1138:X 0.000537288
8 *103:51 0.000335555
9 *103:34 0.000674502
10 *103:25 0.000638657
11 *103:10 0.000666448
12 *103:6 0.000813222
13 *1139:B1 *1139:C1 7.97083e-05
14 *1139:B1 *265:57 7.21296e-06
15 *1139:B1 *322:14 0.000187766
16 *1152:C1 *1152:A1 0.000123225
17 *1152:C1 *1152:A2 7.49327e-05
18 *1152:C1 *322:20 4.82919e-05
19 *1185:A *245:41 0
20 *1185:A *270:8 0.000139245
21 *1187:A1 *1432:A 0
22 *1187:A1 *289:8 7.63883e-05
23 *1188:B *1188:A 1.03323e-05
24 *1188:B *105:10 3.9442e-05
25 *1188:B *143:12 0.000116165
26 *1188:B *265:33 7.66727e-05
27 *1188:B *265:42 3.98782e-05
28 *1188:B *313:19 0
29 *1188:B *314:10 0.000221997
30 *1188:B *314:23 7.8848e-05
31 *1190:C *1140:A 0.00012657
32 *1190:C *1190:B 6.52265e-05
33 *1190:C *314:23 0.000124895
34 *103:6 *133:41 4.7662e-05
35 *103:10 *133:33 4.82919e-05
36 *103:10 *133:41 2.20732e-05
37 *103:10 *133:92 0.00016063
38 *103:25 *1190:B 8.05167e-05
39 *103:25 *1432:A 0
40 *103:25 *289:8 0.000178255
41 *103:51 *1139:C1 2.97004e-06
42 *103:51 *1142:B 0.000212505
43 *103:51 *1147:C1 0
44 *103:51 *105:10 5.73518e-05
45 *103:51 *265:57 5.72655e-05
46 *1181:A *103:6 9.4087e-05
47 *102:10 *103:6 0.00045107
*RES
1 *1138:X *103:6 8.95 
2 *103:6 *103:10 4.52 
3 *103:10 *1187:A1 4.47 
4 *103:10 *103:25 7.7 
5 *103:25 *1190:C 4.81 
6 *103:25 *103:34 2 
7 *103:34 *1188:B 11.79 
8 *103:34 *103:51 5.46 
9 *103:51 *1152:C1 4.74 
10 *103:51 *1139:B1 6 
11 *103:6 *1185:A 7.235 
*END

*D_NET *104 0.00260327
*CONN
*I *1144:B I *D sky130_fd_sc_hd__or3_1
*I *1156:C1 I *D sky130_fd_sc_hd__a2111o_1
*I *1139:X O *D sky130_fd_sc_hd__o211a_1
*CAP
1 *1144:B 0.000145405
2 *1156:C1 0
3 *1139:X 0.000649054
4 *104:14 0.000794459
5 *1144:B *1144:C 7.9205e-06
6 *1144:B *1156:A1 0.000122337
7 *104:14 *1144:C 4.82919e-05
8 *104:14 *1156:A1 3.07961e-05
9 *104:14 *1287:B1 0
10 *104:14 *260:10 4.66108e-05
11 *104:14 *260:38 0.00015896
12 *104:14 *265:57 5.39718e-05
13 *88:57 *104:14 0.000545469
*RES
1 *1139:X *104:14 17.615 
2 *104:14 *1156:C1 1.6 
3 *104:14 *1144:B 3.43 
*END

*D_NET *105 0.00201362
*CONN
*I *1142:A I *D sky130_fd_sc_hd__or2_1
*I *1143:B I *D sky130_fd_sc_hd__or3_1
*I *1140:X O *D sky130_fd_sc_hd__or2_1
*CAP
1 *1142:A 6.91632e-05
2 *1143:B 0
3 *1140:X 0.000324637
4 *105:10 0.0003938
5 *1142:A *1142:B 0.000133763
6 *1142:A *265:57 0.000141599
7 *105:10 *1140:A 0.000111285
8 *105:10 *1142:B 7.70828e-05
9 *105:10 *1190:B 0.000387896
10 *105:10 *144:8 3.00381e-05
11 *105:10 *265:42 0.000158297
12 *105:10 *265:57 8.92701e-05
13 *1188:B *105:10 3.9442e-05
14 *103:51 *105:10 5.73518e-05
*RES
1 *1140:X *105:10 11.79 
2 *105:10 *1143:B 3.6 
3 *105:10 *1142:A 5.685 
*END

*D_NET *106 0.00378014
*CONN
*I *1143:C I *D sky130_fd_sc_hd__or3_1
*I *1142:B I *D sky130_fd_sc_hd__or2_1
*I *1141:X O *D sky130_fd_sc_hd__or3_1
*CAP
1 *1143:C 0
2 *1142:B 6.24311e-05
3 *1141:X 0.00138741
4 *106:10 0.00144984
5 *106:10 *1141:A 8.6076e-05
6 *106:10 *1175:A_N 8.31082e-05
7 *106:10 *1175:B 3.07153e-05
8 *106:10 *1175:C 0.000239813
9 *1142:A *1142:B 0.000133763
10 *1335:D *106:10 1.7386e-05
11 *103:51 *1142:B 0.000212505
12 *105:10 *1142:B 7.70828e-05
*RES
1 *1141:X *106:10 22.78 
2 *106:10 *1142:B 8.45 
3 *106:10 *1143:C 1.6 
*END

*D_NET *107 0.00169355
*CONN
*I *1153:C I *D sky130_fd_sc_hd__or4_1
*I *1154:A3 I *D sky130_fd_sc_hd__o41ai_1
*I *1142:X O *D sky130_fd_sc_hd__or2_1
*CAP
1 *1153:C 8.25966e-05
2 *1154:A3 0
3 *1142:X 0.000251535
4 *107:12 0.000334132
5 *1153:C *1153:A 0.000163204
6 *1153:C *1153:B 3.38425e-05
7 *1153:C *1153:D 7.99093e-05
8 *1153:C *1154:A1 1.19928e-05
9 *1153:C *1154:B1 8.65905e-05
10 *1153:C *1157:A1 0.000351268
11 *107:12 *1152:B1 0.00011379
12 *107:12 *1153:B 5.83121e-06
13 *107:12 *1154:A1 5.07419e-05
14 *107:12 *1154:A2 3.20202e-05
15 *107:12 *1287:B1 0
16 *107:12 *265:57 9.60974e-05
17 *107:12 *289:8 0
*RES
1 *1142:X *107:12 10.505 
2 *107:12 *1154:A3 1.6 
3 *107:12 *1153:C 5.5 
*END

*D_NET *108 0.00426025
*CONN
*I *1156:D1 I *D sky130_fd_sc_hd__a2111o_1
*I *1144:C I *D sky130_fd_sc_hd__or3_1
*I *1148:B I *D sky130_fd_sc_hd__or3_1
*I *1155:A2 I *D sky130_fd_sc_hd__o31ai_1
*I *1143:X O *D sky130_fd_sc_hd__or3_1
*CAP
1 *1156:D1 3.77511e-05
2 *1144:C 0.000204892
3 *1148:B 6.9774e-05
4 *1155:A2 0
5 *1143:X 0.00053554
6 *108:40 0.000401903
7 *108:25 0.000320885
8 *108:14 0.000627392
9 *1144:C *1156:A1 4.79908e-05
10 *1148:B *122:12 4.66108e-05
11 *1156:D1 *245:25 1.52837e-05
12 *108:14 *1155:A1 4.15527e-05
13 *108:14 *1186:A 0.000125182
14 *108:14 *1186:B 8.53113e-06
15 *108:14 *1186:C 9.60582e-07
16 *108:14 *112:6 0.000373877
17 *108:14 *245:37 0
18 *108:14 *270:8 0.00031916
19 *108:25 *1148:C 0.000228149
20 *108:25 *1155:A1 7.35933e-05
21 *108:25 *1157:A2 3.86607e-05
22 *108:25 *112:6 6.9114e-05
23 *108:25 *245:25 0.000114492
24 *108:40 *1157:A2 2.68721e-05
25 *108:40 *1157:A3 3.75216e-05
26 *108:40 *245:25 0.000120595
27 *1144:B *1144:C 7.9205e-06
28 *1147:D1 *108:14 0.000125284
29 *1155:B1 *108:25 0.000164874
30 *1157:B1 *1148:B 8.73389e-06
31 *88:57 *1156:D1 1.88656e-05
32 *104:14 *1144:C 4.82919e-05
*RES
1 *1143:X *108:14 16.5575 
2 *108:14 *1155:A2 1.6 
3 *108:14 *108:25 6.0725 
4 *108:25 *1148:B 4.395 
5 *108:25 *108:40 3.045 
6 *108:40 *1144:C 6.6 
7 *108:40 *1156:D1 4.215 
*END

*D_NET *109 0.00115222
*CONN
*I *1145:A3 I *D sky130_fd_sc_hd__a31oi_1
*I *1321:A1 I *D sky130_fd_sc_hd__o221a_1
*I *1144:X O *D sky130_fd_sc_hd__or3_1
*CAP
1 *1145:A3 5.87577e-05
2 *1321:A1 0
3 *1144:X 0.000343615
4 *109:8 0.000402373
5 *109:8 *1321:B1 8.23627e-05
6 *109:8 *1321:C1 4.82863e-05
7 *1144:A *109:8 7.00889e-06
8 *1321:B2 *109:8 5.05521e-05
9 *88:30 *1145:A3 0.000138973
10 *88:30 *109:8 2.02929e-05
*RES
1 *1144:X *109:8 6.115 
2 *109:8 *1321:A1 1.6 
3 *109:8 *1145:A3 3.085 
*END

*D_NET *110 0.00221917
*CONN
*I *1151:A2 I *D sky130_fd_sc_hd__o21a_1
*I *1323:B I *D sky130_fd_sc_hd__nor2_1
*I *1145:Y O *D sky130_fd_sc_hd__a31oi_1
*CAP
1 *1151:A2 6.26341e-05
2 *1323:B 0.00015497
3 *1145:Y 0.000437727
4 *110:10 0.000655332
5 *1323:B *1159:C 0
6 *1323:B *1393:A 0.000114492
7 *1323:B *245:75 0.000183036
8 *1323:B *250:14 6.88971e-05
9 *1323:B *269:25 3.00355e-05
10 *1323:B *311:10 0.00011852
11 *1323:B *311:23 3.09164e-05
12 *110:10 *250:14 2.97004e-06
13 *110:10 *250:35 4.19797e-05
14 *110:10 *311:23 0.000108322
15 *1379:D *1323:B 9.3062e-06
16 *88:18 *110:10 0.00020003
*RES
1 *1145:Y *110:10 9.915 
2 *110:10 *1323:B 8.235 
3 *110:10 *1151:A2 4.395 
*END

*D_NET *111 0.00166204
*CONN
*I *1319:A2 I *D sky130_fd_sc_hd__a31o_1
*I *1321:A2 I *D sky130_fd_sc_hd__o221a_1
*I *1150:B I *D sky130_fd_sc_hd__or3_1
*I *1146:Y O *D sky130_fd_sc_hd__nand2_1
*CAP
1 *1319:A2 8.91125e-05
2 *1321:A2 4.00008e-05
3 *1150:B 0.000310529
4 *1146:Y 0.000137429
5 *111:10 0.00048095
6 *111:8 0.000356961
7 *1150:B *1156:A1 2.97004e-06
8 *1150:B *1321:C1 4.61196e-05
9 *1150:B *1322:C 0
10 *1150:B *269:53 0
11 *1319:A2 *1322:C 0
12 *1319:A2 *269:53 0
13 *1321:A2 *1321:B1 5.4155e-06
14 *111:8 *1146:A 2.49909e-05
15 *111:10 *1146:A 1.38716e-05
16 *111:10 *1156:A1 4.56685e-05
17 *111:10 *1322:C 0
18 *111:10 *269:53 0
19 *1321:B2 *1321:A2 2.75229e-05
20 *88:30 *1321:A2 1.92617e-05
21 *88:57 *1150:B 8.41015e-06
22 *96:20 *1150:B 0
23 *96:26 *1150:B 4.58166e-05
24 *96:32 *1150:B 7.00889e-06
*RES
1 *1146:Y *111:8 5.085 
2 *111:8 *111:10 2.4 
3 *111:10 *1150:B 7.905 
4 *111:10 *1321:A2 4.41 
5 *111:8 *1319:A2 4.98 
*END

*D_NET *112 0.00277854
*CONN
*I *1148:C I *D sky130_fd_sc_hd__or3_1
*I *1155:A3 I *D sky130_fd_sc_hd__o31ai_1
*I *1147:X O *D sky130_fd_sc_hd__o2111a_1
*CAP
1 *1148:C 0.000160604
2 *1155:A3 0
3 *1147:X 0.00050433
4 *112:6 0.000664934
5 *1148:C *1148:A 0.000136884
6 *1148:C *1157:A2 0.00012657
7 *1148:C *245:25 0.000208255
8 *1148:C *269:53 0
9 *112:6 *1152:A1 1.61831e-05
10 *112:6 *1152:A2 0.000159747
11 *1147:D1 *112:6 0.000113872
12 *1149:A *1148:C 0
13 *1155:B1 *1148:C 1.60203e-05
14 *108:14 *112:6 0.000373877
15 *108:25 *1148:C 0.000228149
16 *108:25 *112:6 6.9114e-05
*RES
1 *1147:X *112:6 10.675 
2 *112:6 *1155:A3 1.6 
3 *112:6 *1148:C 10.355 
*END

*D_NET *113 0.00154241
*CONN
*I *1149:B I *D sky130_fd_sc_hd__nor2_1
*I *1150:C I *D sky130_fd_sc_hd__or3_1
*I *1148:X O *D sky130_fd_sc_hd__or3_1
*CAP
1 *1149:B 0.000177305
2 *1150:C 9.62255e-05
3 *1148:X 8.58066e-05
4 *113:8 0.000359337
5 *1149:B *269:53 0.000177373
6 *1150:C *269:53 2.0648e-05
7 *1144:A *1149:B 0.000134249
8 *1149:A *1149:B 7.86524e-05
9 *1149:A *1150:C 2.42148e-05
10 *1157:B1 *1150:C 3.25676e-05
11 *1157:B1 *113:8 0.000122331
12 *96:32 *1150:C 4.99619e-05
13 *98:10 *1149:B 0.000183738
*RES
1 *1148:X *113:8 4.74 
2 *113:8 *1150:C 5.22 
3 *113:8 *1149:B 9.06 
*END

*D_NET *114 0.000429997
*CONN
*I *1319:A3 I *D sky130_fd_sc_hd__a31o_1
*I *1149:Y O *D sky130_fd_sc_hd__nor2_1
*CAP
1 *1319:A3 9.89926e-05
2 *1149:Y 9.89926e-05
3 *1319:A3 *269:53 0.0001249
4 *98:10 *1319:A3 0.000107112
*RES
1 *1149:Y *1319:A3 5.72 
*END

*D_NET *115 0.00217254
*CONN
*I *1151:B1 I *D sky130_fd_sc_hd__o21a_1
*I *1321:C1 I *D sky130_fd_sc_hd__o221a_1
*I *1150:X O *D sky130_fd_sc_hd__or3_1
*CAP
1 *1151:B1 0.000629591
2 *1321:C1 0.000113735
3 *1150:X 0
4 *115:4 0.000743326
5 *1151:B1 *1159:C 8.51589e-06
6 *1321:C1 *1321:B1 3.23892e-05
7 *1321:C1 *269:53 4.7771e-05
8 *1150:B *1321:C1 4.61196e-05
9 *1157:B1 *1151:B1 0.000452847
10 *1157:B1 *1321:C1 4.99619e-05
11 *109:8 *1321:C1 4.82863e-05
*RES
1 *1150:X *115:4 1.6 
2 *115:4 *1321:C1 7.985 
3 *115:4 *1151:B1 9.565 
*END

*D_NET *116 0.000452159
*CONN
*I *1159:C I *D sky130_fd_sc_hd__and4bb_1
*I *1151:X O *D sky130_fd_sc_hd__o21a_1
*CAP
1 *1159:C 0.000132722
2 *1151:X 0.000132722
3 *1159:C *245:75 1.22676e-05
4 *1159:C *309:19 0.000139238
5 *1159:C *311:10 2.66935e-05
6 *1151:B1 *1159:C 8.51589e-06
7 *1323:B *1159:C 0
*RES
1 *1151:X *1159:C 9.63 
*END

*D_NET *117 0.00106791
*CONN
*I *1153:D I *D sky130_fd_sc_hd__or4_1
*I *1154:A4 I *D sky130_fd_sc_hd__o41ai_1
*I *1152:X O *D sky130_fd_sc_hd__o211a_1
*CAP
1 *1153:D 0.000118356
2 *1154:A4 0
3 *1152:X 7.77347e-05
4 *117:10 0.000196091
5 *1153:D *1153:A 0.0001249
6 *1153:D *1154:A1 0.000237243
7 *1153:D *1154:B1 8.65905e-05
8 *117:10 *1287:B1 7.47284e-05
9 *117:10 *1432:A 0
10 *117:10 *289:8 7.23533e-05
11 *1153:C *1153:D 7.99093e-05
*RES
1 *1152:X *117:10 7.235 
2 *117:10 *1154:A4 1.6 
3 *117:10 *1153:D 5.17 
*END

*D_NET *118 0.00231741
*CONN
*I *1321:B1 I *D sky130_fd_sc_hd__o221a_1
*I *1153:X O *D sky130_fd_sc_hd__or4_1
*CAP
1 *1321:B1 0.000616481
2 *1153:X 0.000616481
3 *1321:B1 *1156:A1 0.000306155
4 *1321:B1 *1156:A2 1.7306e-05
5 *1321:B1 *1157:A1 5.33172e-05
6 *1321:B1 *245:25 0
7 *1144:A *1321:B1 8.40213e-05
8 *1149:A *1321:B1 7.23706e-05
9 *1157:B1 *1321:B1 0.000422743
10 *1321:A2 *1321:B1 5.4155e-06
11 *1321:C1 *1321:B1 3.23892e-05
12 *88:30 *1321:B1 8.37092e-06
13 *109:8 *1321:B1 8.23627e-05
*RES
1 *1153:X *1321:B1 18.03 
*END

*D_NET *119 0.00146953
*CONN
*I *1157:A1 I *D sky130_fd_sc_hd__a31o_1
*I *1154:Y O *D sky130_fd_sc_hd__o41ai_1
*CAP
1 *1157:A1 0.00029531
2 *1154:Y 0.00029531
3 *1157:A1 *1153:A 4.60584e-05
4 *1157:A1 *1153:B 0.000312964
5 *1157:A1 *1157:A3 2.30292e-05
6 *1153:C *1157:A1 0.000351268
7 *1157:B1 *1157:A1 9.22715e-05
8 *1321:B1 *1157:A1 5.33172e-05
*RES
1 *1154:Y *1157:A1 10.565 
*END

*D_NET *120 0.000501418
*CONN
*I *1157:A2 I *D sky130_fd_sc_hd__a31o_1
*I *1155:Y O *D sky130_fd_sc_hd__o31ai_1
*CAP
1 *1157:A2 0.000154658
2 *1155:Y 0.000154658
3 *1148:C *1157:A2 0.00012657
4 *108:25 *1157:A2 3.86607e-05
5 *108:40 *1157:A2 2.68721e-05
*RES
1 *1155:Y *1157:A2 9.72 
*END

*D_NET *121 0.000548443
*CONN
*I *1157:A3 I *D sky130_fd_sc_hd__a31o_1
*I *1156:X O *D sky130_fd_sc_hd__a2111o_1
*CAP
1 *1157:A3 0.000137363
2 *1156:X 0.000137363
3 *1157:A1 *1157:A3 2.30292e-05
4 *1157:B1 *1157:A3 0.000213166
5 *108:40 *1157:A3 3.75216e-05
*RES
1 *1156:X *1157:A3 10.065 
*END

*D_NET *122 0.00250867
*CONN
*I *1158:B I *D sky130_fd_sc_hd__xor2_1
*I *1320:B I *D sky130_fd_sc_hd__nor2_1
*I *1157:X O *D sky130_fd_sc_hd__a31o_1
*CAP
1 *1158:B 0.000253069
2 *1320:B 0
3 *1157:X 0.000315906
4 *122:12 0.000568974
5 *1158:B *1377:CLK 4.99619e-05
6 *1158:B *269:25 0.000376227
7 *1158:B *309:8 0.000131815
8 *122:12 *1148:A 0
9 *122:12 *245:31 7.75325e-05
10 *122:12 *269:38 0.000162325
11 *122:12 *269:53 0.000109016
12 *1148:B *122:12 4.66108e-05
13 *1149:A *122:12 4.60584e-05
14 *1155:B1 *122:12 4.82919e-05
15 *1157:B1 *122:12 8.59944e-05
16 *1377:D *1158:B 0.000150298
17 *96:32 *122:12 8.65905e-05
*RES
1 *1157:X *122:12 12.83 
2 *122:12 *1320:B 1.6 
3 *122:12 *1158:B 8.965 
*END

*D_NET *123 0.000321037
*CONN
*I *1159:D I *D sky130_fd_sc_hd__and4bb_1
*I *1158:X O *D sky130_fd_sc_hd__xor2_1
*CAP
1 *1159:D 8.17282e-05
2 *1158:X 8.17282e-05
3 *1159:D *245:75 7.63204e-05
4 *1159:D *269:25 1.83756e-05
5 *1159:D *309:19 6.28843e-05
*RES
1 *1158:X *1159:D 9.285 
*END

*D_NET *124 0.00161791
*CONN
*I *1393:A I *D sky130_fd_sc_hd__dlymetal6s2s_1
*I *1159:X O *D sky130_fd_sc_hd__and4bb_1
*CAP
1 *1393:A 0.000479539
2 *1159:X 0.000479539
3 *1393:A *1336:CLK 0.000101325
4 *1393:A *1379:CLK 1.19928e-05
5 *1393:A *245:71 3.64998e-06
6 *1393:A *245:75 0.000299379
7 *1393:A *250:14 7.21296e-06
8 *1393:A *311:10 3.1562e-06
9 *1323:B *1393:A 0.000114492
10 *1337:D *1393:A 8.08439e-05
11 *1379:D *1393:A 3.67779e-05
*RES
1 *1159:X *1393:A 17.535 
*END

*D_NET *125 0.000625151
*CONN
*I *1163:B I *D sky130_fd_sc_hd__and3_1
*I *1161:Y O *D sky130_fd_sc_hd__nand2_1
*CAP
1 *1163:B 0.000244274
2 *1161:Y 0.000244274
3 *1163:B *1161:A 4.76036e-05
4 *1163:B *1162:B 1.16854e-05
5 *1163:B *312:71 7.73143e-05
*RES
1 *1161:Y *1163:B 6.41 
*END

*D_NET *126 0.000213589
*CONN
*I *1163:C I *D sky130_fd_sc_hd__and3_1
*I *1162:X O *D sky130_fd_sc_hd__or2_1
*CAP
1 *1163:C 5.1341e-05
2 *1162:X 5.1341e-05
3 *1163:C *312:71 0.000110907
*RES
1 *1162:X *1163:C 4.22 
*END

*D_NET *127 0.000768479
*CONN
*I *1166:B I *D sky130_fd_sc_hd__and3_1
*I *1164:Y O *D sky130_fd_sc_hd__nand3_1
*CAP
1 *1166:B 0.000267998
2 *1164:Y 0.000267998
3 *1166:B *264:10 5.30673e-05
4 *1166:B *264:14 0.000179416
*RES
1 *1164:Y *1166:B 6.755 
*END

*D_NET *128 0.000231543
*CONN
*I *1166:C I *D sky130_fd_sc_hd__and3_1
*I *1165:X O *D sky130_fd_sc_hd__a21o_1
*CAP
1 *1166:C 8.7627e-05
2 *1165:X 8.7627e-05
3 *1166:C *264:10 3.51807e-05
4 *1166:C *264:14 2.11084e-05
*RES
1 *1165:X *1166:C 4.4 
*END

*D_NET *129 0.00346018
*CONN
*I *1170:B I *D sky130_fd_sc_hd__nand2_1
*I *1171:B I *D sky130_fd_sc_hd__or2_1
*I *1173:C I *D sky130_fd_sc_hd__and3_2
*I *1174:A2 I *D sky130_fd_sc_hd__a21o_1
*I *1169:A_N I *D sky130_fd_sc_hd__and3b_1
*I *1167:X O *D sky130_fd_sc_hd__and4_1
*CAP
1 *1170:B 7.20182e-05
2 *1171:B 3.37585e-05
3 *1173:C 3.3998e-05
4 *1174:A2 0
5 *1169:A_N 8.21903e-05
6 *1167:X 0
7 *129:43 0.000265684
8 *129:25 0.000366293
9 *129:21 0.000966996
10 *129:4 0.000556984
11 *1169:A_N *244:10 9.71067e-05
12 *1170:B *1171:A 0.000124007
13 *1173:C *1174:A1 0.000163204
14 *1173:C *1174:B1 0.000164549
15 *1173:C *323:36 1.31519e-05
16 *129:21 *1392:A 9.65676e-05
17 *129:21 *265:57 3.64998e-06
18 *129:21 *321:10 0.000103877
19 *129:25 *1172:C 5.47531e-05
20 *129:25 *1392:A 0
21 *129:25 *322:48 0
22 *129:43 *1172:C 0.000138196
23 *129:43 *244:163 1.82476e-05
24 *1333:D *1169:A_N 3.00381e-05
25 *1333:D *129:21 7.49066e-05
*RES
1 *1167:X *129:4 1.6 
2 *129:4 *1169:A_N 7.175 
3 *129:4 *129:21 8.315 
4 *129:21 *129:25 6.95 
5 *129:25 *1174:A2 1.6 
6 *129:25 *1173:C 3.445 
7 *129:21 *129:43 5.42 
8 *129:43 *1171:B 2.05 
9 *129:43 *1170:B 3.085 
*END

*D_NET *130 0.000753307
*CONN
*I *1169:B I *D sky130_fd_sc_hd__and3b_1
*I *1168:X O *D sky130_fd_sc_hd__a31o_1
*CAP
1 *1169:B 0.000146559
2 *1168:X 0.000146559
3 *1169:B *1168:A1 0.000114492
4 *1169:B *1168:A2 4.92062e-05
5 *1169:B *1169:C 0.000245206
6 *1169:B *244:10 5.12859e-05
*RES
1 *1168:X *1169:B 10.905 
*END

*D_NET *131 0.000825829
*CONN
*I *1172:B I *D sky130_fd_sc_hd__and3_1
*I *1170:Y O *D sky130_fd_sc_hd__nand2_1
*CAP
1 *1172:B 0.000164974
2 *1170:Y 0.000164974
3 *1172:B *244:163 5.99925e-05
4 *1172:B *265:57 5.0751e-05
5 *1172:B *322:48 0.000247567
6 *1334:D *1172:B 0.000137571
*RES
1 *1170:Y *1172:B 11.25 
*END

*D_NET *132 0.000818909
*CONN
*I *1172:C I *D sky130_fd_sc_hd__and3_1
*I *1171:X O *D sky130_fd_sc_hd__or2_1
*CAP
1 *1172:C 0.000166066
2 *1171:X 0.000166066
3 *1172:C *1171:A 4.66108e-05
4 *1172:C *244:163 0.000139933
5 *1172:C *265:57 1.70906e-05
6 *1172:C *321:36 1.83194e-05
7 *1172:C *322:48 0
8 *1334:D *1172:C 7.18738e-05
9 *129:25 *1172:C 5.47531e-05
10 *129:43 *1172:C 0.000138196
*RES
1 *1171:X *1172:C 11.745 
*END

*D_NET *133 0.008484
*CONN
*I *1175:A_N I *D sky130_fd_sc_hd__and3b_1
*I *1190:D I *D sky130_fd_sc_hd__and4_1
*I *1185:B I *D sky130_fd_sc_hd__nand2_1
*I *1184:A2 I *D sky130_fd_sc_hd__a21o_1
*I *1187:A2 I *D sky130_fd_sc_hd__a21o_1
*I *1182:A3 I *D sky130_fd_sc_hd__a31o_1
*I *1176:B I *D sky130_fd_sc_hd__nand2_1
*I *1177:B I *D sky130_fd_sc_hd__or2_1
*I *1181:B I *D sky130_fd_sc_hd__nand2_1
*I *1188:C I *D sky130_fd_sc_hd__and3_1
*I *1173:X O *D sky130_fd_sc_hd__and3_2
*CAP
1 *1175:A_N 0.000102749
2 *1190:D 0
3 *1185:B 0
4 *1184:A2 0.000298756
5 *1187:A2 0
6 *1182:A3 0
7 *1176:B 0.000191694
8 *1177:B 0
9 *1181:B 0
10 *1188:C 0.000155739
11 *1173:X 0.000199274
12 *133:92 0.00037661
13 *133:56 0.000574038
14 *133:48 0.000536017
15 *133:41 0.00044165
16 *133:35 0.000323527
17 *133:33 0.000570603
18 *133:18 0.000767924
19 *133:14 0.000488848
20 *133:8 0.000635885
21 *1176:B *1178:B 0.000139252
22 *1176:B *265:20 1.33293e-05
23 *1176:B *324:8 4.43682e-05
24 *1176:B *324:14 7.66083e-05
25 *1184:A2 *1184:B1 8.57751e-05
26 *1184:A2 *1186:B 7.35729e-05
27 *1188:C *143:12 7.49429e-05
28 *1188:C *314:10 4.78458e-05
29 *1188:C *314:23 0
30 *133:8 *1175:B 0
31 *133:8 *323:12 0
32 *133:14 *1140:A 0.000201503
33 *133:14 *1140:B 2.11084e-05
34 *133:14 *144:8 8.58339e-06
35 *133:18 *314:23 0
36 *133:33 *1187:B1 9.66106e-05
37 *133:33 *1189:C 1.19928e-05
38 *133:33 *1192:A1 2.75229e-05
39 *133:33 *1192:A2 0.000122551
40 *133:56 *1138:D 2.24336e-05
41 *133:56 *1183:C 3.86607e-05
42 *133:56 *265:20 0.000327363
43 *133:56 *324:14 0.000278117
44 *133:56 *326:10 0
45 *133:92 *1432:A 0.000162318
46 *133:92 *270:8 0.000159964
47 *1181:A *133:41 4.89587e-05
48 *1181:A *133:48 8.8266e-05
49 *1341:D *1188:C 5.21046e-05
50 *102:10 *133:48 0.000235172
51 *103:6 *133:41 4.7662e-05
52 *103:10 *133:33 4.82919e-05
53 *103:10 *133:41 2.20732e-05
54 *103:10 *133:92 0.00016063
55 *106:10 *1175:A_N 8.31082e-05
*RES
1 *1173:X *133:8 6.765 
2 *133:8 *133:14 6.755 
3 *133:14 *133:18 4.4 
4 *133:18 *1188:C 6.765 
5 *133:18 *133:33 9.35 
6 *133:33 *133:35 0.615 
7 *133:35 *133:41 4.965 
8 *133:41 *1181:B 1.6 
9 *133:41 *133:48 3.555 
10 *133:48 *133:56 11.26 
11 *133:56 *1177:B 1.6 
12 *133:56 *1176:B 9.41 
13 *133:48 *1182:A3 1.6 
14 *133:35 *1187:A2 1.6 
15 *133:33 *133:92 7.375 
16 *133:92 *1184:A2 7.15 
17 *133:92 *1185:B 1.6 
18 *133:14 *1190:D 1.6 
19 *133:8 *1175:A_N 5.43 
*END

*D_NET *134 0.000526974
*CONN
*I *1175:B I *D sky130_fd_sc_hd__and3b_1
*I *1174:X O *D sky130_fd_sc_hd__a21o_1
*CAP
1 *1175:B 0.000220571
2 *1174:X 0.000220571
3 *1175:B *264:86 0
4 *1335:D *1175:B 5.51158e-05
5 *106:10 *1175:B 3.07153e-05
6 *133:8 *1175:B 0
*RES
1 *1174:X *1175:B 10.905 
*END

*D_NET *135 0.00166494
*CONN
*I *1179:B I *D sky130_fd_sc_hd__xnor2_1
*I *1178:B I *D sky130_fd_sc_hd__and3_1
*I *1176:Y O *D sky130_fd_sc_hd__nand2_1
*CAP
1 *1179:B 0.000352084
2 *1178:B 0.00025441
3 *1176:Y 0
4 *135:4 0.000606494
5 *1178:B *1178:A 2.46089e-05
6 *1178:B *1178:C 4.32126e-05
7 *1179:B *1176:A 4.82919e-05
8 *1179:B *325:10 0.000146622
9 *1176:B *1178:B 0.000139252
10 *1336:D *1178:B 4.99619e-05
*RES
1 *1176:Y *135:4 1.6 
2 *135:4 *1178:B 10.235 
3 *135:4 *1179:B 6.46 
*END

*D_NET *136 0.000539784
*CONN
*I *1178:C I *D sky130_fd_sc_hd__and3_1
*I *1177:X O *D sky130_fd_sc_hd__or2_1
*CAP
1 *1178:C 0.000232454
2 *1177:X 0.000232454
3 *1178:C *1178:A 0
4 *1178:B *1178:C 4.32126e-05
5 *1336:D *1178:C 3.16627e-05
*RES
1 *1177:X *1178:C 10.965 
*END

*D_NET *137 0.000686344
*CONN
*I *1180:B I *D sky130_fd_sc_hd__and2_1
*I *1179:Y O *D sky130_fd_sc_hd__xnor2_1
*CAP
1 *1180:B 0.00015214
2 *1179:Y 0.00015214
3 *1180:B *1180:A 0.000239175
4 *1180:B *245:75 0.000139238
5 *1337:D *1180:B 3.64998e-06
*RES
1 *1179:Y *1180:B 10.665 
*END

*D_NET *138 0.000349874
*CONN
*I *1183:B I *D sky130_fd_sc_hd__and3_1
*I *1181:Y O *D sky130_fd_sc_hd__nand2_1
*CAP
1 *1183:B 0.000116854
2 *1181:Y 0.000116854
3 *1183:B *1183:C 0
4 *1183:B *245:41 0.000116165
5 *1183:B *270:8 0
*RES
1 *1181:Y *1183:B 9.345 
*END

*D_NET *139 0.000903912
*CONN
*I *1183:C I *D sky130_fd_sc_hd__and3_1
*I *1182:X O *D sky130_fd_sc_hd__a31o_1
*CAP
1 *1183:C 0.000260313
2 *1182:X 0.000260313
3 *1183:C *265:20 0.000344626
4 *1183:B *1183:C 0
5 *133:56 *1183:C 3.86607e-05
*RES
1 *1182:X *1183:C 11.1825 
*END

*D_NET *140 0.000585759
*CONN
*I *1186:B I *D sky130_fd_sc_hd__and3_1
*I *1184:X O *D sky130_fd_sc_hd__a21o_1
*CAP
1 *1186:B 0.000149252
2 *1184:X 0.000149252
3 *1186:B *1186:C 7.23533e-05
4 *1186:B *245:37 2.03321e-05
5 *1186:B *245:41 5.42473e-05
6 *1186:B *270:8 5.8218e-05
7 *1184:A2 *1186:B 7.35729e-05
8 *108:14 *1186:B 8.53113e-06
*RES
1 *1184:X *1186:B 10.485 
*END

*D_NET *141 0.000298877
*CONN
*I *1186:C I *D sky130_fd_sc_hd__and3_1
*I *1185:Y O *D sky130_fd_sc_hd__nand2_1
*CAP
1 *1186:C 7.5768e-05
2 *1185:Y 7.5768e-05
3 *1186:C *270:8 7.4027e-05
4 *1186:B *1186:C 7.23533e-05
5 *108:14 *1186:C 9.60582e-07
*RES
1 *1185:Y *1186:C 8.58 
*END

*D_NET *142 0.000239632
*CONN
*I *1189:C I *D sky130_fd_sc_hd__and3b_1
*I *1187:X O *D sky130_fd_sc_hd__a21o_1
*CAP
1 *1189:C 7.05218e-05
2 *1187:X 7.05218e-05
3 *1189:C *1187:B1 8.65961e-05
4 *133:33 *1189:C 1.19928e-05
*RES
1 *1187:X *1189:C 4.34 
*END

*D_NET *143 0.00201668
*CONN
*I *1189:A_N I *D sky130_fd_sc_hd__and3b_1
*I *1192:A2 I *D sky130_fd_sc_hd__o211a_1
*I *1188:X O *D sky130_fd_sc_hd__and3_1
*CAP
1 *1189:A_N 0
2 *1192:A2 0.000334036
3 *1188:X 0.000262169
4 *143:12 0.000596205
5 *1192:A2 *1192:A1 0.000238919
6 *1192:A2 *1192:B1 9.53428e-06
7 *1192:A2 *1192:C1 9.72742e-06
8 *143:12 *1188:A 0.000162311
9 *143:12 *314:10 9.01224e-05
10 *1188:B *143:12 0.000116165
11 *1188:C *143:12 7.49429e-05
12 *133:33 *1192:A2 0.000122551
*RES
1 *1188:X *143:12 9.845 
2 *143:12 *1192:A2 7.6 
3 *143:12 *1189:A_N 1.6 
*END

*D_NET *144 0.0053623
*CONN
*I *1196:C I *D sky130_fd_sc_hd__and3_1
*I *1193:B I *D sky130_fd_sc_hd__nand2_1
*I *1194:B I *D sky130_fd_sc_hd__or2_1
*I *1197:A2 I *D sky130_fd_sc_hd__a21o_1
*I *1191:A I *D sky130_fd_sc_hd__inv_2
*I *1190:X O *D sky130_fd_sc_hd__and4_1
*CAP
1 *1196:C 0
2 *1193:B 1.9192e-05
3 *1194:B 0
4 *1197:A2 0
5 *1191:A 8.56079e-05
6 *1190:X 0.000266592
7 *144:44 0.000169353
8 *144:29 0.000323788
9 *144:23 0.00154061
10 *144:8 0.00171918
11 *1191:A *318:23 5.21046e-05
12 *1193:B *1195:B 2.23589e-05
13 *144:8 *1140:A 2.66586e-05
14 *144:8 *1140:B 0.00011964
15 *144:23 *1140:B 3.1835e-05
16 *144:23 *1203:A 0.000118294
17 *144:23 *1203:B 0.000230925
18 *144:23 *1204:C 5.062e-06
19 *144:23 *318:23 2.4997e-05
20 *144:29 *1196:B 4.40899e-05
21 *144:29 *1198:C 0
22 *144:29 *315:14 9.50342e-06
23 *144:44 *1141:B 0
24 *144:44 *1195:B 0.000201508
25 *144:44 *1196:B 1.22676e-05
26 *144:44 *315:14 0.000175214
27 *144:44 *315:45 0.0001249
28 *105:10 *144:8 3.00381e-05
29 *133:14 *144:8 8.58339e-06
*RES
1 *1190:X *144:8 7.155 
2 *144:8 *1191:A 5.235 
3 *144:8 *144:23 18.38 
4 *144:23 *144:29 4.46 
5 *144:29 *1197:A2 3.6 
6 *144:29 *144:44 6.335 
7 *144:44 *1194:B 1.6 
8 *144:44 *1193:B 2.05 
9 *144:23 *1196:C 1.6 
*END

*D_NET *145 0.000262193
*CONN
*I *1192:B1 I *D sky130_fd_sc_hd__o211a_1
*I *1191:Y O *D sky130_fd_sc_hd__inv_2
*CAP
1 *1192:B1 9.70878e-05
2 *1191:Y 9.70878e-05
3 *1192:B1 *1192:C1 5.84828e-05
4 *1192:A2 *1192:B1 9.53428e-06
*RES
1 *1191:Y *1192:B1 5.045 
*END

*D_NET *146 0.000670755
*CONN
*I *1195:B I *D sky130_fd_sc_hd__and3_1
*I *1193:Y O *D sky130_fd_sc_hd__nand2_1
*CAP
1 *1195:B 0.000203022
2 *1193:Y 0.000203022
3 *1195:B *315:8 2.75145e-05
4 *1195:B *315:45 1.33285e-05
5 *1193:B *1195:B 2.23589e-05
6 *144:44 *1195:B 0.000201508
*RES
1 *1193:Y *1195:B 6.77 
*END

*D_NET *147 0.000284007
*CONN
*I *1195:C I *D sky130_fd_sc_hd__and3_1
*I *1194:X O *D sky130_fd_sc_hd__or2_1
*CAP
1 *1195:C 8.30249e-05
2 *1194:X 8.30249e-05
3 *1195:C *1195:A 9.49276e-05
4 *1195:C *315:45 2.30292e-05
*RES
1 *1194:X *1195:C 4.4 
*END

*D_NET *148 0.00191139
*CONN
*I *1200:B I *D sky130_fd_sc_hd__or2_1
*I *1199:B I *D sky130_fd_sc_hd__and2_1
*I *1198:A_N I *D sky130_fd_sc_hd__and3b_1
*I *1196:X O *D sky130_fd_sc_hd__and3_1
*CAP
1 *1200:B 0
2 *1199:B 0.00022136
3 *1198:A_N 0.000227985
4 *1196:X 0.000116853
5 *148:23 0.000345367
6 *148:8 0.000468846
7 *1198:A_N *1198:B 0
8 *1198:A_N *1198:C 0
9 *1199:B *1200:A 0.000153708
10 *1199:B *244:30 9.5716e-05
11 *148:8 *1196:B 5.53249e-06
12 *148:8 *1198:C 0
13 *148:8 *316:10 0
14 *148:23 *244:30 0.000276017
*RES
1 *1196:X *148:8 5.49 
2 *148:8 *1198:A_N 7.065 
3 *148:8 *148:23 4.52 
4 *148:23 *1199:B 5.2 
5 *148:23 *1200:B 1.6 
*END

*D_NET *149 0.00102437
*CONN
*I *1198:B I *D sky130_fd_sc_hd__and3b_1
*I *1197:X O *D sky130_fd_sc_hd__a21o_1
*CAP
1 *1198:B 0.000399873
2 *1197:X 0.000399873
3 *1198:B *1198:C 0.000172527
4 *1198:A_N *1198:B 0
5 *1343:D *1198:B 5.20968e-05
*RES
1 *1197:X *1198:B 14.565 
*END

*D_NET *150 0.00231875
*CONN
*I *1202:B I *D sky130_fd_sc_hd__or2_1
*I *1203:B I *D sky130_fd_sc_hd__nand2_1
*I *1201:A_N I *D sky130_fd_sc_hd__and3b_1
*I *1199:X O *D sky130_fd_sc_hd__and2_1
*CAP
1 *1202:B 1.67644e-05
2 *1203:B 0.000299477
3 *1201:A_N 0.000482566
4 *1199:X 3.79674e-05
5 *150:21 0.000350098
6 *150:6 0.00055439
7 *1201:A_N *1141:A 0
8 *1201:A_N *1201:B 0
9 *1201:A_N *1201:C 0.000112849
10 *1201:A_N *317:10 0
11 *1202:B *244:30 4.82919e-05
12 *1203:B *1141:A 0
13 *1203:B *244:20 0
14 *1203:B *244:115 1.52184e-05
15 *150:6 *244:30 8.52845e-05
16 *150:21 *244:30 8.49205e-05
17 *144:23 *1203:B 0.000230925
*RES
1 *1199:X *150:6 2.395 
2 *150:6 *1201:A_N 13.175 
3 *150:6 *150:21 0.795 
4 *150:21 *1203:B 11.555 
5 *150:21 *1202:B 2.05 
*END

*D_NET *151 0.000643804
*CONN
*I *1201:B I *D sky130_fd_sc_hd__and3b_1
*I *1200:X O *D sky130_fd_sc_hd__or2_1
*CAP
1 *1201:B 0.000203863
2 *1200:X 0.000203863
3 *1201:B *1141:A 4.31106e-05
4 *1201:B *317:10 0.000112123
5 *1201:A_N *1201:B 0
6 *1344:D *1201:B 8.08439e-05
*RES
1 *1200:X *1201:B 11.13 
*END

*D_NET *152 0.000895087
*CONN
*I *1204:B I *D sky130_fd_sc_hd__and3_1
*I *1202:X O *D sky130_fd_sc_hd__or2_1
*CAP
1 *1204:B 0.000268951
2 *1202:X 0.000268951
3 *1204:B *1201:C 5.66282e-05
4 *1204:B *1202:A 0.000132061
5 *1204:B *1204:C 7.06865e-05
6 *1204:B *244:115 0
7 *1204:B *264:90 7.12228e-06
8 *1345:D *1204:B 9.06864e-05
*RES
1 *1202:X *1204:B 11.865 
*END

*D_NET *153 0.000819096
*CONN
*I *1204:C I *D sky130_fd_sc_hd__and3_1
*I *1203:Y O *D sky130_fd_sc_hd__nand2_1
*CAP
1 *1204:C 0.000219325
2 *1203:Y 0.000219325
3 *1204:C *1203:A 1.83756e-05
4 *1204:C *1341:CLK 3.0855e-05
5 *1204:C *244:20 0
6 *1204:C *264:88 0.000152814
7 *1204:C *264:90 9.54399e-05
8 *1204:B *1204:C 7.06865e-05
9 *1345:D *1204:C 7.21296e-06
10 *144:23 *1204:C 5.062e-06
*RES
1 *1203:Y *1204:C 11.415 
*END

*D_NET *154 0.0024273
*CONN
*I *1279:A2 I *D sky130_fd_sc_hd__a31o_1
*I *1212:B I *D sky130_fd_sc_hd__or2_1
*I *1211:Y O *D sky130_fd_sc_hd__nand2b_1
*CAP
1 *1279:A2 0
2 *1212:B 8.1132e-05
3 *1211:Y 0.000289271
4 *154:10 0.000370403
5 *1212:B *1401:A 0.000124007
6 *1212:B *337:60 7.44453e-05
7 *1212:B *337:73 1.52184e-05
8 *154:10 *1110:A 3.23391e-05
9 *154:10 *337:73 0.00023405
10 *154:10 *341:22 3.32246e-05
11 *154:10 *341:37 0.000300891
12 *154:10 *341:39 0.000162311
13 *1130:A1 *1212:B 7.57202e-05
14 *1130:A2 *1212:B 0.00015997
15 *1130:A2 *154:10 9.50342e-06
16 *1277:B *154:10 0.000113271
17 *94:8 *1212:B 4.66108e-05
18 *95:10 *154:10 0.000304927
*RES
1 *1211:Y *154:10 12.435 
2 *154:10 *1212:B 6.63 
3 *154:10 *1279:A2 3.6 
*END

*D_NET *155 0.00780257
*CONN
*I *1298:A_N I *D sky130_fd_sc_hd__and2b_1
*I *1305:B2 I *D sky130_fd_sc_hd__o32a_1
*I *1295:B1_N I *D sky130_fd_sc_hd__o21ba_1
*I *1213:A2 I *D sky130_fd_sc_hd__a21oi_1
*I *1212:X O *D sky130_fd_sc_hd__or2_1
*CAP
1 *1298:A_N 0
2 *1305:B2 0
3 *1295:B1_N 0.000612493
4 *1213:A2 0.000255789
5 *1212:X 0.000916405
6 *155:35 0.000789715
7 *155:31 0.000177223
8 *155:16 0.00117219
9 *1213:A2 *1115:A 0.00016063
10 *1213:A2 *1292:A2 7.44453e-05
11 *1213:A2 *156:10 0.000275553
12 *1213:A2 *222:10 0
13 *1213:A2 *255:10 4.85494e-05
14 *1213:A2 *330:73 0
15 *1295:B1_N *1289:B 2.66586e-05
16 *1295:B1_N *1296:A2 3.00381e-05
17 *1295:B1_N *1296:B1 4.66108e-05
18 *1295:B1_N *1303:A1 1.26626e-05
19 *1295:B1_N *1305:A2 9.37731e-05
20 *1295:B1_N *214:19 0.000495112
21 *1295:B1_N *222:10 6.28843e-05
22 *155:16 *1292:A2 9.86611e-05
23 *155:16 *1298:B 0
24 *155:16 *1326:A1 0.000324762
25 *155:16 *1326:B1 0.000160641
26 *155:16 *1327:B1 7.68414e-06
27 *155:16 *1380:CLK 0.000386226
28 *155:16 *222:10 0
29 *155:16 *223:10 0
30 *155:16 *250:35 0
31 *155:16 *250:50 0
32 *155:16 *259:39 2.54431e-05
33 *155:16 *269:94 0
34 *155:35 *1305:A2 1.85674e-05
35 *155:35 *1305:A3 0.000182343
36 *1130:A2 *155:16 1.71013e-05
37 *1292:A1 *1213:A2 7.81954e-05
38 *1296:A1 *1295:B1_N 4.47125e-05
39 *1305:A1 *155:16 0
40 *87:64 *155:16 0.0012075
*RES
1 *1212:X *155:16 29.41 
2 *155:16 *1213:A2 10.155 
3 *155:16 *155:31 2 
4 *155:31 *155:35 3.225 
5 *155:35 *1295:B1_N 14.6 
6 *155:35 *1305:B2 1.6 
7 *155:31 *1298:A_N 1.6 
*END

*D_NET *156 0.00306442
*CONN
*I *1217:B1 I *D sky130_fd_sc_hd__o211a_1
*I *1218:C1 I *D sky130_fd_sc_hd__o221a_1
*I *1213:Y O *D sky130_fd_sc_hd__a21oi_1
*CAP
1 *1217:B1 0.000104434
2 *1218:C1 2.22685e-05
3 *1213:Y 0.000548531
4 *156:10 0.000675233
5 *1217:B1 *1214:A2 4.66108e-05
6 *1217:B1 *1217:A2 4.82863e-05
7 *1217:B1 *1217:C1 0.000162325
8 *1217:B1 *243:14 0
9 *1217:B1 *260:38 0.000203769
10 *1217:B1 *260:47 1.15399e-05
11 *1218:C1 *1218:B1 1.16578e-05
12 *1218:C1 *157:21 4.99619e-05
13 *1218:C1 *243:14 8.66107e-06
14 *156:10 *1115:A 2.30292e-05
15 *156:10 *1215:B1 0.000120186
16 *156:10 *1218:B1 7.4027e-05
17 *156:10 *1293:A1 0.000160641
18 *156:10 *1297:B 8.42161e-05
19 *156:10 *212:10 3.09233e-05
20 *156:10 *222:10 9.86689e-05
21 *156:10 *243:14 0.000172386
22 *156:10 *255:10 5.28967e-05
23 *156:10 *260:47 2.80576e-05
24 *1124:A *156:10 5.05521e-05
25 *1213:A2 *156:10 0.000275553
*RES
1 *1213:Y *156:10 16.2675 
2 *156:10 *1218:C1 4.2825 
3 *156:10 *1217:B1 7.0275 
*END

*D_NET *157 0.00130204
*CONN
*I *1216:A2 I *D sky130_fd_sc_hd__o21ai_1
*I *1215:A2 I *D sky130_fd_sc_hd__o21a_1
*I *1218:A2 I *D sky130_fd_sc_hd__o221a_1
*I *1214:Y O *D sky130_fd_sc_hd__a21boi_1
*CAP
1 *1216:A2 0
2 *1215:A2 9.11246e-05
3 *1218:A2 0
4 *1214:Y 7.32399e-05
5 *157:21 0.000205551
6 *157:12 0.000187666
7 *1215:A2 *260:38 9.50342e-06
8 *1215:A2 *260:47 0.000163985
9 *1215:A2 *330:58 0
10 *157:12 *1287:B1 6.74079e-05
11 *157:12 *243:14 4.40812e-05
12 *157:21 *1215:B1 3.03775e-05
13 *157:21 *1217:C1 0.000119762
14 *157:21 *1218:B1 4.35432e-05
15 *157:21 *330:23 1.85674e-05
16 *1218:A1 *157:12 4.82919e-05
17 *1218:A1 *157:21 0.000148977
18 *1218:C1 *157:21 4.99619e-05
19 *1352:D *1215:A2 0
*RES
1 *1214:Y *157:12 7.43 
2 *157:12 *1218:A2 1.6 
3 *157:12 *157:21 3.225 
4 *157:21 *1215:A2 7.49 
5 *157:21 *1216:A2 1.6 
*END

*D_NET *158 0.000392443
*CONN
*I *1218:B1 I *D sky130_fd_sc_hd__o221a_1
*I *1215:X O *D sky130_fd_sc_hd__o21a_1
*CAP
1 *1218:B1 0.000112281
2 *1215:X 0.000112281
3 *1218:B1 *243:14 3.86529e-05
4 *1218:B1 *330:23 0
5 *1218:A1 *1218:B1 0
6 *1218:C1 *1218:B1 1.16578e-05
7 *156:10 *1218:B1 7.4027e-05
8 *157:21 *1218:B1 4.35432e-05
*RES
1 *1215:X *1218:B1 9.585 
*END

*D_NET *159 0.000718814
*CONN
*I *1217:C1 I *D sky130_fd_sc_hd__o211a_1
*I *1216:Y O *D sky130_fd_sc_hd__o21ai_1
*CAP
1 *1217:C1 0.000130537
2 *1216:Y 0.000130537
3 *1217:C1 *1215:B1 1.33293e-05
4 *1217:B1 *1217:C1 0.000162325
5 *1218:A1 *1217:C1 0.000162325
6 *157:21 *1217:C1 0.000119762
*RES
1 *1216:Y *1217:C1 10.575 
*END

*D_NET *160 0.000242672
*CONN
*I *1224:B1 I *D sky130_fd_sc_hd__a211o_1
*I *1219:X O *D sky130_fd_sc_hd__a22o_1
*CAP
1 *1224:B1 3.93297e-05
2 *1219:X 3.93297e-05
3 *1224:B1 *1224:C1 9.23783e-05
4 *1208:A *1224:B1 1.85674e-05
5 *1219:B2 *1224:B1 5.30673e-05
*RES
1 *1219:X *1224:B1 4.715 
*END

*D_NET *161 0.000238413
*CONN
*I *1221:C1 I *D sky130_fd_sc_hd__a221o_1
*I *1220:Y O *D sky130_fd_sc_hd__o22ai_1
*CAP
1 *1221:C1 2.10505e-05
2 *1220:Y 2.10505e-05
3 *1221:C1 *1220:B2 7.74308e-05
4 *1221:C1 *1221:B2 4.82919e-05
5 *1220:A1 *1221:C1 2.45311e-05
6 *81:62 *1221:C1 4.60584e-05
*RES
1 *1220:Y *1221:C1 4.2575 
*END

*D_NET *162 0.00113883
*CONN
*I *1223:C1 I *D sky130_fd_sc_hd__a2111o_1
*I *1221:X O *D sky130_fd_sc_hd__a221o_1
*CAP
1 *1223:C1 0.000315262
2 *1221:X 0.000315262
3 *1223:C1 *1223:B1 0.000107634
4 *1223:C1 *250:66 8.53113e-06
5 *1221:A2 *1223:C1 0
6 *86:12 *1223:C1 0.000392136
*RES
1 *1221:X *1223:C1 12.135 
*END

*D_NET *163 0.000654916
*CONN
*I *1223:D1 I *D sky130_fd_sc_hd__a2111o_1
*I *1222:Y O *D sky130_fd_sc_hd__o22ai_1
*CAP
1 *1223:D1 0.000210039
2 *1222:Y 0.000210039
3 *1223:D1 *1223:A2 0.0001249
4 *82:40 *1223:D1 0.000109939
*RES
1 *1222:Y *1223:D1 6.065 
*END

*D_NET *164 0.00102173
*CONN
*I *1224:C1 I *D sky130_fd_sc_hd__a211o_1
*I *1223:X O *D sky130_fd_sc_hd__a2111o_1
*CAP
1 *1224:C1 0.000187453
2 *1223:X 0.000187453
3 *1224:C1 *1219:A2 2.12652e-05
4 *1219:B2 *1224:C1 0.00020707
5 *1224:B1 *1224:C1 9.23783e-05
6 *82:40 *1224:C1 0.000326116
*RES
1 *1223:X *1224:C1 8.165 
*END

*D_NET *165 0.00472656
*CONN
*I *1394:A I *D sky130_fd_sc_hd__buf_2
*I *1395:A I *D sky130_fd_sc_hd__clkbuf_2
*I *1224:X O *D sky130_fd_sc_hd__a211o_1
*CAP
1 *1394:A 0.000333028
2 *1395:A 0.000112219
3 *1224:X 0.00104812
4 *165:18 0.00149336
5 *1394:A *1276:B 0
6 *1394:A *173:14 0.00038607
7 *1394:A *266:6 7.00889e-06
8 *1394:A *297:14 0
9 *1395:A *1369:CLK 3.31338e-05
10 *165:18 *1350:CLK 0.000270899
11 *165:18 *1369:CLK 2.65814e-06
12 *165:18 *298:12 0.000123368
13 *1208:A *165:18 0.000545352
14 *1219:B2 *165:18 0.000354725
15 *1349:D *165:18 1.12578e-05
16 *1369:D *165:18 5.36069e-06
17 *1384:A *1394:A 0
*RES
1 *1224:X *165:18 22.67 
2 *165:18 *1395:A 3.265 
3 *165:18 *1394:A 12.11 
*END

*D_NET *166 0.00727011
*CONN
*I *1240:A1 I *D sky130_fd_sc_hd__o21a_1
*I *1230:B I *D sky130_fd_sc_hd__and4_1
*I *1233:B I *D sky130_fd_sc_hd__and4_1
*I *1248:A3 I *D sky130_fd_sc_hd__a31o_1
*I *1243:B I *D sky130_fd_sc_hd__or2_1
*I *1242:B I *D sky130_fd_sc_hd__nand2_1
*I *1227:A I *D sky130_fd_sc_hd__nand2_1
*I *1253:C I *D sky130_fd_sc_hd__and4_1
*I *1254:A2 I *D sky130_fd_sc_hd__a31o_1
*I *1225:X O *D sky130_fd_sc_hd__and3_2
*CAP
1 *1240:A1 5.664e-05
2 *1230:B 0.000238469
3 *1233:B 6.70517e-05
4 *1248:A3 0
5 *1243:B 0
6 *1242:B 6.54773e-05
7 *1227:A 0
8 *1253:C 0
9 *1254:A2 8.51194e-05
10 *1225:X 8.70822e-05
11 *166:61 0.000288281
12 *166:57 0.00071978
13 *166:51 0.000564029
14 *166:49 0.000455818
15 *166:42 0.000386069
16 *166:18 0.000161332
17 *166:14 0.000562097
18 *166:8 0.000460887
19 *1230:B *1233:D 6.36578e-05
20 *1230:B *167:23 4.66108e-05
21 *1230:B *167:33 4.82919e-05
22 *1230:B *293:25 0.000116853
23 *1233:B *167:33 9.54469e-05
24 *1233:B *268:33 0
25 *1240:A1 *1240:B1 4.82863e-05
26 *1240:A1 *1252:B1 4.21973e-05
27 *1242:B *1245:A2 0
28 *1242:B *1247:A2 0
29 *1242:B *180:10 0.000120186
30 *1242:B *301:10 5.53249e-06
31 *1242:B *301:23 7.89767e-05
32 *1242:B *301:36 5.53249e-06
33 *1254:A2 *1254:A1 0.000229125
34 *1254:A2 *1254:A3 0.000253715
35 *1254:A2 *304:31 9.50342e-06
36 *1254:A2 *306:37 1.34361e-05
37 *166:8 *1225:B 8.53113e-06
38 *166:8 *1240:A2 0
39 *166:8 *304:29 0
40 *166:14 *1240:B1 0.000103185
41 *166:14 *304:29 0
42 *166:18 *1254:A3 9.50342e-06
43 *166:18 *167:39 0.000284216
44 *166:18 *304:29 0.000229897
45 *166:18 *304:31 6.28498e-05
46 *166:42 *167:33 4.3824e-05
47 *166:42 *167:39 0.000197826
48 *166:49 *167:33 0.000575461
49 *166:57 *1233:D 0
50 *166:57 *1249:B 0
51 *166:57 *268:33 0
52 *166:57 *268:44 0.000116629
53 *166:57 *301:36 4.80285e-05
54 *166:61 *180:10 3.09164e-05
55 *166:61 *268:44 0
56 *166:61 *301:36 0.000183759
*RES
1 *1225:X *166:8 4.98 
2 *166:8 *166:14 7.265 
3 *166:14 *166:18 5.42 
4 *166:18 *1254:A2 6.81 
5 *166:18 *1253:C 3.6 
6 *166:14 *166:42 3.225 
7 *166:42 *1227:A 1.6 
8 *166:42 *166:49 5.28 
9 *166:49 *166:51 2 
10 *166:51 *166:57 10.4 
11 *166:57 *166:61 6.44 
12 *166:61 *1242:B 5.49 
13 *166:61 *1243:B 3.6 
14 *166:57 *1248:A3 1.6 
15 *166:51 *1233:B 4.98 
16 *166:49 *1230:B 9.95 
17 *166:8 *1240:A1 4.74 
*END

*D_NET *167 0.00519389
*CONN
*I *1230:C I *D sky130_fd_sc_hd__and4_1
*I *1233:C I *D sky130_fd_sc_hd__and4_1
*I *1227:B I *D sky130_fd_sc_hd__nand2_1
*I *1253:D I *D sky130_fd_sc_hd__and4_1
*I *1254:A3 I *D sky130_fd_sc_hd__a31o_1
*I *1285:A1 I *D sky130_fd_sc_hd__a2111o_1
*I *1226:X O *D sky130_fd_sc_hd__and3_1
*CAP
1 *1230:C 0
2 *1233:C 0
3 *1227:B 0
4 *1253:D 0
5 *1254:A3 0.000195787
6 *1285:A1 0
7 *1226:X 0.000175439
8 *167:39 0.000437137
9 *167:33 0.000643867
10 *167:23 0.0005137
11 *167:21 0.000348843
12 *167:8 0.000413098
13 *1254:A3 *1255:A_N 2.93678e-05
14 *1254:A3 *306:37 2.75538e-05
15 *167:8 *1249:B 0
16 *167:8 *1294:C1 0
17 *167:8 *1311:B1 0
18 *167:8 *1359:CLK 5.21046e-05
19 *167:8 *302:41 0
20 *167:8 *303:12 0
21 *167:21 *1230:D 0.000119521
22 *167:21 *1359:CLK 0.000213507
23 *167:21 *266:60 0
24 *167:21 *293:10 6.42013e-05
25 *167:23 *1230:A 3.45588e-05
26 *167:23 *1233:D 0.000124895
27 *167:23 *1252:A1 0.000172477
28 *167:23 *293:10 1.19928e-05
29 *167:33 *1233:D 0
30 *167:33 *168:8 4.82863e-05
31 *167:33 *268:33 0
32 *167:33 *293:25 0
33 *167:39 *304:29 1.26626e-05
34 *1230:B *167:23 4.66108e-05
35 *1230:B *167:33 4.82919e-05
36 *1233:B *167:33 9.54469e-05
37 *1254:A2 *1254:A3 0.000253715
38 *166:18 *1254:A3 9.50342e-06
39 *166:18 *167:39 0.000284216
40 *166:42 *167:33 4.3824e-05
41 *166:42 *167:39 0.000197826
42 *166:49 *167:33 0.000575461
*RES
1 *1226:X *167:8 6.51 
2 *167:8 *1285:A1 3.6 
3 *167:8 *167:21 7.925 
4 *167:21 *167:23 2.865 
5 *167:23 *167:33 12.055 
6 *167:33 *167:39 7.505 
7 *167:39 *1254:A3 7.575 
8 *167:39 *1253:D 3.6 
9 *167:33 *1227:B 1.6 
10 *167:23 *1233:C 1.6 
11 *167:21 *1230:C 1.6 
*END

*D_NET *168 0.00225678
*CONN
*I *1251:B I *D sky130_fd_sc_hd__xor2_1
*I *1249:A I *D sky130_fd_sc_hd__nand2_1
*I *1227:Y O *D sky130_fd_sc_hd__nand2_1
*CAP
1 *1251:B 0.000375309
2 *1249:A 0.000283906
3 *1227:Y 3.38751e-05
4 *168:8 0.00069309
5 *1249:A *1314:C 0.000273543
6 *1249:A *170:18 8.65961e-05
7 *1249:A *304:29 0
8 *1251:B *1252:A2 0.00021505
9 *1251:B *1360:CLK 3.13354e-05
10 *1251:B *246:53 9.75584e-05
11 *1251:B *246:57 6.61959e-05
12 *1251:B *304:27 0
13 *1251:B *304:29 0
14 *1360:D *1251:B 5.20313e-05
15 *167:33 *168:8 4.82863e-05
*RES
1 *1227:Y *168:8 4.05 
2 *168:8 *1249:A 9.03 
3 *168:8 *1251:B 11.46 
*END

*D_NET *169 0.00294453
*CONN
*I *1285:A2 I *D sky130_fd_sc_hd__a2111o_1
*I *1233:D I *D sky130_fd_sc_hd__and4_1
*I *1228:X O *D sky130_fd_sc_hd__and3_1
*CAP
1 *1285:A2 2.75029e-05
2 *1233:D 0.000286858
3 *1228:X 0.000527108
4 *169:12 0.000841469
5 *1233:D *1249:B 8.53113e-06
6 *1233:D *1314:C 0.000124895
7 *1233:D *170:18 0.000123225
8 *1233:D *266:60 0
9 *1233:D *293:25 6.43964e-05
10 *1285:A2 *1314:C 0.000149759
11 *1285:A2 *170:18 8.40269e-05
12 *1285:A2 *170:31 7.66083e-05
13 *169:12 *1359:CLK 0.000200615
14 *169:12 *266:60 4.9968e-05
15 *169:12 *268:44 0.000120655
16 *1230:B *1233:D 6.36578e-05
17 *1359:D *169:12 7.03608e-05
18 *166:57 *1233:D 0
19 *167:23 *1233:D 0.000124895
20 *167:33 *1233:D 0
*RES
1 *1228:X *169:12 12.605 
2 *169:12 *1233:D 11.555 
3 *169:12 *1285:A2 3.085 
*END

*D_NET *170 0.0046607
*CONN
*I *1294:B1 I *D sky130_fd_sc_hd__o211a_1
*I *1311:B1 I *D sky130_fd_sc_hd__o211a_1
*I *1285:B1 I *D sky130_fd_sc_hd__a2111o_1
*I *1230:D I *D sky130_fd_sc_hd__and4_1
*I *1229:X O *D sky130_fd_sc_hd__and4_1
*CAP
1 *1294:B1 0
2 *1311:B1 0.000177017
3 *1285:B1 0
4 *1230:D 9.11356e-05
5 *1229:X 0.000600619
6 *170:42 0.000354393
7 *170:31 0.000217042
8 *170:18 0.000731421
9 *1230:D *266:60 0.000296088
10 *1311:B1 *1294:C1 5.53249e-06
11 *1311:B1 *1295:A2 0.00012657
12 *1311:B1 *1311:A1 3.77818e-05
13 *1311:B1 *1311:C1 9.21168e-05
14 *1311:B1 *302:41 5.16418e-05
15 *1311:B1 *303:32 8.40269e-05
16 *170:18 *1228:C 8.52845e-05
17 *170:18 *1229:D 0
18 *170:18 *1249:B 0.000350486
19 *170:18 *1250:A2 3.53776e-05
20 *170:18 *1254:B1 0
21 *170:18 *1314:C 5.23864e-05
22 *170:18 *293:25 8.40213e-05
23 *170:18 *307:29 0
24 *170:31 *1314:C 6.27029e-05
25 *170:31 *293:25 0.000197269
26 *170:42 *1294:C1 8.42161e-05
27 *170:42 *1312:A1 8.49205e-05
28 *170:42 *1314:C 8.24245e-05
29 *170:42 *293:25 8.65961e-05
30 *170:42 *293:36 9.01511e-05
31 *170:42 *302:41 9.50342e-06
32 *1233:D *170:18 0.000123225
33 *1249:A *170:18 8.65961e-05
34 *1285:A2 *170:18 8.40269e-05
35 *1285:A2 *170:31 7.66083e-05
36 *167:8 *1311:B1 0
37 *167:21 *1230:D 0.000119521
*RES
1 *1229:X *170:18 16.61 
2 *170:18 *1230:D 9.02 
3 *170:18 *170:31 1.83 
4 *170:31 *1285:B1 1.6 
5 *170:31 *170:42 6.32 
6 *170:42 *1311:B1 7.695 
7 *170:42 *1294:B1 3.6 
*END

*D_NET *171 0.00205993
*CONN
*I *1231:D I *D sky130_fd_sc_hd__and4_1
*I *1265:B I *D sky130_fd_sc_hd__xnor2_1
*I *1263:A I *D sky130_fd_sc_hd__or2_1
*I *1230:X O *D sky130_fd_sc_hd__and4_1
*CAP
1 *1231:D 0.000185373
2 *1265:B 2.67771e-05
3 *1263:A 3.76639e-05
4 *1230:X 0.000159875
5 *171:19 0.000285119
6 *171:8 0.000270507
7 *1231:D *1231:A 9.29751e-06
8 *1231:D *1231:C 2.75229e-05
9 *1231:D *1284:D 8.53113e-06
10 *1231:D *172:10 2.97004e-06
11 *1231:D *209:10 0
12 *1231:D *266:50 3.98952e-05
13 *1231:D *267:27 0
14 *1265:B *173:18 1.83847e-05
15 *1265:B *173:20 1.56428e-05
16 *1265:B *268:10 8.65961e-05
17 *171:8 *1252:A1 0.000181376
18 *171:8 *1264:A2 2.60908e-05
19 *171:8 *173:42 0.000315139
20 *171:8 *246:12 5.21458e-05
21 *171:8 *266:50 0.000122548
22 *171:19 *173:42 0.000116853
23 *171:19 *209:10 0
24 *171:19 *266:50 7.16181e-05
*RES
1 *1230:X *171:8 9.315 
2 *171:8 *1263:A 4.05 
3 *171:8 *171:19 2.145 
4 *171:19 *1265:B 4.395 
5 *171:19 *1231:D 6.705 
*END

*D_NET *172 0.00467528
*CONN
*I *1275:A2 I *D sky130_fd_sc_hd__a21oi_1
*I *1232:C I *D sky130_fd_sc_hd__nand3_2
*I *1274:A2 I *D sky130_fd_sc_hd__o21ba_1
*I *1271:A I *D sky130_fd_sc_hd__or2_1
*I *1231:X O *D sky130_fd_sc_hd__and4_1
*CAP
1 *1275:A2 0.000112598
2 *1232:C 1.85694e-05
3 *1274:A2 0.000198835
4 *1271:A 0.000388221
5 *1231:X 0.000230806
6 *172:38 0.000255263
7 *172:12 0.000694019
8 *172:10 0.000461864
9 *1232:C *297:14 9.53428e-06
10 *1232:C *298:16 0
11 *1271:A *1270:A 2.15273e-05
12 *1271:A *1271:B 1.72386e-05
13 *1271:A *1272:A1 2.559e-05
14 *1271:A *1273:A2 0.000124007
15 *1271:A *267:14 4.66108e-05
16 *1271:A *296:27 0.000314745
17 *1274:A2 *1274:B1_N 0.000273008
18 *1274:A2 *267:27 2.92496e-05
19 *1274:A2 *296:27 0
20 *1274:A2 *297:42 5.47948e-05
21 *1275:A2 *1232:A 0
22 *1275:A2 *1275:A1 0.000349587
23 *1275:A2 *297:14 2.75145e-05
24 *1275:A2 *298:12 8.09157e-05
25 *1275:A2 *298:16 5.49035e-05
26 *172:10 *1231:A 0
27 *172:10 *1284:A 0.000342942
28 *172:10 *1284:B 0
29 *172:10 *1284:D 0
30 *172:10 *173:14 0
31 *172:10 *209:10 7.4027e-05
32 *172:10 *267:27 0
33 *172:12 *1273:A2 7.49327e-05
34 *172:12 *267:14 0.000237249
35 *172:38 *297:14 7.60965e-05
36 *172:38 *298:16 2.96426e-05
37 *1231:D *172:10 2.97004e-06
38 *1273:A1 *1271:A 2.16833e-05
39 *1273:A1 *172:12 2.05056e-05
40 *1273:A1 *172:38 5.83121e-06
41 *1368:D *1274:A2 0
*RES
1 *1231:X *172:10 10.805 
2 *172:10 *172:12 2.52 
3 *172:12 *1271:A 9.16 
4 *172:12 *1274:A2 10.04 
5 *172:10 *172:38 2.175 
6 *172:38 *1232:C 1.96 
7 *172:38 *1275:A2 5.515 
*END

*D_NET *173 0.0107941
*CONN
*I *1396:A I *D sky130_fd_sc_hd__buf_2
*I *1264:A1 I *D sky130_fd_sc_hd__a21oi_1
*I *1252:A1 I *D sky130_fd_sc_hd__a21oi_1
*I *1236:A2 I *D sky130_fd_sc_hd__a21oi_1
*I *1238:A1 I *D sky130_fd_sc_hd__a21oi_1
*I *1232:Y O *D sky130_fd_sc_hd__nand3_2
*CAP
1 *1396:A 5.94243e-05
2 *1264:A1 0
3 *1252:A1 0.000971809
4 *1236:A2 0.000238978
5 *1238:A1 0
6 *1232:Y 0.000366687
7 *173:42 0.00109802
8 *173:20 0.00132446
9 *173:18 0.00148958
10 *173:14 0.000704002
11 *1236:A2 *1236:A1 0.00012657
12 *1236:A2 *1407:A 7.35813e-05
13 *1236:A2 *267:38 0.00014524
14 *1252:A1 *1230:A 8.65905e-05
15 *1252:A1 *1233:A 5.30673e-05
16 *1252:A1 *1252:A2 2.30292e-05
17 *1252:A1 *1252:B1 8.696e-05
18 *1252:A1 *1264:B1 5.83121e-06
19 *1252:A1 *266:50 3.05373e-05
20 *1252:A1 *266:60 7.70938e-05
21 *1252:A1 *293:10 0.000122331
22 *1396:A *268:6 4.65607e-05
23 *173:14 *1266:A1 3.76596e-05
24 *173:14 *1266:B1 0.000109522
25 *173:14 *1275:A1 5.16418e-05
26 *173:14 *1284:A 0
27 *173:14 *1365:CLK 0.000181376
28 *173:14 *266:16 4.19797e-05
29 *173:14 *267:14 0
30 *173:14 *294:10 0.000137571
31 *173:14 *294:12 8.53113e-06
32 *173:18 *1265:A 0.000138799
33 *173:18 *268:6 2.86265e-06
34 *173:18 *268:10 9.27255e-06
35 *173:20 *267:27 0.00133406
36 *173:20 *267:38 2.26018e-05
37 *173:20 *268:10 5.64059e-05
38 *173:42 *1264:A2 0.000247567
39 *173:42 *209:10 7.03934e-05
40 *1265:B *173:18 1.83847e-05
41 *1265:B *173:20 1.56428e-05
42 *1364:D *1252:A1 7.55945e-06
43 *1384:A *173:14 0
44 *1394:A *173:14 0.00038607
45 *167:23 *1252:A1 0.000172477
46 *171:8 *1252:A1 0.000181376
47 *171:8 *173:42 0.000315139
48 *171:19 *173:42 0.000116853
49 *172:10 *173:14 0
*RES
1 *1232:Y *173:14 14.675 
2 *173:14 *173:18 3.825 
3 *173:18 *173:20 14.94 
4 *173:20 *1238:A1 1.6 
5 *173:20 *1236:A2 6.565 
6 *173:18 *173:42 8.95 
7 *173:42 *1252:A1 20.345 
8 *173:42 *1264:A1 1.6 
9 *173:14 *1396:A 2.74 
*END

*D_NET *174 0.000649253
*CONN
*I *1234:C I *D sky130_fd_sc_hd__and3_1
*I *1262:B I *D sky130_fd_sc_hd__nor2_1
*I *1233:X O *D sky130_fd_sc_hd__and4_1
*CAP
1 *1234:C 0.000128929
2 *1262:B 5.66328e-05
3 *1233:X 0.000103696
4 *174:8 0.000289258
5 *1234:C *1234:B 0
6 *1234:C *1263:B 2.66935e-05
7 *1234:C *246:47 4.40439e-05
8 *1234:C *304:27 0
9 *174:8 *1233:A 0
10 *174:8 *293:56 0
11 *174:8 *304:27 0
*RES
1 *1233:X *174:8 5.235 
2 *174:8 *1262:B 4.395 
3 *174:8 *1234:C 5.6775 
*END

*D_NET *175 0.0010159
*CONN
*I *1235:B I *D sky130_fd_sc_hd__and2_1
*I *1267:B I *D sky130_fd_sc_hd__nor2_1
*I *1234:X O *D sky130_fd_sc_hd__and3_1
*CAP
1 *1235:B 0.00014791
2 *1267:B 1.71225e-05
3 *1234:X 0.00018747
4 *175:8 0.000352503
5 *1235:B *1267:A 0
6 *1235:B *1268:A1 0
7 *1235:B *267:27 7.67721e-05
8 *1235:B *295:21 2.75229e-05
9 *1267:B *267:27 8.65905e-05
10 *1267:B *268:10 5.05437e-05
11 *175:8 *1263:B 5.92849e-05
12 *175:8 *1267:A 0
13 *175:8 *266:50 0
14 *175:8 *267:27 1.0183e-05
15 *175:8 *268:33 0
*RES
1 *1234:X *175:8 7.02 
2 *175:8 *1267:B 4.395 
3 *175:8 *1235:B 6.45 
*END

*D_NET *176 0.00203323
*CONN
*I *1273:A4 I *D sky130_fd_sc_hd__a41o_1
*I *1270:B I *D sky130_fd_sc_hd__nor2_1
*I *1268:A1 I *D sky130_fd_sc_hd__o21a_1
*I *1235:X O *D sky130_fd_sc_hd__and2_1
*CAP
1 *1273:A4 0
2 *1270:B 9.29402e-05
3 *1268:A1 0.000277027
4 *1235:X 3.33231e-05
5 *176:25 0.000344171
6 *176:6 0.00056158
7 *1268:A1 *1267:A 8.63188e-05
8 *1268:A1 *1272:A1 0
9 *1268:A1 *266:24 8.22234e-06
10 *1268:A1 *267:27 0
11 *1268:A1 *268:33 4.18603e-06
12 *1268:A1 *295:21 2.77283e-05
13 *1270:B *296:27 0.000239807
14 *176:6 *295:21 1.33293e-05
15 *176:25 *1272:A1 0
16 *176:25 *267:27 0
17 *176:25 *296:27 4.44927e-05
18 *176:25 *296:33 0.000300109
19 *1235:B *1268:A1 0
*RES
1 *1235:X *176:6 2.05 
2 *176:6 *1268:A1 9.995 
3 *176:6 *176:25 9.46 
4 *176:25 *1270:B 3.775 
5 *176:25 *1273:A4 1.6 
*END

*D_NET *177 0.000492892
*CONN
*I *1238:A2 I *D sky130_fd_sc_hd__a21oi_1
*I *1237:Y O *D sky130_fd_sc_hd__xnor2_1
*CAP
1 *1238:A2 0.000163091
2 *1237:Y 0.000163091
3 *1238:A2 *1237:A 5.05437e-05
4 *1238:A2 *299:8 0.000116165
*RES
1 *1237:Y *1238:A2 9.72 
*END

*D_NET *178 0.000724292
*CONN
*I *1240:A2 I *D sky130_fd_sc_hd__o21a_1
*I *1239:Y O *D sky130_fd_sc_hd__a21oi_1
*CAP
1 *1240:A2 0.000208176
2 *1239:Y 0.000208176
3 *1240:A2 *1225:B 3.97957e-05
4 *1240:A2 *1225:C 9.92956e-05
5 *1240:A2 *1239:B1 0.000113797
6 *1240:A2 *267:51 0
7 *1240:A2 *292:18 3.76633e-05
8 *1240:A2 *299:10 1.73877e-05
9 *1356:D *1240:A2 0
10 *166:8 *1240:A2 0
*RES
1 *1239:Y *1240:A2 11.58 
*END

*D_NET *179 0.000213869
*CONN
*I *1241:B I *D sky130_fd_sc_hd__nor2_1
*I *1240:X O *D sky130_fd_sc_hd__o21a_1
*CAP
1 *1241:B 4.36495e-05
2 *1240:X 4.36495e-05
3 *1241:B *1252:B1 0.00012657
*RES
1 *1240:X *1241:B 4.34 
*END

*D_NET *180 0.000851235
*CONN
*I *1246:B I *D sky130_fd_sc_hd__xor2_1
*I *1244:A I *D sky130_fd_sc_hd__nand2_1
*I *1242:Y O *D sky130_fd_sc_hd__nand2_1
*CAP
1 *1246:B 2.946e-05
2 *1244:A 0.000217338
3 *1242:Y 7.82874e-05
4 *180:10 0.000325085
5 *1244:A *1244:B 4.99619e-05
6 *180:10 *1247:A2 0
7 *1242:B *180:10 0.000120186
8 *166:61 *180:10 3.09164e-05
*RES
1 *1242:Y *180:10 7.235 
2 *180:10 *1244:A 4.825 
3 *180:10 *1246:B 2.05 
*END

*D_NET *181 8.68287e-05
*CONN
*I *1244:B I *D sky130_fd_sc_hd__nand2_1
*I *1243:X O *D sky130_fd_sc_hd__or2_1
*CAP
1 *1244:B 1.84334e-05
2 *1243:X 1.84334e-05
3 *1244:A *1244:B 4.99619e-05
*RES
1 *1243:X *1244:B 3.65 
*END

*D_NET *182 0.000232567
*CONN
*I *1245:A2 I *D sky130_fd_sc_hd__a21oi_1
*I *1244:Y O *D sky130_fd_sc_hd__nand2_1
*CAP
1 *1245:A2 5.61903e-05
2 *1244:Y 5.61903e-05
3 *1245:A2 *268:48 0.000120186
4 *1245:A2 *301:23 0
5 *1242:B *1245:A2 0
*RES
1 *1244:Y *1245:A2 8.58 
*END

*D_NET *183 0.000688995
*CONN
*I *1247:A2 I *D sky130_fd_sc_hd__a21oi_1
*I *1246:X O *D sky130_fd_sc_hd__xor2_1
*CAP
1 *1247:A2 0.000223756
2 *1246:X 0.000223756
3 *1247:A2 *1247:A1 0.000241483
4 *1247:A2 *1358:CLK 0
5 *1247:A2 *301:10 0
6 *1242:B *1247:A2 0
7 *1358:D *1247:A2 0
8 *180:10 *1247:A2 0
*RES
1 *1246:X *1247:A2 11.52 
*END

*D_NET *184 0.00132781
*CONN
*I *1249:B I *D sky130_fd_sc_hd__nand2_1
*I *1248:X O *D sky130_fd_sc_hd__a31o_1
*CAP
1 *1249:B 0.000309152
2 *1248:X 0.000309152
3 *1249:B *1314:C 0.000350486
4 *1233:D *1249:B 8.53113e-06
5 *166:57 *1249:B 0
6 *167:8 *1249:B 0
7 *170:18 *1249:B 0.000350486
*RES
1 *1248:X *1249:B 13.83 
*END

*D_NET *185 0.000238601
*CONN
*I *1250:A2 I *D sky130_fd_sc_hd__a21oi_1
*I *1249:Y O *D sky130_fd_sc_hd__nand2_1
*CAP
1 *1250:A2 4.75211e-05
2 *1249:Y 4.75211e-05
3 *1250:A2 *266:60 7.90356e-06
4 *1250:A2 *266:62 5.53249e-06
5 *1250:A2 *268:33 9.47454e-05
6 *170:18 *1250:A2 3.53776e-05
*RES
1 *1249:Y *1250:A2 8.58 
*END

*D_NET *186 0.000976333
*CONN
*I *1252:A2 I *D sky130_fd_sc_hd__a21oi_1
*I *1251:X O *D sky130_fd_sc_hd__xor2_1
*CAP
1 *1252:A2 0.000268303
2 *1251:X 0.000268303
3 *1252:A2 *1252:B1 0.000124473
4 *1252:A2 *304:29 0
5 *1251:B *1252:A2 0.00021505
6 *1252:A1 *1252:A2 2.30292e-05
7 *1360:D *1252:A2 7.71765e-05
*RES
1 *1251:X *1252:A2 12.15 
*END

*D_NET *187 0.0051039
*CONN
*I *1255:A_N I *D sky130_fd_sc_hd__nand2b_1
*I *1259:C I *D sky130_fd_sc_hd__and3_1
*I *1257:B I *D sky130_fd_sc_hd__xnor2_1
*I *1253:X O *D sky130_fd_sc_hd__and4_1
*CAP
1 *1255:A_N 0.000517555
2 *1259:C 3.47433e-05
3 *1257:B 0.000186822
4 *1253:X 0.000274288
5 *187:20 0.000498353
6 *187:10 0.00106863
7 *1255:A_N *1254:A1 9.37422e-06
8 *1255:A_N *1254:B1 7.81998e-05
9 *1255:A_N *1255:B 0.000325603
10 *1255:A_N *1256:B1 8.65905e-05
11 *1257:B *1258:A2 4.99619e-05
12 *1257:B *1259:A 8.65961e-05
13 *1257:B *266:96 2.96409e-05
14 *1257:B *268:68 2.20014e-05
15 *1257:B *268:72 0.000307773
16 *1257:B *306:29 0.000623453
17 *1259:C *1259:A 1.37328e-05
18 *1259:C *266:96 4.03668e-05
19 *187:10 *1228:C 1.91597e-05
20 *187:10 *1254:B1 0.000116853
21 *187:10 *305:15 9.09209e-05
22 *187:10 *305:24 1.91597e-05
23 *187:10 *307:29 3.32209e-05
24 *187:20 *1261:A2 8.35068e-05
25 *187:20 *1261:B1 7.67727e-05
26 *187:20 *191:12 4.77757e-05
27 *187:20 *266:90 4.85359e-05
28 *187:20 *266:96 2.04078e-05
29 *187:20 *268:68 0.00012489
30 *187:20 *307:29 0.000139641
31 *1254:A3 *1255:A_N 2.93678e-05
*RES
1 *1253:X *187:10 7.92 
2 *187:10 *187:20 8.495 
3 *187:20 *1257:B 8.95 
4 *187:20 *1259:C 2.58625 
5 *187:10 *1255:A_N 11.67 
*END

*D_NET *188 0.000939693
*CONN
*I *1255:B I *D sky130_fd_sc_hd__nand2b_1
*I *1254:X O *D sky130_fd_sc_hd__a31o_1
*CAP
1 *1255:B 9.74528e-05
2 *1254:X 9.74528e-05
3 *1255:B *1256:A1 0
4 *1255:B *1256:B1 2.59471e-05
5 *1255:B *1314:C 0.000393237
6 *1255:A_N *1255:B 0.000325603
*RES
1 *1254:X *1255:B 7.56875 
*END

*D_NET *189 0.000111545
*CONN
*I *1256:A2 I *D sky130_fd_sc_hd__a21oi_1
*I *1255:Y O *D sky130_fd_sc_hd__nand2b_1
*CAP
1 *1256:A2 5.81042e-06
2 *1255:Y 5.81042e-06
3 *1256:A2 *1256:A1 4.99619e-05
4 *1256:A2 *1256:B1 4.99619e-05
*RES
1 *1255:Y *1256:A2 3.65 
*END

*D_NET *190 0.00015793
*CONN
*I *1258:A2 I *D sky130_fd_sc_hd__a21oi_1
*I *1257:Y O *D sky130_fd_sc_hd__xnor2_1
*CAP
1 *1258:A2 5.3984e-05
2 *1257:Y 5.3984e-05
3 *1258:A2 *266:96 0
4 *1258:A2 *306:29 0
5 *1257:B *1258:A2 4.99619e-05
*RES
1 *1257:Y *1258:A2 4.265 
*END

*D_NET *191 0.00125141
*CONN
*I *1261:A2 I *D sky130_fd_sc_hd__o21a_1
*I *1260:A2 I *D sky130_fd_sc_hd__a21oi_1
*I *1259:X O *D sky130_fd_sc_hd__and3_1
*CAP
1 *1261:A2 0.000277256
2 *1260:A2 0
3 *1259:X 4.96154e-05
4 *191:12 0.000326872
5 *1261:A2 *1261:B1 0.000160529
6 *1261:A2 *1357:CLK 9.35665e-05
7 *1261:A2 *1363:D 0
8 *1261:A2 *266:96 3.93101e-05
9 *1261:A2 *307:10 9.03138e-05
10 *1261:A2 *307:29 2.97746e-05
11 *191:12 *266:96 2.86975e-05
12 *191:12 *306:37 0
13 *191:12 *307:29 2.41894e-05
14 *187:20 *1261:A2 8.35068e-05
15 *187:20 *191:12 4.77757e-05
*RES
1 *1259:X *191:12 6.665 
2 *191:12 *1260:A2 1.6 
3 *191:12 *1261:A2 11.3 
*END

*D_NET *192 0.00086763
*CONN
*I *1261:B1 I *D sky130_fd_sc_hd__o21a_1
*I *1260:Y O *D sky130_fd_sc_hd__a21oi_1
*CAP
1 *1261:B1 0.000258802
2 *1260:Y 0.000258802
3 *1261:B1 *1261:A1 4.59407e-05
4 *1261:B1 *244:67 0
5 *1261:B1 *268:68 4.82863e-05
6 *1261:B1 *307:29 1.8497e-05
7 *1261:A2 *1261:B1 0.000160529
8 *187:20 *1261:B1 7.67727e-05
*RES
1 *1260:Y *1261:B1 12.345 
*END

*D_NET *193 0.000806921
*CONN
*I *1263:B I *D sky130_fd_sc_hd__or2_1
*I *1262:Y O *D sky130_fd_sc_hd__nor2_1
*CAP
1 *1263:B 0.000231441
2 *1262:Y 0.000231441
3 *1263:B *1234:B 0.000185405
4 *1263:B *266:50 7.26551e-05
5 *1234:C *1263:B 2.66935e-05
6 *175:8 *1263:B 5.92849e-05
*RES
1 *1262:Y *1263:B 12.36 
*END

*D_NET *194 0.000788857
*CONN
*I *1264:A2 I *D sky130_fd_sc_hd__a21oi_1
*I *1263:X O *D sky130_fd_sc_hd__or2_1
*CAP
1 *1264:A2 0.000125605
2 *1263:X 0.000125605
3 *1264:A2 *209:10 3.31204e-05
4 *1264:A2 *246:8 6.85516e-05
5 *1264:A2 *246:10 0.000152814
6 *1264:A2 *246:12 9.50342e-06
7 *171:8 *1264:A2 2.60908e-05
8 *173:42 *1264:A2 0.000247567
*RES
1 *1263:X *1264:A2 11.07 
*END

*D_NET *195 0.000385965
*CONN
*I *1266:A2 I *D sky130_fd_sc_hd__a21oi_1
*I *1265:Y O *D sky130_fd_sc_hd__xnor2_1
*CAP
1 *1266:A2 8.86961e-05
2 *1265:Y 8.86961e-05
3 *1266:A2 *1231:C 2.49909e-05
4 *1266:A2 *1266:A1 3.42142e-05
5 *1266:A2 *209:10 7.63125e-05
6 *1266:A2 *266:16 7.30547e-05
*RES
1 *1265:Y *1266:A2 9.285 
*END

*D_NET *196 0.000317094
*CONN
*I *1268:A2 I *D sky130_fd_sc_hd__o21a_1
*I *1267:Y O *D sky130_fd_sc_hd__nor2_1
*CAP
1 *1268:A2 2.91106e-05
2 *1267:Y 2.91106e-05
3 *1268:A2 *267:27 9.91257e-05
4 *1268:A2 *268:10 0.000159747
*RES
1 *1267:Y *1268:A2 4.685 
*END

*D_NET *197 0.00027968
*CONN
*I *1269:B I *D sky130_fd_sc_hd__nor2_1
*I *1268:X O *D sky130_fd_sc_hd__o21a_1
*CAP
1 *1269:B 5.61331e-05
2 *1268:X 5.61331e-05
3 *1269:B *267:27 0.000162777
4 *1366:D *1269:B 4.6368e-06
*RES
1 *1268:X *1269:B 4.685 
*END

*D_NET *198 0.000167297
*CONN
*I *1271:B I *D sky130_fd_sc_hd__or2_1
*I *1270:Y O *D sky130_fd_sc_hd__nor2_1
*CAP
1 *1271:B 2.7154e-05
2 *1270:Y 2.7154e-05
3 *1271:B *1270:A 4.74638e-05
4 *1271:B *1272:A1 4.82863e-05
5 *1271:A *1271:B 1.72386e-05
*RES
1 *1270:Y *1271:B 3.995 
*END

*D_NET *199 0.000448312
*CONN
*I *1272:A2 I *D sky130_fd_sc_hd__a21oi_1
*I *1271:X O *D sky130_fd_sc_hd__or2_1
*CAP
1 *1272:A2 0.000112776
2 *1271:X 0.000112776
3 *1272:A2 *1272:A1 6.34306e-05
4 *1272:A2 *1272:B1 0.000159329
*RES
1 *1271:X *1272:A2 5.72 
*END

*D_NET *200 0.000955618
*CONN
*I *1274:B1_N I *D sky130_fd_sc_hd__o21ba_1
*I *1273:X O *D sky130_fd_sc_hd__a41o_1
*CAP
1 *1274:B1_N 0.000204801
2 *1273:X 0.000204801
3 *1274:B1_N *297:42 0.000273008
4 *1274:A2 *1274:B1_N 0.000273008
*RES
1 *1273:X *1274:B1_N 12.21 
*END

*D_NET *201 0.00102959
*CONN
*I *1276:B I *D sky130_fd_sc_hd__nor2_1
*I *1275:Y O *D sky130_fd_sc_hd__a21oi_1
*CAP
1 *1276:B 0.000347614
2 *1275:Y 0.000347614
3 *1276:B *1276:A 0
4 *1276:B *297:14 0
5 *1276:B *298:12 0.000238919
6 *1369:D *1276:B 9.54469e-05
7 *1394:A *1276:B 0
*RES
1 *1275:Y *1276:B 12.795 
*END

*D_NET *202 0.00330288
*CONN
*I *1308:D I *D sky130_fd_sc_hd__or4_1
*I *1300:A_N I *D sky130_fd_sc_hd__and3b_1
*I *1281:B1 I *D sky130_fd_sc_hd__a221o_1
*I *1277:X O *D sky130_fd_sc_hd__or3_1
*CAP
1 *1308:D 1.94846e-05
2 *1300:A_N 0.000183183
3 *1281:B1 2.64103e-05
4 *1277:X 0.000268987
5 *202:25 0.000316331
6 *202:12 0.000409061
7 *1281:B1 *1281:A2 5.53249e-06
8 *1281:B1 *1281:C1 1.94805e-05
9 *1281:B1 *269:94 1.52945e-05
10 *1300:A_N *1127:B 0.00010978
11 *1300:A_N *231:10 0
12 *1300:A_N *247:8 0.000163204
13 *1300:A_N *247:84 0.000234674
14 *1300:A_N *339:56 0.000276441
15 *1300:A_N *340:22 2.34345e-05
16 *1308:D *1301:B2 5.53249e-06
17 *1308:D *287:10 2.78732e-05
18 *202:12 *1281:C1 1.08194e-05
19 *202:12 *269:94 0.000243153
20 *202:25 *1127:B 4.66108e-05
21 *202:25 *247:84 0.000408516
22 *1123:C *1308:D 9.50342e-06
23 *1130:B1 *202:25 0.000224698
24 *1300:C *1300:A_N 9.37731e-05
25 *80:18 *1300:A_N 7.23602e-05
26 *81:49 *1300:A_N 0
27 *90:10 *1308:D 4.21314e-05
28 *91:10 *1300:A_N 0
29 *93:10 *202:25 4.66108e-05
*RES
1 *1277:X *202:12 9.36 
2 *202:12 *1281:B1 4.215 
3 *202:12 *202:25 5.9 
4 *202:25 *1300:A_N 11.555 
5 *202:25 *1308:D 6.215 
*END

*D_NET *203 0.000796963
*CONN
*I *1279:A3 I *D sky130_fd_sc_hd__a31o_1
*I *1278:Y O *D sky130_fd_sc_hd__xnor2_1
*CAP
1 *1279:A3 0.000172808
2 *1278:Y 0.000172808
3 *1279:A3 *1128:A 7.00889e-06
4 *1279:A3 *1279:B1 4.82919e-05
5 *1279:A3 *1281:B2 4.82919e-05
6 *1279:A3 *247:84 0.000122337
7 *1279:A3 *269:94 0.000116165
8 *1279:A3 *337:34 2.32597e-05
9 *1279:A3 *337:60 5.02217e-05
10 *1279:A3 *337:73 1.07797e-05
11 *1279:A3 *339:32 2.49909e-05
*RES
1 *1278:Y *1279:A3 10.86 
*END

*D_NET *204 0.00058167
*CONN
*I *1281:B2 I *D sky130_fd_sc_hd__a221o_1
*I *1279:X O *D sky130_fd_sc_hd__a31o_1
*CAP
1 *1281:B2 0.000212245
2 *1279:X 0.000212245
3 *1281:B2 *1279:B1 0
4 *1281:B2 *1281:A2 1.2818e-05
5 *1281:B2 *247:84 9.60695e-05
6 *1279:A3 *1281:B2 4.82919e-05
*RES
1 *1279:X *1281:B2 7.055 
*END

*D_NET *205 0.00128659
*CONN
*I *1281:C1 I *D sky130_fd_sc_hd__a221o_1
*I *1280:Y O *D sky130_fd_sc_hd__a21oi_1
*CAP
1 *1281:C1 0.000296154
2 *1280:Y 0.000296154
3 *1281:C1 *1113:A 2.30292e-05
4 *1281:C1 *1122:B 0.00023468
5 *1281:C1 *287:10 0
6 *1281:C1 *337:77 7.49327e-05
7 *1129:B *1281:C1 7.35729e-05
8 *1280:B1 *1281:C1 0.000120655
9 *1281:B1 *1281:C1 1.94805e-05
10 *1290:A *1281:C1 0.000125857
11 *82:31 *1281:C1 1.12578e-05
12 *202:12 *1281:C1 1.08194e-05
*RES
1 *1280:Y *1281:C1 14.76 
*END

*D_NET *206 0.0031861
*CONN
*I *1282:C I *D sky130_fd_sc_hd__or3_1
*I *1316:A3 I *D sky130_fd_sc_hd__o31a_1
*I *1281:X O *D sky130_fd_sc_hd__a221o_1
*CAP
1 *1282:C 0
2 *1316:A3 8.44309e-05
3 *1281:X 0.000273184
4 *206:12 0.000357615
5 *1316:A3 *1316:A1 0.00010068
6 *1316:A3 *1316:A2 1.83756e-05
7 *1316:A3 *259:8 0.000237243
8 *206:12 *1329:A2 0
9 *206:12 *247:84 0.000719804
10 *206:12 *247:88 0.000362285
11 *206:12 *247:123 4.21314e-05
12 *206:12 *328:34 7.63883e-05
13 *1130:B1 *206:12 0.000913966
*RES
1 *1281:X *206:12 16.955 
2 *206:12 *1316:A3 4.495 
3 *206:12 *1282:C 1.6 
*END

*D_NET *207 0.00111328
*CONN
*I *1329:A2 I *D sky130_fd_sc_hd__o21a_1
*I *1283:B I *D sky130_fd_sc_hd__nor2_1
*I *1282:X O *D sky130_fd_sc_hd__or3_1
*CAP
1 *1329:A2 0.000295789
2 *1283:B 4.20028e-05
3 *1282:X 0
4 *207:6 0.000337792
5 *1283:B *1282:A 4.43871e-06
6 *1283:B *250:35 4.18603e-06
7 *1283:B *250:50 3.46842e-05
8 *1283:B *259:8 3.00381e-05
9 *1283:B *328:34 2.96383e-05
10 *1329:A2 *250:50 0.000157762
11 *1329:A2 *328:34 4.18603e-06
12 *1329:A2 *341:22 7.35813e-05
13 *1130:B1 *1329:A2 9.91801e-05
14 *206:12 *1329:A2 0
*RES
1 *1282:X *207:6 3.6 
2 *207:6 *1283:B 4.92 
3 *207:6 *1329:A2 9.69 
*END

*D_NET *208 0.00479947
*CONN
*I *1303:B1 I *D sky130_fd_sc_hd__o21a_1
*I *1306:B I *D sky130_fd_sc_hd__and2b_1
*I *1315:A I *D sky130_fd_sc_hd__and3_1
*I *1283:Y O *D sky130_fd_sc_hd__nor2_1
*CAP
1 *1303:B1 2.08101e-05
2 *1306:B 0.000187009
3 *1315:A 5.78043e-05
4 *1283:Y 0.000974352
5 *208:10 0.0003804
6 *208:6 0.00113075
7 *1306:B *1306:A_N 0.000178255
8 *1306:B *243:36 0
9 *1315:A *1306:A_N 0.000120186
10 *1315:A *243:36 0
11 *208:6 *1303:A2 8.63479e-05
12 *208:6 *215:10 0.0001947
13 *208:6 *259:8 0.000615163
14 *208:6 *259:25 0.00019
15 *208:6 *259:31 0.000387902
16 *1290:A *208:6 0.000238919
17 *1370:D *1306:B 3.68682e-05
*RES
1 *1283:Y *208:6 20.68 
2 *208:6 *208:10 3.83 
3 *208:10 *1315:A 4.98 
4 *208:10 *1306:B 7.23 
5 *208:6 *1303:B1 1.96 
*END

*D_NET *209 0.00392978
*CONN
*I *1286:B I *D sky130_fd_sc_hd__or2_1
*I *1285:C1 I *D sky130_fd_sc_hd__a2111o_1
*I *1284:X O *D sky130_fd_sc_hd__or4_1
*CAP
1 *1286:B 0.000320041
2 *1285:C1 0.00012784
3 *1284:X 0.000572588
4 *209:10 0.00102047
5 *1285:C1 *1359:CLK 0.000277029
6 *1286:B *1286:A 0.000545352
7 *1286:B *211:10 8.65961e-05
8 *1286:B *293:10 5.82987e-05
9 *209:10 *1284:A 5.83121e-06
10 *209:10 *1286:A 0
11 *209:10 *1359:CLK 2.14129e-05
12 *209:10 *246:8 7.5416e-05
13 *209:10 *246:10 0.000162318
14 *209:10 *246:12 0.000206123
15 *209:10 *266:16 4.19797e-05
16 *209:10 *294:10 0
17 *209:10 *294:12 0
18 *1231:D *209:10 0
19 *1264:A2 *209:10 3.31204e-05
20 *1266:A2 *209:10 7.63125e-05
21 *1364:D *1286:B 1.54049e-05
22 *1364:D *209:10 0.000139231
23 *171:19 *209:10 0
24 *172:10 *209:10 7.4027e-05
25 *173:42 *209:10 7.03934e-05
*RES
1 *1284:X *209:10 16.14 
2 *209:10 *1285:C1 6.765 
3 *209:10 *1286:B 10.26 
*END

*D_NET *210 0.00328414
*CONN
*I *1287:A3 I *D sky130_fd_sc_hd__a41o_1
*I *1285:X O *D sky130_fd_sc_hd__a2111o_1
*CAP
1 *1287:A3 0.00101695
2 *1285:X 0.00101695
3 *1287:A3 *1287:A4 8.65961e-05
4 *1287:A3 *1289:B 6.4422e-05
5 *1287:A3 *1295:A2 0
6 *1287:A3 *1306:A_N 9.91714e-05
7 *1287:A3 *1312:B1 2.59926e-05
8 *1287:A3 *1314:A 8.65905e-05
9 *1287:A3 *1314:C 0.000727501
10 *1287:A3 *214:10 0.000159964
11 *1287:A3 *221:12 0
12 *1287:A1 *1287:A3 0
13 *1312:C1 *1287:A3 0
*RES
1 *1285:X *1287:A3 24.135 
*END

*D_NET *211 0.0032504
*CONN
*I *1312:A2 I *D sky130_fd_sc_hd__o311a_1
*I *1295:A1 I *D sky130_fd_sc_hd__o21ba_1
*I *1287:A4 I *D sky130_fd_sc_hd__a41o_1
*I *1286:X O *D sky130_fd_sc_hd__or2_1
*CAP
1 *1312:A2 1.26537e-05
2 *1295:A1 0
3 *1287:A4 0.000431736
4 *1286:X 0.000302492
5 *211:16 0.000668657
6 *211:10 0.000552066
7 *1287:A4 *1289:B 0
8 *1287:A4 *1295:A2 5.53249e-06
9 *1287:A4 *302:19 0
10 *1312:A2 *1312:A1 5.83121e-06
11 *1312:A2 *1314:B 4.82919e-05
12 *1312:A2 *1314:C 1.47347e-05
13 *211:10 *1286:A 4.60584e-05
14 *211:16 *1295:A2 0.000249627
15 *211:16 *1311:A2 8.09021e-06
16 *211:16 *1312:A3 6.02123e-05
17 *211:16 *302:19 0
18 *1286:B *211:10 8.65961e-05
19 *1287:A3 *1287:A4 8.65961e-05
20 *1312:C1 *211:16 0
21 *1372:D *211:10 0
22 *1384:A *211:10 0.000265164
23 *1384:A *211:16 0.000406062
*RES
1 *1286:X *211:10 8.94 
2 *211:10 *211:16 7.035 
3 *211:16 *1287:A4 10.335 
4 *211:16 *1295:A1 3.6 
5 *211:10 *1312:A2 4.05 
*END

*D_NET *212 0.00299164
*CONN
*I *1293:A1 I *D sky130_fd_sc_hd__o21a_1
*I *1305:A2 I *D sky130_fd_sc_hd__o32a_1
*I *1324:C I *D sky130_fd_sc_hd__or4_1
*I *1307:B I *D sky130_fd_sc_hd__or3b_1
*I *1287:X O *D sky130_fd_sc_hd__a41o_1
*CAP
1 *1293:A1 5.22919e-05
2 *1305:A2 0.000101504
3 *1324:C 7.18883e-05
4 *1307:B 0
5 *1287:X 6.32769e-05
6 *212:18 0.000519328
7 *212:10 0.000599295
8 *212:6 0.00016592
9 *1293:A1 *1287:A2 4.21973e-05
10 *1293:A1 *1303:A1 5.83121e-06
11 *1293:A1 *255:10 7.22354e-05
12 *1305:A2 *1303:A1 0.000173533
13 *1305:A2 *1305:A3 5.83121e-06
14 *1305:A2 *222:10 3.47668e-05
15 *1324:C *1324:D 3.83041e-05
16 *1324:C *214:45 4.99619e-05
17 *212:6 *1287:A2 9.52646e-05
18 *212:6 *1303:A1 2.75145e-05
19 *212:10 *1303:A1 9.54399e-05
20 *212:10 *222:10 3.98952e-05
21 *212:10 *243:14 2.50049e-05
22 *212:18 *1292:A2 7.22354e-05
23 *212:18 *1293:A2 4.82919e-05
24 *212:18 *214:19 7.8936e-05
25 *212:18 *214:30 0.000146495
26 *212:18 *214:45 1.12578e-05
27 *1295:B1_N *1305:A2 9.37731e-05
28 *1305:A1 *1305:A2 2.37083e-05
29 *1324:B *1324:C 2.75229e-05
30 *155:35 *1305:A2 1.85674e-05
31 *156:10 *1293:A1 0.000160641
32 *156:10 *212:10 3.09233e-05
*RES
1 *1287:X *212:6 3.085 
2 *212:6 *212:10 3.635 
3 *212:10 *212:18 9.125 
4 *212:18 *1307:B 1.6 
5 *212:18 *1324:C 3.355 
6 *212:10 *1305:A2 6.555 
7 *212:6 *1293:A1 3.43 
*END

*D_NET *213 0.00571129
*CONN
*I *1289:B I *D sky130_fd_sc_hd__or2_1
*I *1313:D I *D sky130_fd_sc_hd__or4_1
*I *1288:X O *D sky130_fd_sc_hd__or2_1
*CAP
1 *1289:B 0.00227374
2 *1313:D 0.000388244
3 *1288:X 7.24104e-05
4 *213:10 0.00273439
5 *1289:B *1296:A2 2.75145e-05
6 *1313:D *1313:A 1.01661e-05
7 *1313:D *1313:B 7.87426e-05
8 *1313:D *1313:C 3.50033e-05
9 *213:10 *1258:A1 0
10 *213:10 *1288:B 0
11 *213:10 *268:83 0
12 *1287:A3 *1289:B 6.4422e-05
13 *1287:A4 *1289:B 0
14 *1295:B1_N *1289:B 2.66586e-05
15 *1414:A *1313:D 0
16 *1416:A *1313:D 0
17 *1426:A *1313:D 0
*RES
1 *1288:X *213:10 6.725 
2 *213:10 *1313:D 12.125 
3 *213:10 *1289:B 36.92 
*END

*D_NET *214 0.00315796
*CONN
*I *1324:D I *D sky130_fd_sc_hd__or4_1
*I *1307:C_N I *D sky130_fd_sc_hd__or3b_1
*I *1304:D I *D sky130_fd_sc_hd__or4_1
*I *1292:B1 I *D sky130_fd_sc_hd__a21oi_1
*I *1296:B1 I *D sky130_fd_sc_hd__a21oi_1
*I *1289:X O *D sky130_fd_sc_hd__or2_1
*CAP
1 *1324:D 1.77555e-05
2 *1307:C_N 0
3 *1304:D 8.94464e-05
4 *1292:B1 0
5 *1296:B1 1.36534e-05
6 *1289:X 8.58246e-05
7 *214:45 5.2625e-05
8 *214:30 0.000402275
9 *214:19 0.000492744
10 *214:10 0.000314262
11 *1304:D *1304:C 4.66108e-05
12 *1304:D *1324:A 4.66108e-05
13 *214:10 *221:12 0
14 *214:30 *1292:A2 0.000122331
15 *1287:A1 *214:10 0
16 *1287:A3 *214:10 0.000159964
17 *1295:B1_N *1296:B1 4.66108e-05
18 *1295:B1_N *214:19 0.000495112
19 *1296:A1 *1296:B1 4.66108e-05
20 *1296:A1 *214:19 0.000263002
21 *1324:C *1324:D 3.83041e-05
22 *1324:C *214:45 4.99619e-05
23 *91:10 *1304:D 0.000137571
24 *212:18 *214:19 7.8936e-05
25 *212:18 *214:30 0.000146495
26 *212:18 *214:45 1.12578e-05
*RES
1 *1289:X *214:10 7.49 
2 *214:10 *1296:B1 2.05 
3 *214:10 *214:19 5.97 
4 *214:19 *1292:B1 1.6 
5 *214:19 *214:30 5.055 
6 *214:30 *1304:D 7.685 
7 *214:30 *214:45 0.795 
8 *214:45 *1307:C_N 1.6 
9 *214:45 *1324:D 2.05 
*END

*D_NET *215 0.00195561
*CONN
*I *1291:B I *D sky130_fd_sc_hd__nor2_1
*I *1302:A1 I *D sky130_fd_sc_hd__a31o_1
*I *1290:Y O *D sky130_fd_sc_hd__nor2_1
*CAP
1 *1291:B 0
2 *1302:A1 0.000454593
3 *1290:Y 0.000195825
4 *215:10 0.000650418
5 *1302:A1 *1292:A2 0
6 *1302:A1 *1301:B2 5.53249e-06
7 *1302:A1 *1302:B1 6.74079e-05
8 *1302:A1 *1310:B1 4.47938e-06
9 *1302:A1 *1326:B1 3.25831e-05
10 *1302:A1 *221:23 0.000151959
11 *1302:A1 *225:10 1.7635e-05
12 *1302:A1 *259:31 0
13 *1302:A1 *259:39 0
14 *215:10 *1301:B2 2.23407e-05
15 *215:10 *259:31 0
16 *1301:A1_N *1302:A1 2.52525e-06
17 *91:10 *1302:A1 4.18203e-05
18 *91:10 *215:10 0.00011379
19 *208:6 *215:10 0.0001947
*RES
1 *1290:Y *215:10 6.81 
2 *215:10 *1302:A1 7.72567 
3 *215:10 *1291:B 3.6 
*END

*D_NET *216 0.00214477
*CONN
*I *1301:A2_N I *D sky130_fd_sc_hd__a2bb2o_1
*I *1292:A2 I *D sky130_fd_sc_hd__a21oi_1
*I *1291:Y O *D sky130_fd_sc_hd__nor2_1
*CAP
1 *1301:A2_N 0
2 *1292:A2 0.000335751
3 *1291:Y 0.000118121
4 *216:8 0.000453872
5 *1292:A2 *1301:B2 4.18603e-06
6 *1292:A2 *1309:B1 0.000142515
7 *1292:A2 *1326:B1 0
8 *1292:A2 *223:10 0
9 *1292:A2 *259:31 0.00020338
10 *1292:A2 *259:39 0.00013521
11 *1292:A2 *330:73 6.28843e-05
12 *216:8 *1301:B1 4.43682e-05
13 *216:8 *1301:B2 0.000120655
14 *1213:A2 *1292:A2 7.44453e-05
15 *1301:A1_N *1292:A2 2.85206e-05
16 *1301:A1_N *216:8 2.49909e-05
17 *1302:A1 *1292:A2 0
18 *1309:A3 *1292:A2 7.89767e-05
19 *93:27 *216:8 2.36616e-05
20 *155:16 *1292:A2 9.86611e-05
21 *212:18 *1292:A2 7.22354e-05
22 *214:30 *1292:A2 0.000122331
*RES
1 *1291:Y *216:8 4.135 
2 *216:8 *1292:A2 15.005 
3 *216:8 *1301:A2_N 1.6 
*END

*D_NET *217 0.000274199
*CONN
*I *1293:A2 I *D sky130_fd_sc_hd__o21a_1
*I *1292:Y O *D sky130_fd_sc_hd__a21oi_1
*CAP
1 *1293:A2 6.25934e-05
2 *1292:Y 6.25934e-05
3 *1293:A2 *222:10 7.4027e-05
4 *1292:A1 *1293:A2 2.66935e-05
5 *212:18 *1293:A2 4.82919e-05
*RES
1 *1292:Y *1293:A2 8.52 
*END

*D_NET *218 0.00243933
*CONN
*I *1303:A1 I *D sky130_fd_sc_hd__o21a_1
*I *1293:X O *D sky130_fd_sc_hd__o21a_1
*CAP
1 *1303:A1 0.000364346
2 *1293:X 0.000364346
3 *1303:A1 *1298:B 0
4 *1303:A1 *1327:C1 7.23533e-05
5 *1303:A1 *243:14 0.000337517
6 *1303:A1 *243:36 0.000660135
7 *1293:A1 *1303:A1 5.83121e-06
8 *1295:B1_N *1303:A1 1.26626e-05
9 *1305:A1 *1303:A1 0.000325647
10 *1305:A2 *1303:A1 0.000173533
11 *212:6 *1303:A1 2.75145e-05
12 *212:10 *1303:A1 9.54399e-05
*RES
1 *1293:X *1303:A1 19.23 
*END

*D_NET *219 0.00118032
*CONN
*I *1295:A2 I *D sky130_fd_sc_hd__o21ba_1
*I *1294:X O *D sky130_fd_sc_hd__o211a_1
*CAP
1 *1295:A2 0.000387776
2 *1294:X 0.000387776
3 *1295:A2 *1311:A1 2.20732e-05
4 *1295:A2 *1312:A3 9.60582e-07
5 *1287:A3 *1295:A2 0
6 *1287:A4 *1295:A2 5.53249e-06
7 *1311:B1 *1295:A2 0.00012657
8 *211:16 *1295:A2 0.000249627
*RES
1 *1294:X *1295:A2 13.485 
*END

*D_NET *220 7.95234e-05
*CONN
*I *1296:A2 I *D sky130_fd_sc_hd__a21oi_1
*I *1295:X O *D sky130_fd_sc_hd__o21ba_1
*CAP
1 *1296:A2 1.09854e-05
2 *1295:X 1.09854e-05
3 *1289:B *1296:A2 2.75145e-05
4 *1295:B1_N *1296:A2 3.00381e-05
*RES
1 *1295:X *1296:A2 3.65 
*END

*D_NET *221 0.00386943
*CONN
*I *1302:A2 I *D sky130_fd_sc_hd__a31o_1
*I *1326:B1 I *D sky130_fd_sc_hd__o211ai_1
*I *1310:A1 I *D sky130_fd_sc_hd__o21ai_1
*I *1296:Y O *D sky130_fd_sc_hd__a21oi_1
*CAP
1 *1302:A2 0
2 *1326:B1 0.000177034
3 *1310:A1 0
4 *1296:Y 0.000501447
5 *221:23 0.000466115
6 *221:12 0.000790528
7 *1326:B1 *1312:B1 4.43871e-06
8 *1326:B1 *1326:C1 0.000275553
9 *1326:B1 *223:10 1.22676e-05
10 *1326:B1 *223:23 5.93757e-05
11 *1326:B1 *259:39 2.30292e-05
12 *221:12 *1306:A_N 0.000270078
13 *221:12 *1310:A2 7.4027e-05
14 *221:12 *243:36 0
15 *221:23 *1303:A2 1.52945e-05
16 *221:23 *1310:B1 0.000382758
17 *221:23 *1312:B1 7.26629e-05
18 *221:23 *1315:B 5.05521e-05
19 *221:23 *225:10 1.61696e-05
20 *1287:A1 *221:12 2.03578e-05
21 *1287:A3 *221:12 0
22 *1292:A2 *1326:B1 0
23 *1296:A1 *221:12 0.000113247
24 *1302:A1 *1326:B1 3.25831e-05
25 *1302:A1 *221:23 0.000151959
26 *87:64 *1326:B1 9.07709e-05
27 *87:83 *221:12 0.000108543
28 *155:16 *1326:B1 0.000160641
29 *214:10 *221:12 0
*RES
1 *1296:Y *221:12 16.205 
2 *221:12 *1310:A1 1.6 
3 *221:12 *221:23 8.735 
4 *221:23 *1326:B1 8.865 
5 *221:23 *1302:A2 3.6 
*END

*D_NET *222 0.00158942
*CONN
*I *1298:B I *D sky130_fd_sc_hd__and2b_1
*I *1305:B1 I *D sky130_fd_sc_hd__o32a_1
*I *1297:Y O *D sky130_fd_sc_hd__nor2_1
*CAP
1 *1298:B 6.37371e-05
2 *1305:B1 0
3 *1297:Y 0.000429138
4 *222:10 0.000492875
5 *1298:B *1305:A3 8.65961e-05
6 *1298:B *223:10 4.82919e-05
7 *222:10 *1297:B 0.000154098
8 *222:10 *330:58 0
9 *222:10 *330:73 0
10 *1213:A2 *222:10 0
11 *1292:A1 *222:10 0
12 *1293:A2 *222:10 7.4027e-05
13 *1295:B1_N *222:10 6.28843e-05
14 *1303:A1 *1298:B 0
15 *1305:A1 *1298:B 4.43871e-06
16 *1305:A2 *222:10 3.47668e-05
17 *155:16 *1298:B 0
18 *155:16 *222:10 0
19 *156:10 *222:10 9.86689e-05
20 *212:10 *222:10 3.98952e-05
*RES
1 *1297:Y *222:10 11.835 
2 *222:10 *1305:B1 3.6 
3 *222:10 *1298:B 5.01 
*END

*D_NET *223 0.00221993
*CONN
*I *1302:A3 I *D sky130_fd_sc_hd__a31o_1
*I *1299:A I *D sky130_fd_sc_hd__inv_2
*I *1326:C1 I *D sky130_fd_sc_hd__o211ai_1
*I *1298:X O *D sky130_fd_sc_hd__and2b_1
*CAP
1 *1302:A3 2.13357e-05
2 *1299:A 5.8265e-05
3 *1326:C1 0.000144038
4 *1298:X 0.000127225
5 *223:23 0.000140516
6 *223:10 0.000332178
7 *1299:A *1312:B1 0.00022953
8 *1299:A *1314:A 0.000120433
9 *1299:A *1327:C1 8.23457e-05
10 *1302:A3 *1312:B1 4.82919e-05
11 *1302:A3 *1327:C1 7.57202e-05
12 *1326:C1 *259:39 8.57024e-05
13 *223:10 *1305:A3 2.16833e-05
14 *1292:A2 *223:10 0
15 *1298:B *223:10 4.82919e-05
16 *1305:A1 *223:10 0.000140905
17 *1305:A1 *223:23 0.000150446
18 *1326:B1 *1326:C1 0.000275553
19 *1326:B1 *223:10 1.22676e-05
20 *1326:B1 *223:23 5.93757e-05
21 *87:64 *1326:C1 4.58257e-05
22 *155:16 *223:10 0
*RES
1 *1298:X *223:10 6.03 
2 *223:10 *1326:C1 7.155 
3 *223:10 *223:23 3.89 
4 *223:23 *1299:A 3.775 
5 *223:23 *1302:A3 2.395 
*END

*D_NET *224 0.000354067
*CONN
*I *1310:A2 I *D sky130_fd_sc_hd__o21ai_1
*I *1299:Y O *D sky130_fd_sc_hd__inv_2
*CAP
1 *1310:A2 9.58867e-05
2 *1299:Y 9.58867e-05
3 *1310:A2 *1327:C1 8.8266e-05
4 *1310:A2 *243:36 0
5 *221:12 *1310:A2 7.4027e-05
*RES
1 *1299:Y *1310:A2 8.865 
*END

*D_NET *225 0.00350757
*CONN
*I *1301:B1 I *D sky130_fd_sc_hd__a2bb2o_1
*I *1312:B1 I *D sky130_fd_sc_hd__o311a_1
*I *1300:X O *D sky130_fd_sc_hd__and3b_1
*CAP
1 *1301:B1 0.000167897
2 *1312:B1 0.000388258
3 *1300:X 0.000210928
4 *225:10 0.000767083
5 *1301:B1 *1310:B1 8.49205e-05
6 *1312:B1 *1303:A2 9.71067e-05
7 *1312:B1 *1310:B1 0.00015639
8 *1312:B1 *1314:A 0.000245599
9 *1312:B1 *1314:B 7.60965e-05
10 *1312:B1 *1314:C 7.75783e-05
11 *1312:B1 *1327:C1 0.000409404
12 *1312:B1 *237:6 8.8266e-05
13 *225:10 *1303:A2 0
14 *225:10 *1310:B1 1.23268e-05
15 *225:10 *259:31 7.1001e-05
16 *1287:A3 *1312:B1 2.59926e-05
17 *1299:A *1312:B1 0.00022953
18 *1301:A1_N *1301:B1 8.40269e-05
19 *1302:A1 *225:10 1.7635e-05
20 *1302:A3 *1312:B1 4.82919e-05
21 *1305:A1 *1312:B1 2.50049e-05
22 *1305:A1 *225:10 0
23 *1326:B1 *1312:B1 4.43871e-06
24 *91:10 *225:10 0
25 *93:27 *1301:B1 8.65961e-05
26 *216:8 *1301:B1 4.43682e-05
27 *221:23 *1312:B1 7.26629e-05
28 *221:23 *225:10 1.61696e-05
*RES
1 *1300:X *225:10 9.53 
2 *225:10 *1312:B1 17.12 
3 *225:10 *1301:B1 4.825 
*END

*D_NET *226 0.000310116
*CONN
*I *1302:B1 I *D sky130_fd_sc_hd__a31o_1
*I *1301:X O *D sky130_fd_sc_hd__a2bb2o_1
*CAP
1 *1302:B1 5.68192e-05
2 *1301:X 5.68192e-05
3 *1302:B1 *1310:B1 7.4027e-05
4 *1302:B1 *1327:C1 3.00381e-05
5 *1302:B1 *259:31 2.50049e-05
6 *1302:A1 *1302:B1 6.74079e-05
*RES
1 *1301:X *1302:B1 9.03 
*END

*D_NET *227 0.000944375
*CONN
*I *1303:A2 I *D sky130_fd_sc_hd__o21a_1
*I *1302:X O *D sky130_fd_sc_hd__a31o_1
*CAP
1 *1303:A2 0.000215587
2 *1302:X 0.000215587
3 *1305:A1 *1303:A2 0.000314452
4 *1312:B1 *1303:A2 9.71067e-05
5 *208:6 *1303:A2 8.63479e-05
6 *221:23 *1303:A2 1.52945e-05
7 *225:10 *1303:A2 0
*RES
1 *1302:X *1303:A2 12.36 
*END

*D_NET *228 0.000782227
*CONN
*I *1305:A3 I *D sky130_fd_sc_hd__o32a_1
*I *1304:X O *D sky130_fd_sc_hd__or4_1
*CAP
1 *1305:A3 0.000217906
2 *1304:X 0.000217906
3 *1305:A3 *254:27 0
4 *1298:B *1305:A3 8.65961e-05
5 *1305:A1 *1305:A3 4.99619e-05
6 *1305:A2 *1305:A3 5.83121e-06
7 *155:35 *1305:A3 0.000182343
8 *223:10 *1305:A3 2.16833e-05
*RES
1 *1304:X *1305:A3 7.805 
*END

*D_NET *229 0.00198963
*CONN
*I *1306:A_N I *D sky130_fd_sc_hd__and2b_1
*I *1305:X O *D sky130_fd_sc_hd__o32a_1
*CAP
1 *1306:A_N 0.000544952
2 *1305:X 0.000544952
3 *1306:A_N *1315:C 0.000183745
4 *1306:A_N *243:10 4.82919e-05
5 *1306:A_N *243:36 0
6 *1287:A3 *1306:A_N 9.91714e-05
7 *1306:B *1306:A_N 0.000178255
8 *1312:C1 *1306:A_N 0
9 *1315:A *1306:A_N 0.000120186
10 *1370:D *1306:A_N 0
11 *1372:D *1306:A_N 0
12 *221:12 *1306:A_N 0.000270078
*RES
1 *1305:X *1306:A_N 18.915 
*END

*D_NET *230 0.000944849
*CONN
*I *1309:B1 I *D sky130_fd_sc_hd__o311a_1
*I *1307:X O *D sky130_fd_sc_hd__or3b_1
*CAP
1 *1309:B1 0.000228002
2 *1307:X 0.000228002
3 *1309:B1 *1304:B 0.000138544
4 *1309:B1 *330:73 7.23533e-05
5 *1292:A2 *1309:B1 0.000142515
6 *1309:A3 *1309:B1 9.50342e-06
7 *91:10 *1309:B1 0.00012593
*RES
1 *1307:X *1309:B1 12.66 
*END

*D_NET *231 0.00463062
*CONN
*I *1309:C1 I *D sky130_fd_sc_hd__o311a_1
*I *1314:A I *D sky130_fd_sc_hd__or3_1
*I *1308:X O *D sky130_fd_sc_hd__or4_1
*CAP
1 *1309:C1 3.95142e-05
2 *1314:A 0.000843081
3 *1308:X 0.000327305
4 *231:10 0.0012099
5 *1309:C1 *1309:A2 8.40213e-05
6 *1309:C1 *1327:C1 0.000119756
7 *1314:A *1314:C 1.67548e-05
8 *1314:A *1327:C1 0.000717229
9 *1314:A *254:27 4.9968e-05
10 *231:10 *1291:A 0.000185405
11 *231:10 *1301:B2 0.000126554
12 *231:10 *254:27 2.07184e-05
13 *1127:A *231:10 4.82863e-05
14 *1287:A3 *1314:A 8.65905e-05
15 *1299:A *1314:A 0.000120433
16 *1300:A_N *231:10 0
17 *1312:B1 *1314:A 0.000245599
18 *1325:B1 *231:10 0
19 *81:49 *231:10 0.000181383
20 *91:10 *231:10 0.000208121
21 *93:10 *231:10 0
*RES
1 *1308:X *231:10 11.805 
2 *231:10 *1314:A 16.875 
3 *231:10 *1309:C1 4.74 
*END

*D_NET *232 0.00136974
*CONN
*I *1310:B1 I *D sky130_fd_sc_hd__o21ai_1
*I *1309:X O *D sky130_fd_sc_hd__o311a_1
*CAP
1 *1310:B1 0.000270514
2 *1309:X 0.000270514
3 *1310:B1 *259:31 0.00011381
4 *1301:B1 *1310:B1 8.49205e-05
5 *1302:A1 *1310:B1 4.47938e-06
6 *1302:B1 *1310:B1 7.4027e-05
7 *1312:B1 *1310:B1 0.00015639
8 *221:23 *1310:B1 0.000382758
9 *225:10 *1310:B1 1.23268e-05
*RES
1 *1309:X *1310:B1 13.515 
*END

*D_NET *233 0.00036047
*CONN
*I *1315:B I *D sky130_fd_sc_hd__and3_1
*I *1310:Y O *D sky130_fd_sc_hd__o21ai_1
*CAP
1 *1315:B 0.000153134
2 *1310:Y 0.000153134
3 *1315:B *1315:C 3.64998e-06
4 *221:23 *1315:B 5.05521e-05
*RES
1 *1310:Y *1315:B 5.39 
*END

*D_NET *234 0.000299612
*CONN
*I *1312:A3 I *D sky130_fd_sc_hd__o311a_1
*I *1311:X O *D sky130_fd_sc_hd__o211a_1
*CAP
1 *1312:A3 0.00011922
2 *1311:X 0.00011922
3 *1295:A2 *1312:A3 9.60582e-07
4 *1312:C1 *1312:A3 0
5 *211:16 *1312:A3 6.02123e-05
*RES
1 *1311:X *1312:A3 9.03 
*END

*D_NET *235 0.000615672
*CONN
*I *1314:B I *D sky130_fd_sc_hd__or3_1
*I *1312:X O *D sky130_fd_sc_hd__o311a_1
*CAP
1 *1314:B 0.000223275
2 *1312:X 0.000223275
3 *1314:B *1312:A1 2.67184e-05
4 *1314:B *1314:C 1.80164e-05
5 *1312:A2 *1314:B 4.82919e-05
6 *1312:B1 *1314:B 7.60965e-05
*RES
1 *1312:X *1314:B 6.065 
*END

*D_NET *236 0.00701686
*CONN
*I *1314:C I *D sky130_fd_sc_hd__or3_1
*I *1313:X O *D sky130_fd_sc_hd__or4_1
*CAP
1 *1314:C 0.00137862
2 *1313:X 0.00137862
3 *1314:C *1229:D 0.000343955
4 *1314:C *1240:B1 0
5 *1314:C *1254:A1 2.68721e-05
6 *1314:C *1256:A1 0.000163199
7 *1314:C *1256:B1 4.20363e-05
8 *1314:C *1312:A1 0.000539437
9 *1314:C *1313:A 5.21046e-05
10 *1314:C *266:60 0.00049857
11 *1314:C *304:29 1.1561e-05
12 *1314:C *304:31 3.50033e-05
13 *1314:C *306:37 0.000162332
14 *1233:D *1314:C 0.000124895
15 *1249:A *1314:C 0.000273543
16 *1249:B *1314:C 0.000350486
17 *1255:B *1314:C 0.000393237
18 *1285:A2 *1314:C 0.000149759
19 *1287:A3 *1314:C 0.000727501
20 *1312:A2 *1314:C 1.47347e-05
21 *1312:B1 *1314:C 7.75783e-05
22 *1314:A *1314:C 1.67548e-05
23 *1314:B *1314:C 1.80164e-05
24 *1361:D *1314:C 4.05358e-05
25 *170:18 *1314:C 5.23864e-05
26 *170:31 *1314:C 6.27029e-05
27 *170:42 *1314:C 8.24245e-05
*RES
1 *1313:X *1314:C 45.295 
*END

*D_NET *237 0.00355267
*CONN
*I *1327:C1 I *D sky130_fd_sc_hd__o211ai_1
*I *1315:C I *D sky130_fd_sc_hd__and3_1
*I *1314:X O *D sky130_fd_sc_hd__or3_1
*CAP
1 *1327:C1 0.000561166
2 *1315:C 0.000121461
3 *1314:X 4.04336e-05
4 *237:6 0.00072306
5 *1327:C1 *1309:A1 4.66108e-05
6 *1327:C1 *1309:A2 8.82557e-05
7 *1327:C1 *1327:A1 1.85674e-05
8 *1327:C1 *1328:A2 1.16578e-05
9 *1299:A *1327:C1 8.23457e-05
10 *1302:A3 *1327:C1 7.57202e-05
11 *1302:B1 *1327:C1 3.00381e-05
12 *1303:A1 *1327:C1 7.23533e-05
13 *1305:A1 *1327:C1 7.06865e-05
14 *1306:A_N *1315:C 0.000183745
15 *1309:C1 *1327:C1 0.000119756
16 *1310:A2 *1327:C1 8.8266e-05
17 *1312:B1 *1327:C1 0.000409404
18 *1312:B1 *237:6 8.8266e-05
19 *1314:A *1327:C1 0.000717229
20 *1315:B *1315:C 3.64998e-06
*RES
1 *1314:X *237:6 2.395 
2 *237:6 *1315:C 7.91 
3 *237:6 *1327:C1 19.46 
*END

*D_NET *238 0.00158645
*CONN
*I *1322:C I *D sky130_fd_sc_hd__nor3_1
*I *1321:X O *D sky130_fd_sc_hd__o221a_1
*CAP
1 *1322:C 0.000675847
2 *1321:X 0.000675847
3 *1322:C *245:127 8.65905e-05
4 *1322:C *269:53 0
5 *1150:B *1322:C 0
6 *1319:A1 *1322:C 0
7 *1319:A2 *1322:C 0
8 *1378:D *1322:C 8.65905e-05
9 *96:20 *1322:C 6.15731e-05
10 *101:10 *1322:C 0
11 *101:16 *1322:C 0
12 *111:10 *1322:C 0
*RES
1 *1321:X *1322:C 18.3 
*END

*D_NET *239 0.0017477
*CONN
*I *1325:B2 I *D sky130_fd_sc_hd__a2bb2o_1
*I *1324:X O *D sky130_fd_sc_hd__or4_1
*CAP
1 *1325:B2 0.000424619
2 *1324:X 0.000424619
3 *1325:B2 *1324:A 0
4 *1325:B2 *1327:A1 0.000383462
5 *1325:B2 *1328:A2 0.000315456
6 *1325:B1 *1325:B2 0.000199541
*RES
1 *1324:X *1325:B2 16.755 
*END

*D_NET *240 0.000310222
*CONN
*I *1327:A2 I *D sky130_fd_sc_hd__o211ai_1
*I *1325:X O *D sky130_fd_sc_hd__a2bb2o_1
*CAP
1 *1327:A2 7.26736e-05
2 *1325:X 7.26736e-05
3 *1325:B1 *1327:A2 0.000164874
*RES
1 *1325:X *1327:A2 4.685 
*END

*D_NET *241 0.00137907
*CONN
*I *1327:B1 I *D sky130_fd_sc_hd__o211ai_1
*I *1326:Y O *D sky130_fd_sc_hd__o211ai_1
*CAP
1 *1327:B1 0.000462364
2 *1326:Y 0.000462364
3 *1327:B1 *1326:A1 0.00022957
4 *1327:B1 *1327:A1 9.30787e-05
5 *1327:B1 *259:39 0.000124007
6 *1327:B1 *337:21 0
7 *155:16 *1327:B1 7.68414e-06
*RES
1 *1326:Y *1327:B1 13.515 
*END

*D_NET *242 0.00134749
*CONN
*I *1328:A2 I *D sky130_fd_sc_hd__a21o_1
*I *1327:Y O *D sky130_fd_sc_hd__o211ai_1
*CAP
1 *1328:A2 0.000419795
2 *1327:Y 0.000419795
3 *1328:A2 *1324:A 0
4 *1328:A2 *1327:A1 1.91597e-05
5 *1328:A2 *1380:CLK 0.000161623
6 *1328:A2 *269:94 0
7 *1328:A2 *337:10 0
8 *1328:A2 *337:21 0
9 *1325:B2 *1328:A2 0.000315456
10 *1327:C1 *1328:A2 1.16578e-05
11 *1380:D *1328:A2 0
*RES
1 *1327:Y *1328:A2 14.94 
*END

*D_NET *243 0.00781154
*CONN
*I *1387:A I *D sky130_fd_sc_hd__clkbuf_16
*I *1388:A I *D sky130_fd_sc_hd__clkbuf_16
*I *1386:A I *D sky130_fd_sc_hd__clkbuf_16
*I *1385:A I *D sky130_fd_sc_hd__clkbuf_16
*I *1384:X O *D sky130_fd_sc_hd__clkbuf_16
*CAP
1 *1387:A 0.000637038
2 *1388:A 0
3 *1386:A 8.48654e-05
4 *1385:A 0.000569303
5 *1384:X 9.04259e-05
6 *243:36 0.00117018
7 *243:14 0.0012168
8 *243:10 0.0011862
9 *1385:A *1389:A 8.65905e-05
10 *1385:A *322:10 5.43869e-05
11 *1386:A *1389:A 0.000194694
12 *1387:A *1371:CLK 4.99619e-05
13 *1387:A *247:8 4.82919e-05
14 *1387:A *339:8 2.49909e-05
15 *243:14 *1218:B2 0.000118513
16 *243:14 *1287:B1 0
17 *243:14 *1297:A 0.000139245
18 *243:14 *270:38 0.000160658
19 *243:36 *1391:A 0.000139245
20 *243:36 *339:12 0
21 *243:36 *339:56 0
22 *1217:B1 *243:14 0
23 *1218:A1 *243:14 8.34426e-05
24 *1218:B1 *243:14 3.86529e-05
25 *1218:C1 *243:14 8.66107e-06
26 *1287:A1 *243:14 7.54567e-05
27 *1303:A1 *243:14 0.000337517
28 *1303:A1 *243:36 0.000660135
29 *1305:A1 *243:10 1.48813e-05
30 *1305:A1 *243:36 5.21545e-05
31 *1306:A_N *243:10 4.82919e-05
32 *1306:A_N *243:36 0
33 *1306:B *243:36 0
34 *1310:A2 *243:36 0
35 *1315:A *243:36 0
36 *1334:D *1385:A 0.000156547
37 *1370:D *243:36 0
38 *1371:D *1387:A 1.43717e-05
39 *87:83 *243:14 7.97078e-05
40 *87:83 *243:36 2.88519e-05
41 *156:10 *243:14 0.000172386
42 *157:12 *243:14 4.40812e-05
43 *212:10 *243:14 2.50049e-05
44 *221:12 *243:36 0
*RES
1 *1384:X *243:10 5.1 
2 *243:10 *243:14 16.64 
3 *243:14 *1385:A 10.795 
4 *243:14 *1386:A 3.43 
5 *243:10 *243:36 13.58 
6 *243:36 *1388:A 1.6 
7 *243:36 *1387:A 11.155 
*END

*D_NET *244 0.0161866
*CONN
*I *1334:CLK I *D sky130_fd_sc_hd__dfxtp_1
*I *1358:CLK I *D sky130_fd_sc_hd__dfxtp_1
*I *1353:CLK I *D sky130_fd_sc_hd__dfxtp_1
*I *1333:CLK I *D sky130_fd_sc_hd__dfxtp_1
*I *1335:CLK I *D sky130_fd_sc_hd__dfxtp_1
*I *1332:CLK I *D sky130_fd_sc_hd__dfxtp_1
*I *1345:CLK I *D sky130_fd_sc_hd__dfxtp_1
*I *1341:CLK I *D sky130_fd_sc_hd__dfxtp_1
*I *1344:CLK I *D sky130_fd_sc_hd__dfxtp_1
*I *1343:CLK I *D sky130_fd_sc_hd__dfxtp_1
*I *1330:CLK I *D sky130_fd_sc_hd__dfxtp_1
*I *1331:CLK I *D sky130_fd_sc_hd__dfxtp_1
*I *1357:CLK I *D sky130_fd_sc_hd__dfxtp_1
*I *1363:CLK I *D sky130_fd_sc_hd__dfxtp_1
*I *1362:CLK I *D sky130_fd_sc_hd__dfxtp_1
*I *1342:CLK I *D sky130_fd_sc_hd__dfxtp_1
*I *1385:X O *D sky130_fd_sc_hd__clkbuf_16
*CAP
1 *1334:CLK 0.000128088
2 *1358:CLK 0.00043603
3 *1353:CLK 0.000125295
4 *1333:CLK 1.86282e-05
5 *1335:CLK 0.000192697
6 *1332:CLK 0
7 *1345:CLK 0
8 *1341:CLK 0.000463638
9 *1344:CLK 0
10 *1343:CLK 0
11 *1330:CLK 0
12 *1331:CLK 0
13 *1357:CLK 0.000370354
14 *1363:CLK 9.17999e-05
15 *1362:CLK 0.000123287
16 *1342:CLK 0
17 *1385:X 0
18 *244:163 0.000749469
19 *244:159 0.000631088
20 *244:136 0.000224429
21 *244:115 0.000593867
22 *244:69 0.000305518
23 *244:67 0.000715026
24 *244:61 0.000878307
25 *244:49 0.00123042
26 *244:36 0.00112268
27 *244:30 0.00125117
28 *244:22 0.000936153
29 *244:20 0.000485058
30 *244:12 0.000757919
31 *244:10 0.000660498
32 *244:4 0.000644519
33 *1333:CLK *321:10 0.0001249
34 *1357:CLK *1363:D 5.83121e-06
35 *1358:CLK *1246:A 0.00013439
36 *1358:CLK *302:6 1.34503e-05
37 *1363:CLK *1363:D 4.91189e-05
38 *244:10 *1169:C 0
39 *244:12 *1167:D 0.000160658
40 *244:12 *1168:A1 4.84472e-05
41 *244:12 *1168:B1 9.54469e-05
42 *244:12 *1169:C 0
43 *244:12 *264:86 0
44 *244:20 *264:86 0
45 *244:20 *264:88 0
46 *244:22 *1202:A 0.00012657
47 *244:30 *1200:A 0.000113978
48 *244:30 *316:10 8.16598e-05
49 *244:69 *1363:D 2.75145e-05
50 *244:163 *322:48 1.44259e-05
51 *1169:A_N *244:10 9.71067e-05
52 *1169:B *244:10 5.12859e-05
53 *1172:B *244:163 5.99925e-05
54 *1172:C *244:163 0.000139933
55 *1199:B *244:30 9.5716e-05
56 *1202:B *244:30 4.82919e-05
57 *1203:B *244:20 0
58 *1203:B *244:115 1.52184e-05
59 *1204:B *244:115 0
60 *1204:C *1341:CLK 3.0855e-05
61 *1204:C *244:20 0
62 *1247:A2 *1358:CLK 0
63 *1261:A2 *1357:CLK 9.35665e-05
64 *1261:B1 *244:67 0
65 *1330:D *244:61 0
66 *1332:D *244:12 3.68769e-05
67 *1333:D *1333:CLK 0.0001249
68 *1334:D *1334:CLK 0.000234674
69 *1334:D *244:163 3.09233e-05
70 *1343:D *244:30 9.03376e-05
71 *1345:D *244:115 0
72 *1358:D *1358:CLK 0.000390655
73 *1362:D *1363:CLK 0
74 *1362:D *244:67 0
75 *1410:A *1357:CLK 4.94474e-05
76 *129:43 *244:163 1.82476e-05
77 *148:23 *244:30 0.000276017
78 *150:6 *244:30 8.52845e-05
79 *150:21 *244:30 8.49205e-05
*RES
1 *1385:X *244:4 1.6 
2 *244:4 *244:10 7.7 
3 *244:10 *244:12 5.97 
4 *244:12 *244:20 8.78 
5 *244:20 *244:22 1.485 
6 *244:22 *244:30 14.04 
7 *244:30 *244:36 10.4 
8 *244:36 *1342:CLK 3.6 
9 *244:36 *244:49 11.84 
10 *244:49 *244:61 13.615 
11 *244:61 *244:67 8.185 
12 *244:67 *244:69 1.485 
13 *244:69 *1362:CLK 3.43 
14 *244:69 *1363:CLK 7.49 
15 *244:67 *1357:CLK 7.57 
16 *244:61 *1331:CLK 1.6 
17 *244:49 *1330:CLK 1.6 
18 *244:30 *1343:CLK 1.6 
19 *244:22 *244:115 6.145 
20 *244:115 *1344:CLK 1.6 
21 *244:115 *1341:CLK 8.605 
22 *244:20 *1345:CLK 1.6 
23 *244:12 *244:136 2.45 
24 *244:136 *1332:CLK 1.6 
25 *244:136 *1335:CLK 4.465 
26 *244:10 *1333:CLK 4.74 
27 *244:4 *244:159 4.59 
28 *244:159 *244:163 6.185 
29 *244:163 *1353:CLK 5.43 
30 *244:163 *1358:CLK 13.035 
31 *244:159 *1334:CLK 4.12 
*END

*D_NET *245 0.0154183
*CONN
*I *1376:CLK I *D sky130_fd_sc_hd__dfxtp_1
*I *1346:CLK I *D sky130_fd_sc_hd__dfxtp_1
*I *1378:CLK I *D sky130_fd_sc_hd__dfxtp_1
*I *1352:CLK I *D sky130_fd_sc_hd__dfxtp_1
*I *1379:CLK I *D sky130_fd_sc_hd__dfxtp_1
*I *1337:CLK I *D sky130_fd_sc_hd__dfxtp_1
*I *1336:CLK I *D sky130_fd_sc_hd__dfxtp_1
*I *1377:CLK I *D sky130_fd_sc_hd__dfxtp_1
*I *1339:CLK I *D sky130_fd_sc_hd__dfxtp_1
*I *1338:CLK I *D sky130_fd_sc_hd__dfxtp_1
*I *1340:CLK I *D sky130_fd_sc_hd__dfxtp_1
*I *1389:A I *D sky130_fd_sc_hd__clkinvlp_4
*I *1386:X O *D sky130_fd_sc_hd__clkbuf_16
*CAP
1 *1376:CLK 7.37998e-05
2 *1346:CLK 0.000444937
3 *1378:CLK 1.85694e-05
4 *1352:CLK 0.000145359
5 *1379:CLK 1.8475e-05
6 *1337:CLK 2.42846e-05
7 *1336:CLK 0.000142955
8 *1377:CLK 7.04766e-05
9 *1339:CLK 0
10 *1338:CLK 4.70578e-05
11 *1340:CLK 0.00011609
12 *1389:A 0.000578279
13 *1386:X 0
14 *245:127 0.00108259
15 *245:119 0.000872284
16 *245:106 0.000496357
17 *245:75 0.000451209
18 *245:71 0.000843358
19 *245:41 0.000572463
20 *245:37 0.00101875
21 *245:31 0.000816354
22 *245:25 0.00111164
23 *245:19 0.000605885
24 *245:4 0.000578279
25 *1336:CLK *1180:A 0.0001032
26 *1336:CLK *265:8 3.45679e-05
27 *1336:CLK *265:10 3.45588e-05
28 *1337:CLK *325:8 2.75229e-05
29 *1338:CLK *265:20 0.000160635
30 *1340:CLK *265:20 4.82863e-05
31 *1340:CLK *265:33 0.000131799
32 *1346:CLK *1136:A 4.18603e-06
33 *1346:CLK *250:35 7.89767e-05
34 *1352:CLK *330:6 0.000266453
35 *1352:CLK *330:8 0.000164874
36 *1352:CLK *330:23 1.85674e-05
37 *1377:CLK *1320:A 1.61831e-05
38 *1379:CLK *311:10 2.49909e-05
39 *245:25 *1148:A 1.07797e-05
40 *245:25 *1156:A2 0.000109646
41 *245:25 *255:32 2.60986e-05
42 *245:31 *1148:A 0
43 *245:31 *327:32 0
44 *245:41 *270:8 0
45 *245:71 *1159:A_N 0.000737766
46 *245:71 *311:10 5.83121e-06
47 *245:75 *1180:A 2.13396e-05
48 *245:75 *309:19 0
49 *245:106 *255:32 0.000194588
50 *245:119 *330:6 0.000160641
51 *245:127 *255:30 0
52 *245:127 *255:32 0
53 *245:127 *269:57 0
54 *245:127 *269:66 0
55 *1136:C *1346:CLK 0
56 *1147:D1 *245:37 0
57 *1147:D1 *245:41 0
58 *1148:C *245:25 0.000208255
59 *1149:A *245:25 0
60 *1155:B1 *245:25 0.000234674
61 *1155:B1 *245:31 2.92496e-05
62 *1156:B1 *1389:A 1.56428e-05
63 *1156:B1 *245:25 9.30717e-05
64 *1156:D1 *245:25 1.52837e-05
65 *1158:B *1377:CLK 4.99619e-05
66 *1159:B_N *245:71 5.05437e-05
67 *1159:C *245:75 1.22676e-05
68 *1159:D *245:75 7.63204e-05
69 *1180:B *245:75 0.000139238
70 *1183:B *245:41 0.000116165
71 *1185:A *245:41 0
72 *1186:B *245:37 2.03321e-05
73 *1186:B *245:41 5.42473e-05
74 *1205:A2 *1346:CLK 0.000207198
75 *1321:B1 *245:25 0
76 *1322:B *1346:CLK 1.323e-05
77 *1322:B *245:127 1.33293e-05
78 *1322:C *245:127 8.65905e-05
79 *1323:B *245:75 0.000183036
80 *1338:D *1338:CLK 4.99619e-05
81 *1352:D *1352:CLK 7.82691e-05
82 *1352:D *245:106 0
83 *1377:D *1377:CLK 2.30292e-05
84 *1378:D *1346:CLK 9.59594e-05
85 *1378:D *1378:CLK 9.53428e-06
86 *1378:D *245:127 2.16917e-05
87 *1385:A *1389:A 8.65905e-05
88 *1386:A *1389:A 0.000194694
89 *1393:A *1336:CLK 0.000101325
90 *1393:A *1379:CLK 1.19928e-05
91 *1393:A *245:71 3.64998e-06
92 *1393:A *245:75 0.000299379
93 *88:57 *245:25 0
94 *102:23 *245:41 0
95 *108:14 *245:37 0
96 *108:25 *245:25 0.000114492
97 *108:40 *245:25 0.000120595
98 *122:12 *245:31 7.75325e-05
*RES
1 *1386:X *245:4 1.6 
2 *245:4 *1389:A 10.72 
3 *245:4 *245:19 2 
4 *245:19 *245:25 11.255 
5 *245:25 *245:31 6.4 
6 *245:31 *245:37 11.24 
7 *245:37 *245:41 8.225 
8 *245:41 *1340:CLK 4.12 
9 *245:41 *1338:CLK 3.085 
10 *245:37 *1339:CLK 3.6 
11 *245:31 *1377:CLK 3.085 
12 *245:25 *245:71 10.8 
13 *245:71 *245:75 10.265 
14 *245:75 *1336:CLK 7.23 
15 *245:75 *1337:CLK 4.05 
16 *245:71 *1379:CLK 2.05 
17 *245:19 *245:106 5.93 
18 *245:106 *1352:CLK 5.86 
19 *245:106 *245:119 3.225 
20 *245:119 *245:127 13.03 
21 *245:127 *1378:CLK 1.96 
22 *245:127 *1346:CLK 13.55 
23 *245:119 *1376:CLK 2.74 
*END

*D_NET *246 0.0163086
*CONN
*I *1365:CLK I *D sky130_fd_sc_hd__dfxtp_1
*I *1369:CLK I *D sky130_fd_sc_hd__dfxtp_1
*I *1368:CLK I *D sky130_fd_sc_hd__dfxtp_1
*I *1367:CLK I *D sky130_fd_sc_hd__dfxtp_1
*I *1366:CLK I *D sky130_fd_sc_hd__dfxtp_1
*I *1355:CLK I *D sky130_fd_sc_hd__dfxtp_1
*I *1360:CLK I *D sky130_fd_sc_hd__dfxtp_1
*I *1354:CLK I *D sky130_fd_sc_hd__dfxtp_1
*I *1356:CLK I *D sky130_fd_sc_hd__dfxtp_1
*I *1361:CLK I *D sky130_fd_sc_hd__dfxtp_1
*I *1390:A I *D sky130_fd_sc_hd__bufinv_16
*I *1364:CLK I *D sky130_fd_sc_hd__dfxtp_1
*I *1359:CLK I *D sky130_fd_sc_hd__dfxtp_1
*I *1387:X O *D sky130_fd_sc_hd__clkbuf_16
*CAP
1 *1365:CLK 0.000506998
2 *1369:CLK 0.000555864
3 *1368:CLK 0
4 *1367:CLK 0.00031354
5 *1366:CLK 2.92427e-05
6 *1355:CLK 3.40086e-05
7 *1360:CLK 2.85538e-05
8 *1354:CLK 0.000452867
9 *1356:CLK 0
10 *1361:CLK 0.00062263
11 *1390:A 0
12 *1364:CLK 2.54335e-05
13 *1359:CLK 0.000446821
14 *1387:X 0
15 *246:132 0.00104954
16 *246:117 0.00119369
17 *246:99 6.32513e-05
18 *246:97 0.000734455
19 *246:59 0.000673778
20 *246:57 0.0014734
21 *246:53 0.00117497
22 *246:47 0.00109505
23 *246:12 0.000559646
24 *246:10 0.000128305
25 *246:8 0.000625604
26 *246:4 0.000521649
27 *1354:CLK *267:51 0
28 *1359:CLK *1294:C1 0
29 *1359:CLK *266:60 0
30 *1359:CLK *293:36 0
31 *1361:CLK *1313:B 9.17201e-05
32 *1361:CLK *267:51 0
33 *1364:CLK *293:10 2.04592e-05
34 *1365:CLK *1234:A 7.07949e-05
35 *1365:CLK *294:12 0.000158746
36 *1369:CLK *267:14 9.23864e-05
37 *246:12 *266:60 0
38 *246:47 *1234:A 0.000266164
39 *246:47 *1234:B 3.03684e-05
40 *246:47 *304:27 0.000265941
41 *246:57 *1225:A 4.66108e-05
42 *246:57 *1225:B 5.35969e-06
43 *246:59 *267:51 0
44 *246:97 *1269:A 7.41259e-05
45 *246:97 *1272:B1 3.17151e-05
46 *246:117 *1272:B1 0.000292241
47 *246:132 *296:12 9.59341e-05
48 *1234:C *246:47 4.40439e-05
49 *1251:B *1360:CLK 3.13354e-05
50 *1251:B *246:53 9.75584e-05
51 *1251:B *246:57 6.61959e-05
52 *1264:A2 *246:8 6.85516e-05
53 *1264:A2 *246:10 0.000152814
54 *1264:A2 *246:12 9.50342e-06
55 *1285:C1 *1359:CLK 0.000277029
56 *1354:D *1354:CLK 0
57 *1356:D *246:57 0.000141052
58 *1359:D *1359:CLK 0.000109487
59 *1367:D *1367:CLK 6.12927e-06
60 *1368:D *1369:CLK 7.82691e-05
61 *1384:A *1365:CLK 0
62 *1395:A *1369:CLK 3.31338e-05
63 *1422:A *1361:CLK 0.000173916
64 *165:18 *1369:CLK 2.65814e-06
65 *167:8 *1359:CLK 5.21046e-05
66 *167:21 *1359:CLK 0.000213507
67 *169:12 *1359:CLK 0.000200615
68 *171:8 *246:12 5.21458e-05
69 *173:14 *1365:CLK 0.000181376
70 *209:10 *1359:CLK 2.14129e-05
71 *209:10 *246:8 7.5416e-05
72 *209:10 *246:10 0.000162318
73 *209:10 *246:12 0.000206123
*RES
1 *1387:X *246:4 1.6 
2 *246:4 *246:8 2.87 
3 *246:8 *246:10 1.89 
4 *246:10 *246:12 2.4 
5 *246:12 *1359:CLK 13.92 
6 *246:12 *1364:CLK 4.05 
7 *246:10 *1390:A 3.6 
8 *246:8 *246:47 14.8 
9 *246:47 *246:53 4.52 
10 *246:53 *246:57 13.145 
11 *246:57 *246:59 0.87 
12 *246:59 *1361:CLK 14.235 
13 *246:59 *1356:CLK 3.6 
14 *246:57 *1354:CLK 11.1 
15 *246:53 *1360:CLK 2.215 
16 *246:47 *246:97 6.225 
17 *246:97 *246:99 2 
18 *246:99 *1355:CLK 2.05 
19 *246:99 *1366:CLK 2.05 
20 *246:97 *246:117 9.755 
21 *246:117 *1367:CLK 5.08 
22 *246:117 *246:132 7.38 
23 *246:132 *1368:CLK 1.6 
24 *246:132 *1369:CLK 9.925 
25 *246:4 *1365:CLK 13.925 
*END

*D_NET *247 0.0165168
*CONN
*I *1373:CLK I *D sky130_fd_sc_hd__dfxtp_1
*I *1348:CLK I *D sky130_fd_sc_hd__dfxtp_1
*I *1347:CLK I *D sky130_fd_sc_hd__dfxtp_1
*I *1351:CLK I *D sky130_fd_sc_hd__dfxtp_1
*I *1381:CLK I *D sky130_fd_sc_hd__dfxtp_1
*I *1375:CLK I *D sky130_fd_sc_hd__dfxtp_1
*I *1374:CLK I *D sky130_fd_sc_hd__dfxtp_1
*I *1380:CLK I *D sky130_fd_sc_hd__dfxtp_2
*I *1370:CLK I *D sky130_fd_sc_hd__dfxtp_1
*I *1350:CLK I *D sky130_fd_sc_hd__dfxtp_1
*I *1349:CLK I *D sky130_fd_sc_hd__dfxtp_1
*I *1372:CLK I *D sky130_fd_sc_hd__dfxtp_1
*I *1371:CLK I *D sky130_fd_sc_hd__dfxtp_1
*I *1391:A I *D sky130_fd_sc_hd__clkinv_2
*I *1388:X O *D sky130_fd_sc_hd__clkbuf_16
*CAP
1 *1373:CLK 0
2 *1348:CLK 0.000211091
3 *1347:CLK 7.34232e-05
4 *1351:CLK 0
5 *1381:CLK 0.000244514
6 *1375:CLK 0
7 *1374:CLK 0
8 *1380:CLK 0.000206285
9 *1370:CLK 0
10 *1350:CLK 0.000376941
11 *1349:CLK 0
12 *1372:CLK 0
13 *1371:CLK 0.000210124
14 *1391:A 0.000105649
15 *1388:X 0
16 *247:151 0.000582173
17 *247:138 0.000550513
18 *247:123 0.000718362
19 *247:96 0.000560135
20 *247:88 0.000657371
21 *247:86 0.000524515
22 *247:84 0.000535371
23 *247:55 0.000736795
24 *247:44 0.000454832
25 *247:31 0.000550809
26 *247:27 0.000517436
27 *247:8 0.000596023
28 *247:4 0.000754016
29 *1347:CLK *332:10 0.000101375
30 *1348:CLK *1207:B 0
31 *1350:CLK *1275:B1 4.66108e-05
32 *1350:CLK *298:12 5.83121e-06
33 *1380:CLK *1326:A1 0.000123225
34 *1380:CLK *269:94 0
35 *1380:CLK *337:10 4.11194e-05
36 *1381:CLK *250:50 0
37 *1381:CLK *341:12 5.83121e-06
38 *1391:A *339:56 0
39 *247:8 *1308:A 0.000234674
40 *247:8 *339:8 7.67345e-05
41 *247:8 *339:56 0.0002187
42 *247:8 *340:14 0.000238137
43 *247:27 *339:56 0
44 *247:27 *340:14 0
45 *247:55 *1275:B1 2.92496e-05
46 *247:84 *1279:B1 6.1357e-05
47 *247:84 *1281:A2 1.2818e-05
48 *247:84 *1308:A 0.000113237
49 *247:88 *1382:A 0
50 *247:88 *250:35 0.000140844
51 *247:88 *328:34 0.000188217
52 *247:96 *1402:A 3.66286e-05
53 *247:96 *250:35 7.63125e-05
54 *247:96 *328:8 4.82919e-05
55 *247:96 *328:10 1.52184e-05
56 *247:96 *328:34 6.55328e-05
57 *247:123 *250:50 0
58 *247:123 *341:12 0.000137571
59 *247:138 *250:50 0
60 *247:151 *250:50 0
61 *247:151 *332:10 4.80182e-05
62 *1127:A *247:84 0.000106078
63 *1130:B1 *247:84 7.99093e-05
64 *1130:B1 *247:123 1.07797e-05
65 *1210:B *247:138 0
66 *1219:B2 *1350:CLK 0
67 *1279:A3 *247:84 0.000122337
68 *1281:B2 *247:84 9.60695e-05
69 *1300:A_N *247:8 0.000163204
70 *1300:A_N *247:84 0.000234674
71 *1328:A2 *1380:CLK 0.000161623
72 *1347:D *1347:CLK 0.000113663
73 *1347:D *247:151 0
74 *1348:D *1348:CLK 0
75 *1349:D *1350:CLK 0.000475055
76 *1350:D *1350:CLK 4.82919e-05
77 *1351:D *247:138 3.89528e-05
78 *1370:D *1391:A 7.66727e-05
79 *1370:D *247:27 0.000202135
80 *1372:D *1371:CLK 0.000150888
81 *1372:D *247:44 7.75412e-05
82 *1372:D *247:55 1.43521e-05
83 *1374:D *247:96 0.000508226
84 *1381:D *1381:CLK 5.20335e-05
85 *1381:D *247:123 0
86 *1384:A *1371:CLK 0
87 *1384:A *247:44 0
88 *1384:A *247:55 0
89 *1387:A *1371:CLK 4.99619e-05
90 *1387:A *247:8 4.82919e-05
91 *1406:A *247:88 6.74079e-05
92 *86:12 *247:151 0
93 *87:12 *247:123 0
94 *87:12 *247:138 0
95 *87:25 *247:88 0
96 *87:25 *247:123 0
97 *87:64 *1380:CLK 2.30292e-05
98 *87:64 *247:96 3.46272e-05
99 *155:16 *1380:CLK 0.000386226
100 *165:18 *1350:CLK 0.000270899
101 *202:25 *247:84 0.000408516
102 *206:12 *247:84 0.000719804
103 *206:12 *247:88 0.000362285
104 *206:12 *247:123 4.21314e-05
105 *243:36 *1391:A 0.000139245
*RES
1 *1388:X *247:4 1.6 
2 *247:4 *247:8 9.005 
3 *247:8 *1391:A 6.195 
4 *247:8 *247:27 7.52 
5 *247:27 *247:31 5.555 
6 *247:31 *1371:CLK 8.235 
7 *247:31 *247:44 2.145 
8 *247:44 *1372:CLK 3.6 
9 *247:44 *247:55 8.225 
10 *247:55 *1349:CLK 1.6 
11 *247:55 *1350:CLK 14.855 
12 *247:27 *1370:CLK 1.6 
13 *247:4 *247:84 14.61 
14 *247:84 *247:86 2 
15 *247:86 *247:88 8.265 
16 *247:88 *247:96 9.875 
17 *247:96 *1380:CLK 11.39 
18 *247:96 *1374:CLK 1.6 
19 *247:88 *1375:CLK 3.6 
20 *247:86 *247:123 4.0575 
21 *247:123 *1381:CLK 7.4925 
22 *247:123 *247:138 4.5675 
23 *247:138 *1351:CLK 3.6 
24 *247:138 *247:151 7.07 
25 *247:151 *1347:CLK 3.775 
26 *247:151 *1348:CLK 8.885 
27 *247:84 *1373:CLK 1.6 
*END

*D_NET *248 0.000354076
*CONN
*I *1288:A I *D sky130_fd_sc_hd__or2_1
*I *1413:X O *D sky130_fd_sc_hd__clkbuf_1
*CAP
1 *1288:A 0.000129318
2 *1413:X 0.000129318
3 *1288:A *306:12 9.54399e-05
*RES
1 *1413:X *1288:A 9.12 
*END

*D_NET *249 0.000205521
*CONN
*I *1288:B I *D sky130_fd_sc_hd__or2_1
*I *1414:X O *D sky130_fd_sc_hd__clkbuf_1
*CAP
1 *1288:B 9.80086e-05
2 *1414:X 9.80086e-05
3 *1288:B *306:12 9.50342e-06
4 *213:10 *1288:B 0
*RES
1 *1414:X *1288:B 8.835 
*END

*D_NET *250 0.012905
*CONN
*I *1223:B1 I *D sky130_fd_sc_hd__a2111o_1
*I *1209:B I *D sky130_fd_sc_hd__nor2_1
*I *1208:B I *D sky130_fd_sc_hd__nor2_1
*I *1283:A I *D sky130_fd_sc_hd__nor2_1
*I *1397:A I *D sky130_fd_sc_hd__buf_2
*I *1415:X O *D sky130_fd_sc_hd__clkbuf_2
*CAP
1 *1223:B1 5.46975e-05
2 *1209:B 0
3 *1208:B 6.04705e-06
4 *1283:A 0
5 *1397:A 0
6 *1415:X 0.000367737
7 *250:66 0.00131072
8 *250:50 0.0024827
9 *250:35 0.00274709
10 *250:14 0.0019915
11 *1208:B *334:10 2.30292e-05
12 *1223:B1 *333:10 3.09233e-05
13 *250:14 *269:12 0.000277013
14 *250:35 *1133:B 6.19601e-05
15 *250:35 *1136:A 0
16 *250:35 *1136:B 0
17 *250:35 *1282:A 0
18 *250:35 *1382:A 2.24336e-05
19 *250:35 *1412:A 7.20129e-05
20 *250:35 *1428:A 0
21 *250:35 *1431:A 0
22 *250:35 *310:10 0
23 *250:35 *311:23 0.000192227
24 *250:35 *311:36 0.000177353
25 *250:35 *311:45 7.23533e-05
26 *250:35 *328:10 0
27 *250:50 *1206:A 0
28 *250:50 *1207:B 8.09021e-06
29 *250:50 *341:12 0
30 *250:66 *1220:A2 0
31 *250:66 *1221:A1 3.67779e-05
32 *250:66 *334:10 0.000198939
33 *250:66 *341:56 0
34 *1130:A2 *250:50 0
35 *1136:C *250:35 0
36 *1205:B1 *250:35 0.000250098
37 *1208:A *1208:B 4.99619e-05
38 *1208:A *250:66 0.000112767
39 *1223:C1 *1223:B1 0.000107634
40 *1223:C1 *250:66 8.53113e-06
41 *1283:B *250:35 4.18603e-06
42 *1283:B *250:50 3.46842e-05
43 *1323:B *250:14 6.88971e-05
44 *1329:A2 *250:50 0.000157762
45 *1346:CLK *250:35 7.89767e-05
46 *1346:D *250:35 9.54399e-05
47 *1347:D *250:50 0.000205368
48 *1374:D *250:35 0.000139238
49 *1379:D *250:14 9.37731e-05
50 *1381:CLK *250:50 0
51 *1381:D *250:50 5.39718e-05
52 *1393:A *250:14 7.21296e-06
53 *1424:A *250:35 0
54 *79:21 *1223:B1 0
55 *79:21 *250:66 0
56 *80:55 *250:66 8.05508e-05
57 *86:12 *250:50 0.000536874
58 *87:31 *250:35 0.000291298
59 *87:33 *250:35 0.000132089
60 *110:10 *250:14 2.97004e-06
61 *110:10 *250:35 4.19797e-05
62 *155:16 *250:35 0
63 *155:16 *250:50 0
64 *247:88 *250:35 0.000140844
65 *247:96 *250:35 7.63125e-05
66 *247:123 *250:50 0
67 *247:138 *250:50 0
68 *247:151 *250:50 0
*RES
1 *1415:X *250:14 10.95 
2 *250:14 *1397:A 3.6 
3 *250:14 *250:35 34.585 
4 *250:35 *1283:A 3.6 
5 *250:35 *250:50 24.085 
6 *250:50 *250:66 23.61 
7 *250:66 *1208:B 2.05 
8 *250:66 *1209:B 1.6 
9 *250:50 *1223:B1 4.98 
*END

*D_NET *251 0.000429257
*CONN
*I *1313:A I *D sky130_fd_sc_hd__or4_1
*I *1416:X O *D sky130_fd_sc_hd__clkbuf_1
*CAP
1 *1313:A 0.000116682
2 *1416:X 0.000116682
3 *1313:A *1313:B 1.34361e-05
4 *1313:A *1313:C 0.000120186
5 *1313:D *1313:A 1.01661e-05
6 *1314:C *1313:A 5.21046e-05
7 *1361:D *1313:A 0
*RES
1 *1416:X *1313:A 9.885 
*END

*D_NET *252 0.00134168
*CONN
*I *1318:A2 I *D sky130_fd_sc_hd__o21a_1
*I *1417:X O *D sky130_fd_sc_hd__clkbuf_1
*CAP
1 *1318:A2 0.000323102
2 *1417:X 0.000323102
3 *1318:A2 *1318:A1 0.000425815
4 *1318:A2 *1434:A 0
5 *1318:A2 *254:12 3.07153e-05
6 *1417:A *1318:A2 0.000153129
7 *1420:A *1318:A2 6.06649e-05
8 *1427:A *1318:A2 2.51475e-05
9 *87:31 *1318:A2 0
*RES
1 *1417:X *1318:A2 14.985 
*END

*D_NET *253 0.00419896
*CONN
*I *1146:A I *D sky130_fd_sc_hd__nand2_1
*I *1156:A1 I *D sky130_fd_sc_hd__a2111o_1
*I *1418:X O *D sky130_fd_sc_hd__buf_1
*CAP
1 *1146:A 4.30867e-05
2 *1156:A1 0.000281526
3 *1418:X 0.00135911
4 *253:14 0.00168373
5 *1146:A *269:53 3.29528e-05
6 *1156:A1 *269:53 0.000130066
7 *1144:B *1156:A1 0.000122337
8 *1144:C *1156:A1 4.79908e-05
9 *1150:B *1156:A1 2.97004e-06
10 *1321:B1 *1156:A1 0.000306155
11 *1418:A *253:14 1.00941e-05
12 *88:57 *253:14 6.36199e-05
13 *104:14 *1156:A1 3.07961e-05
14 *111:8 *1146:A 2.49909e-05
15 *111:10 *1146:A 1.38716e-05
16 *111:10 *1156:A1 4.56685e-05
*RES
1 *1418:X *253:14 7.20117 
2 *253:14 *1156:A1 9.9675 
3 *253:14 *1146:A 4.5375 
*END

*D_NET *254 0.00567378
*CONN
*I *1327:A1 I *D sky130_fd_sc_hd__o211ai_1
*I *1291:A I *D sky130_fd_sc_hd__nor2_1
*I *1309:A2 I *D sky130_fd_sc_hd__o311a_1
*I *1304:C I *D sky130_fd_sc_hd__or4_1
*I *1419:X O *D sky130_fd_sc_hd__buf_1
*CAP
1 *1327:A1 0.00012825
2 *1291:A 4.33733e-05
3 *1309:A2 0.000109646
4 *1304:C 5.39794e-05
5 *1419:X 0.00100489
6 *254:27 0.000328906
7 *254:14 0.000393903
8 *254:12 0.00129718
9 *1304:C *1324:A 4.47125e-05
10 *254:12 *337:10 0.000169117
11 *254:14 *1324:A 0.000134314
12 *254:27 *1304:A 0
13 *1304:D *1304:C 4.66108e-05
14 *1305:A3 *254:27 0
15 *1309:C1 *1309:A2 8.40213e-05
16 *1314:A *254:27 4.9968e-05
17 *1318:A2 *254:12 3.07153e-05
18 *1318:B1 *254:12 0.000238919
19 *1325:B1 *1327:A1 8.8266e-05
20 *1325:B2 *1327:A1 0.000383462
21 *1327:B1 *1327:A1 9.30787e-05
22 *1327:C1 *1309:A2 8.82557e-05
23 *1327:C1 *1327:A1 1.85674e-05
24 *1328:A2 *1327:A1 1.91597e-05
25 *1380:D *254:12 9.03376e-05
26 *91:10 *1291:A 0.000176873
27 *91:10 *1327:A1 0
28 *91:10 *254:27 0.000351152
29 *231:10 *1291:A 0.000185405
30 *231:10 *254:27 2.07184e-05
*RES
1 *1419:X *254:12 17.71 
2 *254:12 *254:14 3.21 
3 *254:14 *1304:C 2.74 
4 *254:14 *254:27 6.545 
5 *254:27 *1309:A2 5.775 
6 *254:27 *1291:A 5.745 
7 *254:12 *1327:A1 10.685 
*END

*D_NET *255 0.00676042
*CONN
*I *1383:A I *D sky130_fd_sc_hd__clkbuf_1
*I *1428:A I *D sky130_fd_sc_hd__buf_2
*I *1146:B I *D sky130_fd_sc_hd__nand2_1
*I *1156:A2 I *D sky130_fd_sc_hd__a2111o_1
*I *1293:B1 I *D sky130_fd_sc_hd__o21a_1
*I *1287:A2 I *D sky130_fd_sc_hd__a41o_1
*I *1124:Y O *D sky130_fd_sc_hd__inv_2
*CAP
1 *1383:A 0
2 *1428:A 0.000264239
3 *1146:B 0.000155337
4 *1156:A2 0.000114467
5 *1293:B1 2.08101e-05
6 *1287:A2 0.000235698
7 *1124:Y 0
8 *255:54 0.00101804
9 *255:32 0.000560214
10 *255:30 0.00126981
11 *255:10 0.000689836
12 *255:4 0.000658926
13 *255:10 *1115:A 0.000192977
14 *255:10 *1213:B1 8.65905e-05
15 *255:30 *330:58 0
16 *255:32 *269:53 0
17 *255:32 *330:58 0
18 *255:54 *1297:A 0.000661885
19 unlock_enable *1428:A 0
20 *1124:A *255:10 4.60584e-05
21 *1149:A *1156:A2 0
22 *1149:A *255:32 0
23 *1156:B1 *1146:B 7.61941e-05
24 *1213:A2 *255:10 4.85494e-05
25 *1287:A1 *1287:A2 5.05521e-05
26 *1293:A1 *1287:A2 4.21973e-05
27 *1293:A1 *255:10 7.22354e-05
28 *1321:B1 *1156:A2 1.7306e-05
29 *1376:D *255:32 0
30 *156:10 *255:10 5.28967e-05
31 *212:6 *1287:A2 9.52646e-05
32 *245:25 *1156:A2 0.000109646
33 *245:25 *255:32 2.60986e-05
34 *245:106 *255:32 0.000194588
35 *245:127 *255:30 0
36 *245:127 *255:32 0
37 *250:35 *1428:A 0
*RES
1 *1124:Y *255:4 1.6 
2 *255:4 *255:10 7.125 
3 *255:10 *1287:A2 5.515 
4 *255:10 *1293:B1 1.96 
5 *255:4 *255:30 5.675 
6 *255:30 *255:32 5.97 
7 *255:32 *1156:A2 6 
8 *255:32 *1146:B 6.12 
9 *255:30 *255:54 16.94 
10 *255:54 *1428:A 9.665 
11 *255:54 *1383:A 1.6 
*END

*D_NET *256 0.00126598
*CONN
*I *1429:A I *D sky130_fd_sc_hd__buf_2
*I *1405:A I *D sky130_fd_sc_hd__dlygate4sd3_1
*I *1373:Q O *D sky130_fd_sc_hd__dfxtp_1
*CAP
1 *1429:A 0.000220649
2 *1405:A 6.26341e-05
3 *1373:Q 0.000148481
4 *256:10 0.000431764
5 fsm_error *1429:A 7.35235e-05
6 safe_led *1429:A 0.000189966
7 safe_led *256:10 0.000138961
*RES
1 *1373:Q *256:10 6.03 
2 *256:10 *1405:A 4.395 
3 *256:10 *1429:A 7.77 
*END

*D_NET *257 0.000543334
*CONN
*I *1430:A I *D sky130_fd_sc_hd__buf_2
*I *1398:A I *D sky130_fd_sc_hd__dlygate4sd3_1
*I *1346:Q O *D sky130_fd_sc_hd__dfxtp_1
*CAP
1 *1430:A 9.28614e-05
2 *1398:A 0.000163174
3 *1346:Q 0
4 *257:6 0.000256035
5 group_error *1430:A 3.12639e-05
*RES
1 *1346:Q *257:6 3.6 
2 *257:6 *1398:A 6.255 
3 *257:6 *1430:A 5.235 
*END

*D_NET *258 0.000357747
*CONN
*I *1431:A I *D sky130_fd_sc_hd__buf_2
*I *1126:Y O *D sky130_fd_sc_hd__inv_2
*CAP
1 *1431:A 0.000162238
2 *1126:Y 0.000162238
3 group_suspended *1431:A 3.32709e-05
4 *250:35 *1431:A 0
*RES
1 *1126:Y *1431:A 9.375 
*END

*D_NET *259 0.00707946
*CONN
*I *1290:B I *D sky130_fd_sc_hd__nor2_1
*I *1309:A1 I *D sky130_fd_sc_hd__o311a_1
*I *1326:A2 I *D sky130_fd_sc_hd__o211ai_1
*I *1304:B I *D sky130_fd_sc_hd__or4_1
*I *1325:A2_N I *D sky130_fd_sc_hd__a2bb2o_1
*I *1420:X O *D sky130_fd_sc_hd__buf_1
*CAP
1 *1290:B 0
2 *1309:A1 2.51931e-05
3 *1326:A2 0
4 *1304:B 5.0875e-05
5 *1325:A2_N 8.63588e-05
6 *1420:X 0.000890238
7 *259:39 0.000219438
8 *259:31 0.000503707
9 *259:25 0.000607993
10 *259:8 0.00127464
11 *1325:A2_N *269:94 0.000178496
12 *1325:A2_N *337:21 9.50342e-06
13 *1325:A2_N *337:34 0.000320834
14 *259:8 *1316:A1 1.34594e-05
15 *259:8 *1316:A2 2.92086e-05
16 *259:25 *269:94 3.9442e-05
17 *259:25 *337:34 6.52181e-05
18 *259:31 *1301:B2 0
19 *1283:B *259:8 3.00381e-05
20 *1290:A *259:25 0.000237238
21 *1292:A2 *259:31 0.00020338
22 *1292:A2 *259:39 0.00013521
23 *1302:A1 *259:31 0
24 *1302:A1 *259:39 0
25 *1302:B1 *259:31 2.50049e-05
26 *1309:B1 *1304:B 0.000138544
27 *1310:B1 *259:31 0.00011381
28 *1316:A3 *259:8 0.000237243
29 *1326:B1 *259:39 2.30292e-05
30 *1326:C1 *259:39 8.57024e-05
31 *1327:B1 *259:39 0.000124007
32 *1327:C1 *1309:A1 4.66108e-05
33 *91:10 *1304:B 7.55313e-05
34 *91:10 *259:31 0
35 *155:16 *259:39 2.54431e-05
36 *208:6 *259:8 0.000615163
37 *208:6 *259:25 0.00019
38 *208:6 *259:31 0.000387902
39 *215:10 *259:31 0
40 *225:10 *259:31 7.1001e-05
*RES
1 *1420:X *259:8 15.09 
2 *259:8 *1325:A2_N 7.275 
3 *259:8 *259:25 8.51 
4 *259:25 *259:31 9.74 
5 *259:31 *259:39 5.825 
6 *259:39 *1304:B 7.235 
7 *259:39 *1326:A2 1.6 
8 *259:31 *1309:A1 4.05 
9 *259:25 *1290:B 1.6 
*END

*D_NET *260 0.0060128
*CONN
*I *1297:B I *D sky130_fd_sc_hd__nor2_1
*I *1215:A1 I *D sky130_fd_sc_hd__o21a_1
*I *1216:A1 I *D sky130_fd_sc_hd__o21ai_1
*I *1154:B1 I *D sky130_fd_sc_hd__o41ai_1
*I *1432:A I *D sky130_fd_sc_hd__buf_2
*I *1120:Y O *D sky130_fd_sc_hd__inv_2
*CAP
1 *1297:B 0.00026904
2 *1215:A1 4.04396e-05
3 *1216:A1 0
4 *1154:B1 1.41866e-05
5 *1432:A 0.00096539
6 *1120:Y 0
7 *260:47 0.000358157
8 *260:38 0.000478555
9 *260:10 0.0010855
10 *260:4 0.000535806
11 *1215:A1 *1297:A 5.05521e-05
12 *1297:B *330:58 0
13 *1432:A *270:8 0.000570469
14 *1432:A *289:8 0
15 *260:10 *1287:B1 0
16 *260:10 *270:8 4.43871e-06
17 *260:10 *270:19 2.15594e-05
18 *260:10 *270:38 3.64316e-05
19 *260:38 *270:38 2.97004e-06
20 *260:38 *330:31 6.95505e-05
21 *260:47 *1215:B1 0.00011852
22 *260:47 *330:58 0
23 *1153:C *1154:B1 8.65905e-05
24 *1153:D *1154:B1 8.65905e-05
25 *1187:A1 *1432:A 0
26 *1215:A2 *260:38 9.50342e-06
27 *1215:A2 *260:47 0.000163985
28 *1217:B1 *260:38 0.000203769
29 *1217:B1 *260:47 1.15399e-05
30 *1218:A1 *260:38 0.000139944
31 *1352:D *260:38 0
32 *1421:A *1432:A 2.75229e-05
33 *1425:A *1432:A 2.75229e-05
34 *103:25 *1432:A 0
35 *104:14 *260:10 4.66108e-05
36 *104:14 *260:38 0.00015896
37 *117:10 *1432:A 0
38 *133:92 *1432:A 0.000162318
39 *156:10 *1297:B 8.42161e-05
40 *156:10 *260:47 2.80576e-05
41 *222:10 *1297:B 0.000154098
*RES
1 *1120:Y *260:4 1.6 
2 *260:4 *260:10 3.83 
3 *260:10 *1432:A 22.245 
4 *260:10 *1154:B1 4.395 
5 *260:4 *260:38 10.475 
6 *260:38 *1216:A1 3.6 
7 *260:38 *260:47 2.145 
8 *260:47 *1215:A1 4.395 
9 *260:47 *1297:B 8.715 
*END

*D_NET *261 0.00239152
*CONN
*I *1433:A I *D sky130_fd_sc_hd__buf_2
*I *1382:A I *D sky130_fd_sc_hd__clkbuf_1
*I *1130:Y O *D sky130_fd_sc_hd__o21ai_1
*CAP
1 *1433:A 0.000469227
2 *1382:A 0.000174752
3 *1130:Y 0.00017158
4 *261:6 0.000815559
5 *1433:A *1210:A 0
6 *1433:A *1316:A2 0
7 *1433:A *1373:D 3.68682e-05
8 *1433:A *1434:A 0.000198939
9 fsm_error *1433:A 6.14235e-05
10 safe_led *1433:A 0
11 security_breach *1433:A 4.18603e-06
12 *1130:B1 *261:6 5.83121e-06
13 *1406:A *1382:A 4.70343e-05
14 *87:12 *1433:A 0
15 *87:25 *1382:A 0.000222061
16 *87:25 *1433:A 0
17 *87:31 *1382:A 0.000161623
18 *247:88 *1382:A 0
19 *250:35 *1382:A 2.24336e-05
*RES
1 *1130:Y *261:6 3.775 
2 *261:6 *1382:A 10.04 
3 *261:6 *1433:A 13.94 
*END

*D_NET *262 0.0010808
*CONN
*I *1434:A I *D sky130_fd_sc_hd__buf_2
*I *1382:X O *D sky130_fd_sc_hd__clkbuf_1
*CAP
1 *1434:A 0.000195433
2 *1382:X 0.000195433
3 *1434:A *1316:A2 0.000163019
4 *1318:A2 *1434:A 0
5 *1420:A *1434:A 0
6 *1433:A *1434:A 0.000198939
7 *87:25 *1434:A 0.000210151
8 *87:31 *1434:A 0.000117825
*RES
1 *1382:X *1434:A 12.705 
*END

*D_NET *263 0.000287146
*CONN
*I *1435:A I *D sky130_fd_sc_hd__buf_2
*I *1383:X O *D sky130_fd_sc_hd__clkbuf_1
*CAP
1 *1435:A 0.000128554
2 *1383:X 0.000128554
3 *1435:A *1297:A 3.00381e-05
*RES
1 *1383:X *1435:A 5.405 
*END

*D_NET *264 0.0117703
*CONN
*I *1175:C I *D sky130_fd_sc_hd__and3b_1
*I *1192:C1 I *D sky130_fd_sc_hd__o211a_1
*I *1204:A I *D sky130_fd_sc_hd__and3_1
*I *1201:C I *D sky130_fd_sc_hd__and3b_1
*I *1169:C I *D sky130_fd_sc_hd__and3b_1
*I *1166:A I *D sky130_fd_sc_hd__and3_1
*I *1163:A I *D sky130_fd_sc_hd__and3_1
*I *1160:B I *D sky130_fd_sc_hd__and2b_1
*I *1195:A I *D sky130_fd_sc_hd__and3_1
*I *1198:C I *D sky130_fd_sc_hd__and3b_1
*I *1392:X O *D sky130_fd_sc_hd__clkbuf_2
*CAP
1 *1175:C 0.000151898
2 *1192:C1 0.000289638
3 *1204:A 0
4 *1201:C 0.00076924
5 *1169:C 0.000325245
6 *1166:A 3.0589e-05
7 *1163:A 0.000330076
8 *1160:B 9.3328e-05
9 *1195:A 5.10442e-05
10 *1198:C 0.000557752
11 *1392:X 9.81219e-05
12 *264:90 0.000829154
13 *264:88 0.000562423
14 *264:86 0.00067059
15 *264:38 0.000684029
16 *264:16 0.000733062
17 *264:14 0.000832179
18 *264:10 0.000516269
19 *264:8 0.000633871
20 *264:6 0.000674177
21 *1163:A *312:10 0
22 *1163:A *312:71 0.000201508
23 *1166:A *320:19 1.20052e-05
24 *1169:C *1168:A1 3.68784e-05
25 *1169:C *319:10 1.22762e-05
26 *1169:C *319:12 5.38916e-05
27 *1169:C *319:16 4.49498e-05
28 *1192:C1 *1202:A 0.000233875
29 *1192:C1 *318:23 3.23663e-05
30 *1195:A *315:8 0.000161529
31 *1195:A *315:45 4.82919e-05
32 *1198:C *1196:B 0
33 *1198:C *315:14 0
34 *264:14 *1164:B 0.000124105
35 *264:14 *1165:A1 1.09302e-05
36 *264:14 *312:29 0.000197826
37 *264:14 *320:19 6.60042e-05
38 *264:16 *1404:A 0
39 *264:38 *312:10 0
40 *264:86 *1392:A 0
41 *264:88 *318:23 0
42 *1166:B *264:10 5.30673e-05
43 *1166:B *264:14 0.000179416
44 *1166:C *264:10 3.51807e-05
45 *1166:C *264:14 2.11084e-05
46 *1169:B *1169:C 0.000245206
47 *1175:B *264:86 0
48 *1192:A2 *1192:C1 9.72742e-06
49 *1192:B1 *1192:C1 5.84828e-05
50 *1195:C *1195:A 9.49276e-05
51 *1198:A_N *1198:C 0
52 *1198:B *1198:C 0.000172527
53 *1201:A_N *1201:C 0.000112849
54 *1204:B *1201:C 5.66282e-05
55 *1204:B *264:90 7.12228e-06
56 *1204:C *264:88 0.000152814
57 *1204:C *264:90 9.54399e-05
58 *1330:D *1163:A 0
59 *1333:D *1169:C 0.000118527
60 *1335:D *264:86 0
61 *1342:D *1195:A 4.82919e-05
62 *106:10 *1175:C 0.000239813
63 *144:29 *1198:C 0
64 *148:8 *1198:C 0
65 *244:10 *1169:C 0
66 *244:12 *1169:C 0
67 *244:12 *264:86 0
68 *244:20 *264:86 0
69 *244:20 *264:88 0
*RES
1 *1392:X *264:6 3.085 
2 *264:6 *264:8 3.9 
3 *264:8 *264:10 1.14 
4 *264:10 *264:14 11.075 
5 *264:14 *264:16 1.89 
6 *264:16 *1198:C 12.75 
7 *264:16 *1195:A 5.43 
8 *264:14 *264:38 4.3125 
9 *264:38 *1160:B 5.0775 
10 *264:38 *1163:A 9.0825 
11 *264:10 *1166:A 2.215 
12 *264:8 *1169:C 12.53 
13 *264:6 *264:86 6.95 
14 *264:86 *264:88 3.93 
15 *264:88 *264:90 1.38 
16 *264:90 *1201:C 15.45 
17 *264:90 *1204:A 3.6 
18 *264:88 *1192:C1 8.895 
19 *264:86 *1175:C 5.775 
*END

*D_NET *265 0.0124454
*CONN
*I *1180:A I *D sky130_fd_sc_hd__and2_1
*I *1178:A I *D sky130_fd_sc_hd__and3_1
*I *1172:A I *D sky130_fd_sc_hd__and3_1
*I *1392:A I *D sky130_fd_sc_hd__clkbuf_2
*I *1186:A I *D sky130_fd_sc_hd__and3_1
*I *1189:B I *D sky130_fd_sc_hd__and3b_1
*I *1183:A I *D sky130_fd_sc_hd__and3_1
*I *1393:X O *D sky130_fd_sc_hd__dlymetal6s2s_1
*CAP
1 *1180:A 0.00032981
2 *1178:A 8.74363e-05
3 *1172:A 1.88809e-05
4 *1392:A 0.000347382
5 *1186:A 0.000300132
6 *1189:B 0
7 *1183:A 0
8 *1393:X 0.000247092
9 *265:57 0.00103608
10 *265:42 0.00105073
11 *265:33 0.00063101
12 *265:20 0.00137796
13 *265:10 0.00125318
14 *265:8 0.000914918
15 *1172:A *321:10 5.4155e-06
16 *1392:A *321:10 0.000163204
17 *1392:A *321:36 4.35348e-05
18 *265:20 *324:8 0.000124007
19 *265:20 *324:14 0.000145648
20 *265:33 *313:19 0.000121525
21 *265:33 *313:30 6.68849e-05
22 *265:42 *313:30 0.000141599
23 *265:42 *313:41 0.000129047
24 *265:57 *1152:B1 0.000351094
25 *265:57 *1287:B1 0
26 *265:57 *313:41 3.09233e-05
27 *265:57 *321:36 0.000303673
28 *265:57 *322:10 8.97564e-05
29 *265:57 *322:14 0.000105849
30 *1139:B1 *265:57 7.21296e-06
31 *1142:A *265:57 0.000141599
32 *1172:B *265:57 5.0751e-05
33 *1172:C *265:57 1.70906e-05
34 *1176:B *265:20 1.33293e-05
35 *1178:B *1178:A 2.46089e-05
36 *1178:C *1178:A 0
37 *1180:B *1180:A 0.000239175
38 *1183:C *265:20 0.000344626
39 *1188:B *265:33 7.66727e-05
40 *1188:B *265:42 3.98782e-05
41 *1336:CLK *1180:A 0.0001032
42 *1336:CLK *265:8 3.45679e-05
43 *1336:CLK *265:10 3.45588e-05
44 *1336:D *1178:A 9.37731e-05
45 *1336:D *265:10 0.000100884
46 *1338:CLK *265:20 0.000160635
47 *1338:D *265:20 9.59594e-05
48 *1340:CLK *265:20 4.82863e-05
49 *1340:CLK *265:33 0.000131799
50 *1340:D *265:33 0.000240996
51 *103:51 *265:57 5.72655e-05
52 *104:14 *265:57 5.39718e-05
53 *105:10 *265:42 0.000158297
54 *105:10 *265:57 8.92701e-05
55 *107:12 *265:57 9.60974e-05
56 *108:14 *1186:A 0.000125182
57 *129:21 *1392:A 9.65676e-05
58 *129:21 *265:57 3.64998e-06
59 *129:25 *1392:A 0
60 *133:56 *265:20 0.000327363
61 *245:75 *1180:A 2.13396e-05
62 *264:86 *1392:A 0
*RES
1 *1393:X *265:8 4.735 
2 *265:8 *265:10 4.245 
3 *265:10 *265:20 15 
4 *265:20 *1183:A 1.6 
5 *265:20 *265:33 10.475 
6 *265:33 *1189:B 3.6 
7 *265:33 *265:42 3.165 
8 *265:42 *1186:A 8.19 
9 *265:42 *265:57 18.56 
10 *265:57 *1392:A 12.41 
11 *265:57 *1172:A 1.96 
12 *265:10 *1178:A 7.49 
13 *265:8 *1180:A 11.78 
*END

*D_NET *266 0.0161929
*CONN
*I *1266:B1 I *D sky130_fd_sc_hd__a21oi_1
*I *1264:B1 I *D sky130_fd_sc_hd__a21oi_1
*I *1250:B1 I *D sky130_fd_sc_hd__a21oi_1
*I *1260:B1 I *D sky130_fd_sc_hd__a21oi_1
*I *1256:B1 I *D sky130_fd_sc_hd__a21oi_1
*I *1258:B1 I *D sky130_fd_sc_hd__a21oi_1
*I *1245:B1 I *D sky130_fd_sc_hd__a21oi_1
*I *1247:B1 I *D sky130_fd_sc_hd__a21oi_1
*I *1272:B1 I *D sky130_fd_sc_hd__a21oi_1
*I *1269:A I *D sky130_fd_sc_hd__nor2_1
*I *1394:X O *D sky130_fd_sc_hd__buf_2
*CAP
1 *1266:B1 0.000128371
2 *1264:B1 5.66856e-05
3 *1250:B1 1.85337e-05
4 *1260:B1 0
5 *1256:B1 0.000410217
6 *1258:B1 0
7 *1245:B1 0
8 *1247:B1 0.000542173
9 *1272:B1 0.000368092
10 *1269:A 7.61651e-05
11 *1394:X 3.52285e-05
12 *266:96 0.000941789
13 *266:90 0.00076408
14 *266:66 0.000624556
15 *266:62 0.000623722
16 *266:60 0.000937525
17 *266:50 0.000921461
18 *266:24 0.00115639
19 *266:16 0.00146472
20 *266:6 0.000661579
21 *1247:B1 *1247:A1 0.000893039
22 *1250:B1 *268:44 4.82919e-05
23 *1256:B1 *1256:A1 6.90876e-05
24 *1256:B1 *1258:A1 7.21296e-06
25 *1256:B1 *268:83 0.00010727
26 *1256:B1 *306:29 4.66108e-05
27 *1256:B1 *306:37 0
28 *1266:B1 *294:6 2.67275e-05
29 *1269:A *267:27 4.89295e-05
30 *1272:B1 *1272:A1 0.000196842
31 *266:16 *1231:C 0.000158032
32 *266:16 *1235:A 1.83847e-05
33 *266:16 *1266:A1 7.30547e-05
34 *266:16 *295:32 5.062e-06
35 *266:24 *1235:A 3.1835e-05
36 *266:24 *295:21 0.000232881
37 *266:50 *1234:B 0.000219699
38 *266:50 *267:27 8.78813e-05
39 *266:60 *1234:B 9.50342e-06
40 *266:60 *268:33 9.30787e-05
41 *266:60 *268:44 1.52184e-05
42 *266:60 *293:25 0.000361299
43 *266:60 *293:56 0.000162318
44 *266:62 *268:44 0.000274374
45 *266:62 *268:48 5.55344e-05
46 *266:66 *268:48 7.89689e-05
47 *266:90 *268:68 0.000109823
48 *266:96 *1259:A 4.60584e-05
49 *266:96 *306:29 0.000184234
50 *1230:D *266:60 0.000296088
51 *1231:D *266:50 3.98952e-05
52 *1233:D *266:60 0
53 *1250:A2 *266:60 7.90356e-06
54 *1250:A2 *266:62 5.53249e-06
55 *1252:A1 *1264:B1 5.83121e-06
56 *1252:A1 *266:50 3.05373e-05
57 *1252:A1 *266:60 7.70938e-05
58 *1255:A_N *1256:B1 8.65905e-05
59 *1255:B *1256:B1 2.59471e-05
60 *1256:A2 *1256:B1 4.99619e-05
61 *1257:B *266:96 2.96409e-05
62 *1258:A2 *266:96 0
63 *1259:C *266:96 4.03668e-05
64 *1261:A2 *266:96 3.93101e-05
65 *1263:B *266:50 7.26551e-05
66 *1266:A2 *266:16 7.30547e-05
67 *1268:A1 *266:24 8.22234e-06
68 *1272:A2 *1272:B1 0.000159329
69 *1314:C *1256:B1 4.20363e-05
70 *1314:C *266:60 0.00049857
71 *1359:CLK *266:60 0
72 *1359:D *1250:B1 1.16578e-05
73 *1362:D *1256:B1 7.23602e-05
74 *1364:D *1264:B1 3.64998e-06
75 *1365:D *1266:B1 9.57963e-05
76 *1366:D *1269:A 2.69968e-05
77 *1366:D *1272:B1 3.77631e-05
78 *1366:D *266:24 2.32206e-05
79 *1384:A *1266:B1 0
80 *1394:A *266:6 7.00889e-06
81 *167:21 *266:60 0
82 *169:12 *266:60 4.9968e-05
83 *171:8 *266:50 0.000122548
84 *171:19 *266:50 7.16181e-05
85 *173:14 *1266:B1 0.000109522
86 *173:14 *266:16 4.19797e-05
87 *175:8 *266:50 0
88 *187:20 *266:90 4.85359e-05
89 *187:20 *266:96 2.04078e-05
90 *191:12 *266:96 2.86975e-05
91 *209:10 *266:16 4.19797e-05
92 *246:12 *266:60 0
93 *246:97 *1269:A 7.41259e-05
94 *246:97 *1272:B1 3.17151e-05
95 *246:117 *1272:B1 0.000292241
*RES
1 *1394:X *266:6 2.05 
2 *266:6 *266:16 11.185 
3 *266:16 *266:24 10.3775 
4 *266:24 *1269:A 5.5575 
5 *266:24 *1272:B1 12.7275 
6 *266:16 *266:50 9.5 
7 *266:50 *266:60 16.96 
8 *266:60 *266:62 6.735 
9 *266:62 *266:66 3.635 
10 *266:66 *1247:B1 12.115 
11 *266:66 *1245:B1 1.6 
12 *266:62 *266:90 5.9 
13 *266:90 *266:96 7.38 
14 *266:96 *1258:B1 1.6 
15 *266:96 *1256:B1 13.79 
16 *266:90 *1260:B1 1.6 
17 *266:60 *1250:B1 4.05 
18 *266:50 *1264:B1 4.395 
19 *266:6 *1266:B1 8.33 
*END

*D_NET *267 0.00961055
*CONN
*I *1276:A I *D sky130_fd_sc_hd__nor2_1
*I *1241:A I *D sky130_fd_sc_hd__nor2_1
*I *1252:B1 I *D sky130_fd_sc_hd__a21oi_1
*I *1236:B1 I *D sky130_fd_sc_hd__a21oi_1
*I *1238:B1 I *D sky130_fd_sc_hd__a21oi_1
*I *1273:B1 I *D sky130_fd_sc_hd__a41o_1
*I *1395:X O *D sky130_fd_sc_hd__clkbuf_2
*CAP
1 *1276:A 0.000260076
2 *1241:A 0
3 *1252:B1 0.000614684
4 *1236:B1 0
5 *1238:B1 0
6 *1273:B1 0
7 *1395:X 0
8 *267:51 0.00112322
9 *267:38 0.000926706
10 *267:27 0.00113901
11 *267:14 0.00103176
12 *267:4 0.000570993
13 *1252:B1 *1240:B1 0.000163199
14 *1276:A *297:14 5.47609e-05
15 *1276:A *297:38 6.55328e-05
16 *267:14 *1284:A 4.43871e-06
17 *267:14 *297:14 0
18 *267:14 *297:42 0
19 *267:27 *1231:A 8.97486e-05
20 *267:27 *1272:A1 1.83756e-05
21 *267:27 *1284:B 0.000102125
22 *267:27 *268:10 8.16186e-05
23 *267:27 *296:27 0
24 *267:27 *296:33 0
25 *267:27 *297:42 4.24292e-06
26 *267:38 *1236:A1 1.33293e-05
27 *267:38 *1407:A 0.0001249
28 *267:51 *1239:B1 0
29 *267:51 *292:10 0
30 *267:51 *292:18 0
31 *1231:D *267:27 0
32 *1235:B *267:27 7.67721e-05
33 *1236:A2 *267:38 0.00014524
34 *1240:A1 *1252:B1 4.21973e-05
35 *1240:A2 *267:51 0
36 *1241:B *1252:B1 0.00012657
37 *1252:A1 *1252:B1 8.696e-05
38 *1252:A2 *1252:B1 0.000124473
39 *1267:B *267:27 8.65905e-05
40 *1268:A1 *267:27 0
41 *1268:A2 *267:27 9.91257e-05
42 *1269:A *267:27 4.89295e-05
43 *1269:B *267:27 0.000162777
44 *1271:A *267:14 4.66108e-05
45 *1273:A1 *267:14 0.000271308
46 *1274:A2 *267:27 2.92496e-05
47 *1276:B *1276:A 0
48 *1354:CLK *267:51 0
49 *1356:D *267:51 7.89689e-05
50 *1361:CLK *267:51 0
51 *1366:D *267:27 1.16854e-05
52 *1369:CLK *267:14 9.23864e-05
53 *1369:D *1276:A 0
54 *172:10 *267:27 0
55 *172:12 *267:14 0.000237249
56 *173:14 *267:14 0
57 *173:20 *267:27 0.00133406
58 *173:20 *267:38 2.26018e-05
59 *175:8 *267:27 1.0183e-05
60 *176:25 *267:27 0
61 *246:59 *267:51 0
62 *266:50 *267:27 8.78813e-05
*RES
1 *1395:X *267:4 1.6 
2 *267:4 *267:14 10.585 
3 *267:14 *1273:B1 1.6 
4 *267:14 *267:27 24.7 
5 *267:27 *1238:B1 1.6 
6 *267:27 *267:38 7.455 
7 *267:38 *1236:B1 1.6 
8 *267:38 *267:51 12.715 
9 *267:51 *1252:B1 11.725 
10 *267:51 *1241:A 1.6 
11 *267:4 *1276:A 10.175 
*END

*D_NET *268 0.0149375
*CONN
*I *1266:A1 I *D sky130_fd_sc_hd__a21oi_1
*I *1268:B1 I *D sky130_fd_sc_hd__o21a_1
*I *1259:B I *D sky130_fd_sc_hd__and3_1
*I *1240:B1 I *D sky130_fd_sc_hd__o21a_1
*I *1256:A1 I *D sky130_fd_sc_hd__a21oi_1
*I *1258:A1 I *D sky130_fd_sc_hd__a21oi_1
*I *1245:A1 I *D sky130_fd_sc_hd__a21oi_1
*I *1247:A1 I *D sky130_fd_sc_hd__a21oi_1
*I *1250:A1 I *D sky130_fd_sc_hd__a21oi_1
*I *1272:A1 I *D sky130_fd_sc_hd__a21oi_1
*I *1396:X O *D sky130_fd_sc_hd__buf_2
*CAP
1 *1266:A1 5.09836e-05
2 *1268:B1 0
3 *1259:B 0
4 *1240:B1 0.000557903
5 *1256:A1 8.2979e-05
6 *1258:A1 4.46109e-05
7 *1245:A1 0
8 *1247:A1 0.00024063
9 *1250:A1 0
10 *1272:A1 0.000844158
11 *1396:X 0.000217137
12 *268:83 0.000839007
13 *268:72 0.000640592
14 *268:68 0.000928738
15 *268:48 0.000330309
16 *268:44 0.000887381
17 *268:33 0.00107934
18 *268:27 0.000848066
19 *268:10 0.0013954
20 *268:6 0.000783811
21 *1240:B1 *304:29 0
22 *1247:A1 *301:23 9.66021e-05
23 *1258:A1 *306:29 5.16348e-05
24 *1266:A1 *294:10 7.23602e-05
25 *268:6 *1265:A 1.34503e-05
26 *268:10 *1265:A 0.000118294
27 *268:33 *1233:A 9.71067e-05
28 *268:33 *304:27 0.000178248
29 *268:44 *301:36 0
30 *268:48 *301:23 0
31 *268:48 *301:36 0
32 *268:72 *306:29 4.66108e-05
33 *1233:B *268:33 0
34 *1240:A1 *1240:B1 4.82863e-05
35 *1245:A2 *268:48 0.000120186
36 *1247:A2 *1247:A1 0.000241483
37 *1247:B1 *1247:A1 0.000893039
38 *1250:A2 *268:33 9.47454e-05
39 *1250:B1 *268:44 4.82919e-05
40 *1252:B1 *1240:B1 0.000163199
41 *1255:B *1256:A1 0
42 *1256:A2 *1256:A1 4.99619e-05
43 *1256:B1 *1256:A1 6.90876e-05
44 *1256:B1 *1258:A1 7.21296e-06
45 *1256:B1 *268:83 0.00010727
46 *1257:B *268:68 2.20014e-05
47 *1257:B *268:72 0.000307773
48 *1261:B1 *268:68 4.82863e-05
49 *1265:B *268:10 8.65961e-05
50 *1266:A2 *1266:A1 3.42142e-05
51 *1267:B *268:10 5.05437e-05
52 *1268:A1 *1272:A1 0
53 *1268:A1 *268:33 4.18603e-06
54 *1268:A2 *268:10 0.000159747
55 *1271:A *1272:A1 2.559e-05
56 *1271:B *1272:A1 4.82863e-05
57 *1272:A2 *1272:A1 6.34306e-05
58 *1272:B1 *1272:A1 0.000196842
59 *1314:C *1240:B1 0
60 *1314:C *1256:A1 0.000163199
61 *1359:D *268:44 2.05056e-05
62 *1361:D *1240:B1 0
63 *1396:A *268:6 4.65607e-05
64 *1426:A *268:83 0
65 *166:14 *1240:B1 0.000103185
66 *166:57 *268:33 0
67 *166:57 *268:44 0.000116629
68 *166:61 *268:44 0
69 *167:33 *268:33 0
70 *169:12 *268:44 0.000120655
71 *173:14 *1266:A1 3.76596e-05
72 *173:18 *268:6 2.86265e-06
73 *173:18 *268:10 9.27255e-06
74 *173:20 *268:10 5.64059e-05
75 *175:8 *268:33 0
76 *176:25 *1272:A1 0
77 *187:20 *268:68 0.00012489
78 *213:10 *1258:A1 0
79 *213:10 *268:83 0
80 *266:16 *1266:A1 7.30547e-05
81 *266:60 *268:33 9.30787e-05
82 *266:60 *268:44 1.52184e-05
83 *266:62 *268:44 0.000274374
84 *266:62 *268:48 5.55344e-05
85 *266:66 *268:48 7.89689e-05
86 *266:90 *268:68 0.000109823
87 *267:27 *1272:A1 1.83756e-05
88 *267:27 *268:10 8.16186e-05
*RES
1 *1396:X *268:6 4.12 
2 *268:6 *268:10 9.09 
3 *268:10 *1272:A1 17.885 
4 *268:10 *268:27 0.615 
5 *268:27 *268:33 17.875 
6 *268:33 *1250:A1 1.6 
7 *268:33 *268:44 9.11 
8 *268:44 *268:48 4.655 
9 *268:48 *1247:A1 10.015 
10 *268:48 *1245:A1 1.6 
11 *268:44 *268:68 8.66 
12 *268:68 *268:72 7.28 
13 *268:72 *1258:A1 4.47 
14 *268:72 *268:83 3.8025 
15 *268:83 *1256:A1 6.1275 
16 *268:83 *1240:B1 14.2125 
17 *268:68 *1259:B 1.6 
18 *268:27 *1268:B1 1.6 
19 *268:6 *1266:A1 7.235 
*END

*D_NET *269 0.0155849
*CONN
*I *1319:B1 I *D sky130_fd_sc_hd__a31o_1
*I *1118:A I *D sky130_fd_sc_hd__inv_2
*I *1207:B I *D sky130_fd_sc_hd__nor2_1
*I *1206:B I *D sky130_fd_sc_hd__or2_1
*I *1328:B1 I *D sky130_fd_sc_hd__a21o_1
*I *1213:B1 I *D sky130_fd_sc_hd__a21oi_1
*I *1322:A I *D sky130_fd_sc_hd__nor3_1
*I *1159:A_N I *D sky130_fd_sc_hd__and4bb_1
*I *1320:A I *D sky130_fd_sc_hd__nor2_1
*I *1323:A I *D sky130_fd_sc_hd__nor2_1
*I *1397:X O *D sky130_fd_sc_hd__buf_2
*CAP
1 *1319:B1 6.89489e-05
2 *1118:A 0.000495845
3 *1207:B 0.000247914
4 *1206:B 0
5 *1328:B1 0
6 *1213:B1 0.000331908
7 *1322:A 0
8 *1159:A_N 0.000329407
9 *1320:A 0.000120986
10 *1323:A 0
11 *1397:X 0.000203416
12 *269:101 0.000827751
13 *269:94 0.00121659
14 *269:79 0.00124606
15 *269:66 0.000515077
16 *269:57 0.000291028
17 *269:53 0.000775309
18 *269:38 0.000897374
19 *269:25 0.00103825
20 *269:12 0.00103775
21 *1118:A *1210:A 2.75229e-05
22 *1207:B *1223:A2 0
23 *1207:B *333:10 0
24 *269:25 *309:8 9.27255e-06
25 *269:25 *309:19 7.35729e-05
26 *269:53 *1148:A 0
27 *269:94 *1110:A 0.000130266
28 *269:94 *1277:C 8.65961e-05
29 *269:94 *1281:A1 3.50033e-05
30 *269:94 *1281:A2 0.000155928
31 *269:94 *337:10 4.62478e-05
32 *269:94 *337:21 6.02447e-05
33 *269:94 *337:34 3.90097e-05
34 *269:94 *337:60 1.94636e-05
35 *269:94 *337:73 0.000170434
36 *269:94 *341:37 3.518e-05
37 *1124:A *1213:B1 0.00012657
38 *1130:A2 *269:94 0
39 *1146:A *269:53 3.29528e-05
40 *1148:C *269:53 0
41 *1149:B *269:53 0.000177373
42 *1150:B *269:53 0
43 *1150:C *269:53 2.0648e-05
44 *1156:A1 *269:53 0.000130066
45 *1158:B *269:25 0.000376227
46 *1159:D *269:25 1.83756e-05
47 *1277:B *1207:B 0
48 *1279:A3 *269:94 0.000116165
49 *1281:B1 *269:94 1.52945e-05
50 *1319:A1 *269:57 0.000519815
51 *1319:A1 *269:66 0.000139245
52 *1319:A1 *269:79 0.000209179
53 *1319:A2 *269:53 0
54 *1319:A3 *269:53 0.0001249
55 *1321:C1 *269:53 4.7771e-05
56 *1322:C *269:53 0
57 *1323:B *269:25 3.00355e-05
58 *1325:A2_N *269:94 0.000178496
59 *1328:A1 *269:94 4.66108e-05
60 *1328:A2 *269:94 0
61 *1347:D *1207:B 0.000452229
62 *1348:CLK *1207:B 0
63 *1351:D *1118:A 4.99619e-05
64 *1376:D *269:57 5.72004e-05
65 *1377:CLK *1320:A 1.61831e-05
66 *1377:D *1320:A 8.57024e-05
67 *1377:D *269:25 0.000102006
68 *1379:D *269:25 4.99619e-05
69 *1380:CLK *269:94 0
70 *1380:D *269:94 9.54399e-05
71 *1415:A *269:12 0
72 *79:21 *1207:B 0
73 *87:8 *1118:A 4.87218e-05
74 *98:10 *1319:B1 2.50702e-05
75 *98:10 *269:53 1.03323e-05
76 *100:6 *269:94 8.65961e-05
77 *111:10 *269:53 0
78 *122:12 *269:38 0.000162325
79 *122:12 *269:53 0.000109016
80 *155:16 *269:94 0
81 *202:12 *269:94 0.000243153
82 *245:71 *1159:A_N 0.000737766
83 *245:127 *269:57 0
84 *245:127 *269:66 0
85 *250:14 *269:12 0.000277013
86 *250:50 *1207:B 8.09021e-06
87 *255:10 *1213:B1 8.65905e-05
88 *255:32 *269:53 0
89 *259:25 *269:94 3.9442e-05
*RES
1 *1397:X *269:12 9.815 
2 *269:12 *1323:A 1.6 
3 *269:12 *269:25 11.625 
4 *269:25 *1320:A 3.355 
5 *269:25 *269:38 3.89 
6 *269:38 *1159:A_N 10.26 
7 *269:38 *269:53 11.75 
8 *269:53 *269:57 7.97 
9 *269:57 *1322:A 3.6 
10 *269:57 *269:66 1.635 
11 *269:66 *1213:B1 8.88 
12 *269:66 *269:79 4.655 
13 *269:79 *1328:B1 1.6 
14 *269:79 *269:94 28.42 
15 *269:94 *1206:B 1.6 
16 *269:94 *269:101 1.14 
17 *269:101 *1207:B 11.315 
18 *269:101 *1118:A 8.965 
19 *269:53 *1319:B1 2.755 
*END

*D_NET *270 0.0054223
*CONN
*I *1217:A2 I *D sky130_fd_sc_hd__o211a_1
*I *1214:B1_N I *D sky130_fd_sc_hd__a21boi_1
*I *1154:A1 I *D sky130_fd_sc_hd__o41ai_1
*I *1153:A I *D sky130_fd_sc_hd__or4_1
*I *1421:X O *D sky130_fd_sc_hd__buf_1
*CAP
1 *1217:A2 0.000137426
2 *1214:B1_N 3.86011e-05
3 *1154:A1 0.000304063
4 *1153:A 6.2854e-05
5 *1421:X 0.000494419
6 *270:38 0.000435613
7 *270:19 0.000596706
8 *270:8 0.000590331
9 *1154:A1 *1139:A1 0
10 *1214:B1_N *1214:A2 8.40213e-05
11 *1217:A2 *1214:A2 8.80977e-05
12 *270:38 *1287:B1 0
13 *1153:C *1153:A 0.000163204
14 *1153:C *1154:A1 1.19928e-05
15 *1153:D *1153:A 0.0001249
16 *1153:D *1154:A1 0.000237243
17 *1157:A1 *1153:A 4.60584e-05
18 *1183:B *270:8 0
19 *1185:A *270:8 0.000139245
20 *1186:B *270:8 5.8218e-05
21 *1186:C *270:8 7.4027e-05
22 *1217:B1 *1217:A2 4.82863e-05
23 *1218:A1 *270:38 0.000360604
24 *1432:A *270:8 0.000570469
25 *107:12 *1154:A1 5.07419e-05
26 *108:14 *270:8 0.00031916
27 *133:92 *270:8 0.000159964
28 *243:14 *270:38 0.000160658
29 *245:41 *270:8 0
30 *260:10 *270:8 4.43871e-06
31 *260:10 *270:19 2.15594e-05
32 *260:10 *270:38 3.64316e-05
33 *260:38 *270:38 2.97004e-06
*RES
1 *1421:X *270:8 17.475 
2 *270:8 *1153:A 5.775 
3 *270:8 *270:19 0.615 
4 *270:19 *1154:A1 7.77 
5 *270:19 *270:38 8.015 
6 *270:38 *1214:B1_N 2.395 
7 *270:38 *1217:A2 4.15 
*END

*D_NET *271 5.97061e-05
*CONN
*I *1205:A1 I *D sky130_fd_sc_hd__o21a_1
*I *1398:X O *D sky130_fd_sc_hd__dlygate4sd3_1
*CAP
1 *1205:A1 2.9853e-05
2 *1398:X 2.9853e-05
*RES
1 *1398:X *1205:A1 3.65 
*END

*D_NET *272 0.00109525
*CONN
*I *1316:A2 I *D sky130_fd_sc_hd__o31a_1
*I *1405:X O *D sky130_fd_sc_hd__dlygate4sd3_1
*CAP
1 *1316:A2 0.000315224
2 *1405:X 0.000315224
3 *1316:A2 *1373:D 9.54399e-05
4 security_breach *1316:A2 0
5 *1316:A3 *1316:A2 1.83756e-05
6 *1433:A *1316:A2 0
7 *1434:A *1316:A2 0.000163019
8 *87:25 *1316:A2 0.000158762
9 *259:8 *1316:A2 2.92086e-05
*RES
1 *1405:X *1316:A2 13.89 
*END

*D_NET *273 0.000550611
*CONN
*I *1373:D I *D sky130_fd_sc_hd__dfxtp_1
*I *1406:X O *D sky130_fd_sc_hd__dlygate4sd3_1
*CAP
1 *1373:D 0.000209151
2 *1406:X 0.000209151
3 *1316:A2 *1373:D 9.54399e-05
4 *1433:A *1373:D 3.68682e-05
*RES
1 *1406:X *1373:D 10.5337 
*END

*D_NET *274 0.000347303
*CONN
*I *1236:A1 I *D sky130_fd_sc_hd__a21oi_1
*I *1407:X O *D sky130_fd_sc_hd__dlygate4sd3_1
*CAP
1 *1236:A1 0.000103702
2 *1407:X 0.000103702
3 *1236:A2 *1236:A1 0.00012657
4 *267:38 *1236:A1 1.33293e-05
*RES
1 *1407:X *1236:A1 4.685 
*END

*D_NET *275 0.000426261
*CONN
*I *1192:A1 I *D sky130_fd_sc_hd__o211a_1
*I *1408:X O *D sky130_fd_sc_hd__dlygate4sd3_1
*CAP
1 *1192:A1 7.99095e-05
2 *1408:X 7.99095e-05
3 *1192:A2 *1192:A1 0.000238919
4 *133:33 *1192:A1 2.75229e-05
*RES
1 *1408:X *1192:A1 5.375 
*END

*D_NET *276 0.000631124
*CONN
*I *1261:A1 I *D sky130_fd_sc_hd__o21a_1
*I *1409:X O *D sky130_fd_sc_hd__dlygate4sd3_1
*CAP
1 *1261:A1 0.000292592
2 *1409:X 0.000292592
3 *1261:B1 *1261:A1 4.59407e-05
*RES
1 *1409:X *1261:A1 11.01 
*END

*D_NET *277 0.000344575
*CONN
*I *1363:D I *D sky130_fd_sc_hd__dfxtp_1
*I *1410:X O *D sky130_fd_sc_hd__dlygate4sd3_1
*CAP
1 *1363:D 0.000131055
2 *1410:X 0.000131055
3 *1261:A2 *1363:D 0
4 *1357:CLK *1363:D 5.83121e-06
5 *1362:D *1363:D 0
6 *1363:CLK *1363:D 4.91189e-05
7 *244:69 *1363:D 2.75145e-05
*RES
1 *1410:X *1363:D 9.42375 
*END

*D_NET *278 0.000396664
*CONN
*I *1218:B2 I *D sky130_fd_sc_hd__o221a_1
*I *1411:X O *D sky130_fd_sc_hd__dlygate4sd3_1
*CAP
1 *1218:B2 0.000134816
2 *1411:X 0.000134816
3 *1218:B2 *1287:B1 0
4 *1218:B2 *1297:A 8.52003e-06
5 *243:14 *1218:B2 0.000118513
*RES
1 *1411:X *1218:B2 9.375 
*END

*D_NET *279 0.00114093
*CONN
*I *1318:A1 I *D sky130_fd_sc_hd__o21a_1
*I *1412:X O *D sky130_fd_sc_hd__dlygate4sd3_1
*CAP
1 *1318:A1 0.00035756
2 *1412:X 0.00035756
3 *1318:A1 *1317:A1 0
4 *1318:A2 *1318:A1 0.000425815
5 *1375:D *1318:A1 0
6 *87:31 *1318:A1 0
*RES
1 *1412:X *1318:A1 13.8 
*END

*D_NET *280 0.000291184
*CONN
*I *1203:A I *D sky130_fd_sc_hd__nand2_1
*I *1399:X O *D sky130_fd_sc_hd__dlygate4sd3_1
*CAP
1 *1203:A 7.72571e-05
2 *1399:X 7.72571e-05
3 *1204:C *1203:A 1.83756e-05
4 *144:23 *1203:A 0.000118294
*RES
1 *1399:X *1203:A 5.03 
*END

*D_NET *281 0.000668966
*CONN
*I *1313:B I *D sky130_fd_sc_hd__or4_1
*I *1422:X O *D sky130_fd_sc_hd__clkbuf_1
*CAP
1 *1313:B 0.00016153
2 *1422:X 0.00016153
3 *1313:B *1313:C 5.56629e-05
4 *1313:A *1313:B 1.34361e-05
5 *1313:D *1313:B 7.87426e-05
6 *1361:CLK *1313:B 9.17201e-05
7 *1422:A *1313:B 0.000106344
*RES
1 *1422:X *1313:B 11.385 
*END

*D_NET *282 0.00068829
*CONN
*I *1275:B1 I *D sky130_fd_sc_hd__a21oi_1
*I *1400:X O *D sky130_fd_sc_hd__dlygate4sd3_1
*CAP
1 *1275:B1 0.000219946
2 *1400:X 0.000219946
3 *1275:B1 *298:12 0.000172537
4 *1350:CLK *1275:B1 4.66108e-05
5 *1384:A *1275:B1 0
6 *247:55 *1275:B1 2.92496e-05
*RES
1 *1400:X *1275:B1 11.265 
*END

*D_NET *283 0.00104608
*CONN
*I *1206:A I *D sky130_fd_sc_hd__or2_1
*I *1401:X O *D sky130_fd_sc_hd__dlygate4sd3_1
*CAP
1 *1206:A 0.00037757
2 *1401:X 0.00037757
3 *1206:A *341:22 0.000102737
4 *1206:A *341:37 7.54567e-05
5 *1130:A2 *1206:A 4.61744e-05
6 *95:10 *1206:A 6.65717e-05
7 *250:50 *1206:A 0
*RES
1 *1401:X *1206:A 14.955 
*END

*D_NET *284 0.000629108
*CONN
*I *1317:A1 I *D sky130_fd_sc_hd__o21a_1
*I *1402:X O *D sky130_fd_sc_hd__dlygate4sd3_1
*CAP
1 *1317:A1 0.00015088
2 *1402:X 0.00015088
3 *1317:A1 *1317:A2 0.000234662
4 *1318:A1 *1317:A1 0
5 *1375:D *1317:A1 7.23533e-05
6 *87:33 *1317:A1 2.03321e-05
*RES
1 *1402:X *1317:A1 10.065 
*END

*D_NET *285 0.000489893
*CONN
*I *1113:A I *D sky130_fd_sc_hd__inv_2
*I *1403:X O *D sky130_fd_sc_hd__dlygate4sd3_1
*CAP
1 *1113:A 7.18169e-05
2 *1403:X 7.18169e-05
3 *1280:B1 *1113:A 0.000162089
4 *1281:C1 *1113:A 2.30292e-05
5 *82:31 *1113:A 0.000161141
*RES
1 *1403:X *1113:A 9.63 
*END

*D_NET *286 0.000351275
*CONN
*I *1193:A I *D sky130_fd_sc_hd__nand2_1
*I *1404:X O *D sky130_fd_sc_hd__dlygate4sd3_1
*CAP
1 *1193:A 0.00015121
2 *1404:X 0.00015121
3 *1193:A *1404:A 0
4 *1193:A *312:29 4.8854e-05
*RES
1 *1404:X *1193:A 9.375 
*END

*D_NET *287 0.00484487
*CONN
*I *1308:C I *D sky130_fd_sc_hd__or4_1
*I *1301:B2 I *D sky130_fd_sc_hd__a2bb2o_1
*I *1423:X O *D sky130_fd_sc_hd__clkbuf_1
*CAP
1 *1308:C 0
2 *1301:B2 0.000495561
3 *1423:X 0.000881027
4 *287:10 0.00137659
5 *287:10 *335:12 4.92096e-05
6 *1123:C *1301:B2 5.72916e-05
7 *1221:A2 *287:10 0
8 *1281:C1 *287:10 0
9 *1292:A2 *1301:B2 4.18603e-06
10 *1302:A1 *1301:B2 5.53249e-06
11 *1308:D *1301:B2 5.53249e-06
12 *1308:D *287:10 2.78732e-05
13 *81:49 *1301:B2 0.00022282
14 *81:49 *287:10 0.000349705
15 *81:62 *287:10 0.000600327
16 *81:81 *287:10 0
17 *82:31 *287:10 0.000379603
18 *90:10 *287:10 0.000104283
19 *93:10 *1301:B2 0
20 *93:27 *1301:B2 1.57776e-05
21 *215:10 *1301:B2 2.23407e-05
22 *216:8 *1301:B2 0.000120655
23 *231:10 *1301:B2 0.000126554
24 *259:31 *1301:B2 0
*RES
1 *1423:X *287:10 22.035 
2 *287:10 *1301:B2 16.195 
3 *287:10 *1308:C 3.6 
*END

*D_NET *288 0.00505727
*CONN
*I *1297:A I *D sky130_fd_sc_hd__nor2_1
*I *1424:X O *D sky130_fd_sc_hd__clkbuf_1
*CAP
1 *1297:A 0.00208351
2 *1424:X 0.00208351
3 *1297:A *1287:B1 0
4 *1215:A1 *1297:A 5.05521e-05
5 *1218:B2 *1297:A 8.52003e-06
6 *1435:A *1297:A 3.00381e-05
7 *243:14 *1297:A 0.000139245
8 *255:54 *1297:A 0.000661885
*RES
1 *1424:X *1297:A 33.09 
*END

*D_NET *289 0.00498122
*CONN
*I *1287:B1 I *D sky130_fd_sc_hd__a41o_1
*I *1153:B I *D sky130_fd_sc_hd__or4_1
*I *1154:A2 I *D sky130_fd_sc_hd__o41ai_1
*I *1425:X O *D sky130_fd_sc_hd__buf_1
*CAP
1 *1287:B1 0.00098304
2 *1153:B 0.000257384
3 *1154:A2 4.06941e-05
4 *1425:X 0.000782598
5 *289:10 0.000298078
6 *289:8 0.00176564
7 *1287:B1 *1214:A1 0
8 *1287:B1 *1289:A 0
9 *1287:B1 *322:10 0
10 *1287:B1 *331:21 0
11 *289:8 *1152:B1 0
12 *289:8 *313:19 0
13 *289:8 *313:30 0
14 *289:8 *313:41 0
15 *1153:C *1153:B 3.38425e-05
16 *1157:A1 *1153:B 0.000312964
17 *1187:A1 *289:8 7.63883e-05
18 *1218:B2 *1287:B1 0
19 *1297:A *1287:B1 0
20 *1340:D *289:8 0
21 *1432:A *289:8 0
22 *103:25 *289:8 0.000178255
23 *104:14 *1287:B1 0
24 *107:12 *1153:B 5.83121e-06
25 *107:12 *1154:A2 3.20202e-05
26 *107:12 *1287:B1 0
27 *107:12 *289:8 0
28 *117:10 *1287:B1 7.47284e-05
29 *117:10 *289:8 7.23533e-05
30 *157:12 *1287:B1 6.74079e-05
31 *243:14 *1287:B1 0
32 *260:10 *1287:B1 0
33 *265:57 *1287:B1 0
34 *270:38 *1287:B1 0
*RES
1 *1425:X *289:8 16.71 
2 *289:8 *289:10 2 
3 *289:10 *1154:A2 2.1175 
4 *289:10 *1153:B 5.155 
5 *289:8 *1287:B1 18.945 
*END

*D_NET *290 0.000272024
*CONN
*I *1313:C I *D sky130_fd_sc_hd__or4_1
*I *1426:X O *D sky130_fd_sc_hd__clkbuf_1
*CAP
1 *1313:C 3.05859e-05
2 *1426:X 3.05859e-05
3 *1313:A *1313:C 0.000120186
4 *1313:B *1313:C 5.56629e-05
5 *1313:D *1313:C 3.50033e-05
*RES
1 *1426:X *1313:C 8.58 
*END

*D_NET *291 0.000724799
*CONN
*I *1317:A2 I *D sky130_fd_sc_hd__o21a_1
*I *1427:X O *D sky130_fd_sc_hd__clkbuf_1
*CAP
1 *1317:A2 0.000211411
2 *1427:X 0.000211411
3 *1317:A1 *1317:A2 0.000234662
4 *1375:D *1317:A2 1.1561e-05
5 *87:31 *1317:A2 1.71013e-05
6 *87:33 *1317:A2 3.86529e-05
*RES
1 *1427:X *1317:A2 11.19 
*END

*D_NET *292 0.00184208
*CONN
*I *1407:A I *D sky130_fd_sc_hd__dlygate4sd3_1
*I *1237:B I *D sky130_fd_sc_hd__xnor2_1
*I *1225:C I *D sky130_fd_sc_hd__and3_2
*I *1239:A2 I *D sky130_fd_sc_hd__a21oi_1
*I *1354:Q O *D sky130_fd_sc_hd__dfxtp_1
*CAP
1 *1407:A 2.24758e-05
2 *1237:B 2.22788e-05
3 *1225:C 0.000121153
4 *1239:A2 4.3331e-05
5 *1354:Q 9.29323e-05
6 *292:18 0.000317648
7 *292:10 0.000324895
8 *292:8 0.000264859
9 *1225:C *1225:B 9.30717e-05
10 *1225:C *1239:A1 8.18626e-05
11 *1225:C *299:10 4.38051e-05
12 *1237:B *1237:A 4.82863e-05
13 *1239:A2 *1239:A1 3.00381e-05
14 *292:8 *299:8 0
15 *292:10 *299:8 0
16 *292:18 *299:10 0
17 *1236:A2 *1407:A 7.35813e-05
18 *1240:A2 *1225:C 9.92956e-05
19 *1240:A2 *292:18 3.76633e-05
20 *1354:D *292:8 0
21 *267:38 *1407:A 0.0001249
22 *267:51 *292:10 0
23 *267:51 *292:18 0
*RES
1 *1354:Q *292:8 4.98 
2 *292:8 *292:10 2.4 
3 *292:10 *292:18 4.7 
4 *292:18 *1239:A2 2.395 
5 *292:18 *1225:C 8.72 
6 *292:10 *1237:B 4.05 
7 *292:8 *1407:A 4.74 
*END

*D_NET *293 0.00570177
*CONN
*I *1234:B I *D sky130_fd_sc_hd__and3_1
*I *1262:A I *D sky130_fd_sc_hd__nor2_1
*I *1312:A1 I *D sky130_fd_sc_hd__o311a_1
*I *1294:C1 I *D sky130_fd_sc_hd__o211a_1
*I *1285:D1 I *D sky130_fd_sc_hd__a2111o_1
*I *1230:A I *D sky130_fd_sc_hd__and4_1
*I *1364:Q O *D sky130_fd_sc_hd__dfxtp_1
*CAP
1 *1234:B 0.000131558
2 *1262:A 0
3 *1312:A1 0.000174985
4 *1294:C1 8.92849e-05
5 *1285:D1 0
6 *1230:A 1.91317e-05
7 *1364:Q 0.000526639
8 *293:56 0.000216715
9 *293:36 0.000340729
10 *293:25 0.000379402
11 *293:19 0.000388101
12 *293:10 0.000545771
13 *293:10 *1286:A 0.000131667
14 *1230:B *293:25 0.000116853
15 *1233:D *293:25 6.43964e-05
16 *1234:C *1234:B 0
17 *1252:A1 *1230:A 8.65905e-05
18 *1252:A1 *293:10 0.000122331
19 *1263:B *1234:B 0.000185405
20 *1286:B *293:10 5.82987e-05
21 *1311:B1 *1294:C1 5.53249e-06
22 *1312:A2 *1312:A1 5.83121e-06
23 *1314:B *1312:A1 2.67184e-05
24 *1314:C *1312:A1 0.000539437
25 *1359:CLK *1294:C1 0
26 *1359:CLK *293:36 0
27 *1364:CLK *293:10 2.04592e-05
28 *1364:D *293:10 4.82319e-06
29 *167:8 *1294:C1 0
30 *167:21 *293:10 6.42013e-05
31 *167:23 *1230:A 3.45588e-05
32 *167:23 *293:10 1.19928e-05
33 *167:33 *293:25 0
34 *170:18 *293:25 8.40213e-05
35 *170:31 *293:25 0.000197269
36 *170:42 *1294:C1 8.42161e-05
37 *170:42 *1312:A1 8.49205e-05
38 *170:42 *293:25 8.65961e-05
39 *170:42 *293:36 9.01511e-05
40 *174:8 *293:56 0
41 *246:47 *1234:B 3.03684e-05
42 *266:50 *1234:B 0.000219699
43 *266:60 *1234:B 9.50342e-06
44 *266:60 *293:25 0.000361299
45 *266:60 *293:56 0.000162318
*RES
1 *1364:Q *293:10 9.415 
2 *293:10 *1230:A 2.395 
3 *293:10 *293:19 2 
4 *293:19 *293:25 9.395 
5 *293:25 *1285:D1 1.6 
6 *293:25 *293:36 3.41 
7 *293:36 *1294:C1 5.49 
8 *293:36 *1312:A1 8.535 
9 *293:19 *293:56 1.89 
10 *293:56 *1262:A 3.6 
11 *293:56 *1234:B 7.05 
*END

*D_NET *294 0.00556673
*CONN
*I *1231:C I *D sky130_fd_sc_hd__and4_1
*I *1265:A I *D sky130_fd_sc_hd__xnor2_1
*I *1234:A I *D sky130_fd_sc_hd__and3_1
*I *1286:A I *D sky130_fd_sc_hd__or2_1
*I *1365:Q O *D sky130_fd_sc_hd__dfxtp_1
*CAP
1 *1231:C 0.000216201
2 *1265:A 5.48616e-05
3 *1234:A 0.000280989
4 *1286:A 0.000415039
5 *1365:Q 0.000532557
6 *294:12 0.000911176
7 *294:10 0.000334789
8 *294:6 0.000813539
9 *1231:C *1235:A 0
10 *1231:D *1231:C 2.75229e-05
11 *1266:A1 *294:10 7.23602e-05
12 *1266:A2 *1231:C 2.49909e-05
13 *1266:B1 *294:6 2.67275e-05
14 *1286:B *1286:A 0.000545352
15 *1364:D *1286:A 0
16 *1365:CLK *1234:A 7.07949e-05
17 *1365:CLK *294:12 0.000158746
18 *1365:D *1231:C 2.11921e-05
19 *1365:D *294:6 4.13269e-05
20 *173:14 *294:10 0.000137571
21 *173:14 *294:12 8.53113e-06
22 *173:18 *1265:A 0.000138799
23 *209:10 *1286:A 0
24 *209:10 *294:10 0
25 *209:10 *294:12 0
26 *211:10 *1286:A 4.60584e-05
27 *246:47 *1234:A 0.000266164
28 *266:16 *1231:C 0.000158032
29 *268:6 *1265:A 1.34503e-05
30 *268:10 *1265:A 0.000118294
31 *293:10 *1286:A 0.000131667
*RES
1 *1365:Q *294:6 7.57 
2 *294:6 *294:10 3.635 
3 *294:10 *294:12 4.44 
4 *294:12 *1286:A 13.155 
5 *294:12 *1234:A 8.19 
6 *294:10 *1265:A 5.775 
7 *294:6 *1231:C 5.89 
*END

*D_NET *295 0.00153857
*CONN
*I *1231:B I *D sky130_fd_sc_hd__and4_1
*I *1284:D I *D sky130_fd_sc_hd__or4_1
*I *1235:A I *D sky130_fd_sc_hd__and2_1
*I *1267:A I *D sky130_fd_sc_hd__nor2_1
*I *1366:Q O *D sky130_fd_sc_hd__dfxtp_1
*CAP
1 *1231:B 0
2 *1284:D 8.41607e-05
3 *1235:A 5.20188e-05
4 *1267:A 9.70968e-05
5 *1366:Q 0
6 *295:32 0.000120833
7 *295:21 0.000322423
8 *295:4 0.000330829
9 *1284:D *1231:A 5.20968e-05
10 *1284:D *1284:C 2.75229e-05
11 *1231:C *1235:A 0
12 *1231:D *1284:D 8.53113e-06
13 *1235:B *1267:A 0
14 *1235:B *295:21 2.75229e-05
15 *1268:A1 *1267:A 8.63188e-05
16 *1268:A1 *295:21 2.77283e-05
17 *172:10 *1284:D 0
18 *175:8 *1267:A 0
19 *176:6 *295:21 1.33293e-05
20 *266:16 *1235:A 1.83847e-05
21 *266:16 *295:32 5.062e-06
22 *266:24 *1235:A 3.1835e-05
23 *266:24 *295:21 0.000232881
*RES
1 *1366:Q *295:4 1.6 
2 *295:4 *1267:A 7.49 
3 *295:4 *295:21 4.785 
4 *295:21 *1235:A 3.355 
5 *295:21 *295:32 0.45 
6 *295:32 *1284:D 7.175 
7 *295:32 *1231:B 1.6 
*END

*D_NET *296 0.00284082
*CONN
*I *1273:A3 I *D sky130_fd_sc_hd__a41o_1
*I *1284:C I *D sky130_fd_sc_hd__or4_1
*I *1231:A I *D sky130_fd_sc_hd__and4_1
*I *1270:A I *D sky130_fd_sc_hd__nor2_1
*I *1367:Q O *D sky130_fd_sc_hd__dfxtp_1
*CAP
1 *1273:A3 0
2 *1284:C 7.15596e-05
3 *1231:A 7.01959e-05
4 *1270:A 2.78725e-05
5 *1367:Q 0.000211083
6 *296:33 0.000434355
7 *296:27 0.00039179
8 *296:12 0.000338147
9 *1284:C *1284:B 5.30673e-05
10 *1231:D *1231:A 9.29751e-06
11 *1270:B *296:27 0.000239807
12 *1271:A *1270:A 2.15273e-05
13 *1271:A *296:27 0.000314745
14 *1271:B *1270:A 4.74638e-05
15 *1274:A2 *296:27 0
16 *1284:D *1231:A 5.20968e-05
17 *1284:D *1284:C 2.75229e-05
18 *172:10 *1231:A 0
19 *176:25 *296:27 4.44927e-05
20 *176:25 *296:33 0.000300109
21 *246:132 *296:12 9.59341e-05
22 *267:27 *1231:A 8.97486e-05
23 *267:27 *296:27 0
24 *267:27 *296:33 0
*RES
1 *1367:Q *296:12 8.465 
2 *296:12 *1270:A 2.3875 
3 *296:12 *296:27 5.735 
4 *296:27 *296:33 7.595 
5 *296:33 *1231:A 7.49 
6 *296:33 *1284:C 3.085 
7 *296:27 *1273:A3 3.6 
*END

*D_NET *297 0.00397157
*CONN
*I *1274:A1 I *D sky130_fd_sc_hd__o21ba_1
*I *1273:A2 I *D sky130_fd_sc_hd__a41o_1
*I *1284:B I *D sky130_fd_sc_hd__or4_1
*I *1232:B I *D sky130_fd_sc_hd__nand3_2
*I *1275:A1 I *D sky130_fd_sc_hd__a21oi_1
*I *1368:Q O *D sky130_fd_sc_hd__dfxtp_1
*CAP
1 *1274:A1 0
2 *1273:A2 0.00013302
3 *1284:B 0.00019705
4 *1232:B 0
5 *1275:A1 0.00030151
6 *1368:Q 0
7 *297:42 0.000528972
8 *297:38 0.000429867
9 *297:14 0.000478656
10 *297:6 0.00040811
11 *1275:A1 *1284:A 0
12 *1275:A1 *298:12 1.03323e-05
13 *297:14 *1232:A 0
14 *297:14 *298:16 0.000163204
15 *1232:C *297:14 9.53428e-06
16 *1271:A *1273:A2 0.000124007
17 *1274:A2 *297:42 5.47948e-05
18 *1274:B1_N *297:42 0.000273008
19 *1275:A2 *1275:A1 0.000349587
20 *1275:A2 *297:14 2.75145e-05
21 *1276:A *297:14 5.47609e-05
22 *1276:A *297:38 6.55328e-05
23 *1276:B *297:14 0
24 *1284:C *1284:B 5.30673e-05
25 *1394:A *297:14 0
26 *172:10 *1284:B 0
27 *172:12 *1273:A2 7.49327e-05
28 *172:38 *297:14 7.60965e-05
29 *173:14 *1275:A1 5.16418e-05
30 *267:14 *297:14 0
31 *267:14 *297:42 0
32 *267:27 *1284:B 0.000102125
33 *267:27 *297:42 4.24292e-06
*RES
1 *1368:Q *297:6 3.6 
2 *297:6 *297:14 6.5 
3 *297:14 *1275:A1 9.77 
4 *297:14 *1232:B 1.6 
5 *297:6 *297:38 6.245 
6 *297:38 *297:42 6.695 
7 *297:42 *1284:B 7.305 
8 *297:42 *1273:A2 5.43 
9 *297:38 *1274:A1 1.6 
*END

*D_NET *298 0.00305205
*CONN
*I *1400:A I *D sky130_fd_sc_hd__dlygate4sd3_1
*I *1232:A I *D sky130_fd_sc_hd__nand3_2
*I *1114:A I *D sky130_fd_sc_hd__inv_2
*I *1284:A I *D sky130_fd_sc_hd__or4_1
*I *1369:Q O *D sky130_fd_sc_hd__dfxtp_1
*CAP
1 *1400:A 0.000207496
2 *1232:A 3.71096e-05
3 *1114:A 0
4 *1284:A 0.000213902
5 *1369:Q 0
6 *298:16 0.000456065
7 *298:12 0.000488195
8 *298:4 0.000416418
9 *1232:C *298:16 0
10 *1275:A1 *1284:A 0
11 *1275:A1 *298:12 1.03323e-05
12 *1275:A2 *1232:A 0
13 *1275:A2 *298:12 8.09157e-05
14 *1275:A2 *298:16 5.49035e-05
15 *1275:B1 *298:12 0.000172537
16 *1276:B *298:12 0.000238919
17 *1350:CLK *298:12 5.83121e-06
18 *165:18 *298:12 0.000123368
19 *172:10 *1284:A 0.000342942
20 *172:38 *298:16 2.96426e-05
21 *173:14 *1284:A 0
22 *209:10 *1284:A 5.83121e-06
23 *267:14 *1284:A 4.43871e-06
24 *297:14 *1232:A 0
25 *297:14 *298:16 0.000163204
*RES
1 *1369:Q *298:4 1.6 
2 *298:4 *298:12 9.715 
3 *298:12 *298:16 4.17 
4 *298:16 *1284:A 10.235 
5 *298:16 *1114:A 1.6 
6 *298:12 *1232:A 2.215 
7 *298:4 *1400:A 4.735 
*END

*D_NET *299 0.00213526
*CONN
*I *1237:A I *D sky130_fd_sc_hd__xnor2_1
*I *1239:A1 I *D sky130_fd_sc_hd__a21oi_1
*I *1225:B I *D sky130_fd_sc_hd__and3_2
*I *1355:Q O *D sky130_fd_sc_hd__dfxtp_1
*CAP
1 *1237:A 0.000123402
2 *1239:A1 0.000182617
3 *1225:B 0.000135208
4 *1355:Q 0.000194494
5 *299:10 0.000482309
6 *299:8 0.000482379
7 *1225:B *304:27 0
8 *1225:B *304:29 0
9 *1225:C *1225:B 9.30717e-05
10 *1225:C *1239:A1 8.18626e-05
11 *1225:C *299:10 4.38051e-05
12 *1237:B *1237:A 4.82863e-05
13 *1238:A2 *1237:A 5.05437e-05
14 *1238:A2 *299:8 0.000116165
15 *1239:A2 *1239:A1 3.00381e-05
16 *1240:A2 *1225:B 3.97957e-05
17 *1240:A2 *299:10 1.73877e-05
18 *1355:D *299:8 0
19 *166:8 *1225:B 8.53113e-06
20 *246:57 *1225:B 5.35969e-06
21 *292:8 *299:8 0
22 *292:10 *299:8 0
23 *292:18 *299:10 0
*RES
1 *1355:Q *299:8 7.02 
2 *299:8 *299:10 2.91 
3 *299:10 *1225:B 6.195 
4 *299:10 *1239:A1 5.775 
5 *299:8 *1237:A 5.775 
*END

*D_NET *300 0.00044355
*CONN
*I *1225:A I *D sky130_fd_sc_hd__and3_2
*I *1239:B1 I *D sky130_fd_sc_hd__a21oi_1
*I *1356:Q O *D sky130_fd_sc_hd__dfxtp_1
*CAP
1 *1225:A 2.238e-05
2 *1239:B1 6.89e-05
3 *1356:Q 5.02911e-05
4 *300:6 0.000141571
5 *1240:A2 *1239:B1 0.000113797
6 *246:57 *1225:A 4.66108e-05
7 *267:51 *1239:B1 0
*RES
1 *1356:Q *300:6 2.47 
2 *300:6 *1239:B1 6.98 
3 *300:6 *1225:A 2.05 
*END

*D_NET *301 0.003434
*CONN
*I *1311:A2 I *D sky130_fd_sc_hd__o211a_1
*I *1226:C I *D sky130_fd_sc_hd__and3_1
*I *1248:A2 I *D sky130_fd_sc_hd__a31o_1
*I *1243:A I *D sky130_fd_sc_hd__or2_1
*I *1242:A I *D sky130_fd_sc_hd__nand2_1
*I *1357:Q O *D sky130_fd_sc_hd__dfxtp_1
*CAP
1 *1311:A2 0.000522703
2 *1226:C 0
3 *1248:A2 2.08101e-05
4 *1243:A 0
5 *1242:A 0
6 *1357:Q 0.000110769
7 *301:45 0.000664396
8 *301:36 0.000417276
9 *301:23 0.000431233
10 *301:10 0.000287229
11 *1311:A2 *1226:A 1.90686e-05
12 *1311:A2 *1248:B1 7.96527e-05
13 *1311:A2 *302:19 0
14 *1311:A2 *302:23 5.03202e-05
15 *1311:A2 *302:41 0
16 *1311:A2 *303:12 2.76781e-05
17 *301:45 *1248:A1 2.30292e-05
18 *301:45 *1248:B1 0.000234821
19 *1242:B *301:10 5.53249e-06
20 *1242:B *301:23 7.89767e-05
21 *1242:B *301:36 5.53249e-06
22 *1245:A2 *301:23 0
23 *1247:A1 *301:23 9.66021e-05
24 *1247:A2 *301:10 0
25 *1384:A *1311:A2 0.000118496
26 *166:57 *301:36 4.80285e-05
27 *166:61 *301:36 0.000183759
28 *211:16 *1311:A2 8.09021e-06
29 *268:44 *301:36 0
30 *268:48 *301:23 0
31 *268:48 *301:36 0
*RES
1 *1357:Q *301:10 7.235 
2 *301:10 *1242:A 1.6 
3 *301:10 *301:23 5.48 
4 *301:23 *1243:A 3.6 
5 *301:23 *301:36 7.07 
6 *301:36 *1248:A2 1.96 
7 *301:36 *301:45 2.805 
8 *301:45 *1226:C 1.6 
9 *301:45 *1311:A2 14.525 
*END

*D_NET *302 0.0039576
*CONN
*I *1311:A1 I *D sky130_fd_sc_hd__o211a_1
*I *1294:A2 I *D sky130_fd_sc_hd__o211a_1
*I *1226:B I *D sky130_fd_sc_hd__and3_1
*I *1248:A1 I *D sky130_fd_sc_hd__a31o_1
*I *1246:A I *D sky130_fd_sc_hd__xor2_1
*I *1358:Q O *D sky130_fd_sc_hd__dfxtp_1
*CAP
1 *1311:A1 0.000210975
2 *1294:A2 0
3 *1226:B 0
4 *1248:A1 0.000137025
5 *1246:A 0.000420949
6 *1358:Q 0.000225412
7 *302:41 0.000319138
8 *302:23 0.000332671
9 *302:19 0.000569772
10 *302:6 0.000912324
11 *1248:A1 *1248:B1 0.000241483
12 *1311:A1 *1311:C1 0.000164874
13 *1311:A1 *303:32 3.00483e-05
14 *302:19 *303:12 0
15 *302:23 *1248:B1 3.23663e-05
16 *302:23 *303:12 1.83756e-05
17 *302:41 *303:12 0
18 *1287:A4 *302:19 0
19 *1295:A2 *1311:A1 2.20732e-05
20 *1311:A2 *302:19 0
21 *1311:A2 *302:23 5.03202e-05
22 *1311:A2 *302:41 0
23 *1311:B1 *1311:A1 3.77818e-05
24 *1311:B1 *302:41 5.16418e-05
25 *1358:CLK *1246:A 0.00013439
26 *1358:CLK *302:6 1.34503e-05
27 *167:8 *302:41 0
28 *170:42 *302:41 9.50342e-06
29 *211:16 *302:19 0
30 *301:45 *1248:A1 2.30292e-05
*RES
1 *1358:Q *302:6 4.12 
2 *302:6 *1246:A 7.06 
3 *302:6 *302:19 6.185 
4 *302:19 *302:23 4.52 
5 *302:23 *1248:A1 4.735 
6 *302:23 *1226:B 1.6 
7 *302:19 *302:41 3.635 
8 *302:41 *1294:A2 1.6 
9 *302:41 *1311:A1 5.53 
*END

*D_NET *303 0.00175722
*CONN
*I *1311:C1 I *D sky130_fd_sc_hd__o211a_1
*I *1294:A1 I *D sky130_fd_sc_hd__o211a_1
*I *1226:A I *D sky130_fd_sc_hd__and3_1
*I *1248:B1 I *D sky130_fd_sc_hd__a31o_1
*I *1359:Q O *D sky130_fd_sc_hd__dfxtp_1
*CAP
1 *1311:C1 2.21545e-05
2 *1294:A1 0
3 *1226:A 1.63287e-05
4 *1248:B1 4.17575e-05
5 *1359:Q 0
6 *303:32 0.000175632
7 *303:12 0.000190724
8 *303:4 0.000286115
9 *1248:A1 *1248:B1 0.000241483
10 *1311:A1 *1311:C1 0.000164874
11 *1311:A1 *303:32 3.00483e-05
12 *1311:A2 *1226:A 1.90686e-05
13 *1311:A2 *1248:B1 7.96527e-05
14 *1311:A2 *303:12 2.76781e-05
15 *1311:B1 *1311:C1 9.21168e-05
16 *1311:B1 *303:32 8.40269e-05
17 *167:8 *303:12 0
18 *301:45 *1248:B1 0.000234821
19 *302:19 *303:12 0
20 *302:23 *1248:B1 3.23663e-05
21 *302:23 *303:12 1.83756e-05
22 *302:41 *303:12 0
*RES
1 *1359:Q *303:4 1.6 
2 *303:4 *303:12 6.085 
3 *303:12 *1248:B1 4.465 
4 *303:12 *1226:A 1.96 
5 *303:4 *303:32 2.805 
6 *303:32 *1294:A1 1.6 
7 *303:32 *1311:C1 3.085 
*END

*D_NET *304 0.00523294
*CONN
*I *1251:A I *D sky130_fd_sc_hd__xor2_1
*I *1229:D I *D sky130_fd_sc_hd__and4_1
*I *1253:B I *D sky130_fd_sc_hd__and4_1
*I *1254:A1 I *D sky130_fd_sc_hd__a31o_1
*I *1233:A I *D sky130_fd_sc_hd__and4_1
*I *1360:Q O *D sky130_fd_sc_hd__dfxtp_1
*CAP
1 *1251:A 0
2 *1229:D 0.000336256
3 *1253:B 0
4 *1254:A1 0.000175428
5 *1233:A 9.1616e-05
6 *1360:Q 0
7 *304:31 0.000200117
8 *304:29 0.00072738
9 *304:27 0.00113188
10 *304:6 0.000857056
11 *1229:D *307:29 8.80293e-06
12 *1254:A1 *306:37 0.000139238
13 *1225:B *304:27 0
14 *1225:B *304:29 0
15 *1234:C *304:27 0
16 *1240:B1 *304:29 0
17 *1249:A *304:29 0
18 *1251:B *304:27 0
19 *1251:B *304:29 0
20 *1252:A1 *1233:A 5.30673e-05
21 *1252:A2 *304:29 0
22 *1254:A2 *1254:A1 0.000229125
23 *1254:A2 *304:31 9.50342e-06
24 *1255:A_N *1254:A1 9.37422e-06
25 *1314:C *1229:D 0.000343955
26 *1314:C *1254:A1 2.68721e-05
27 *1314:C *304:29 1.1561e-05
28 *1314:C *304:31 3.50033e-05
29 *1360:D *304:27 0
30 *1360:D *304:29 0
31 *166:8 *304:29 0
32 *166:14 *304:29 0
33 *166:18 *304:29 0.000229897
34 *166:18 *304:31 6.28498e-05
35 *167:39 *304:29 1.26626e-05
36 *170:18 *1229:D 0
37 *174:8 *1233:A 0
38 *174:8 *304:27 0
39 *246:47 *304:27 0.000265941
40 *268:33 *1233:A 9.71067e-05
41 *268:33 *304:27 0.000178248
*RES
1 *1360:Q *304:6 3.6 
2 *304:6 *1233:A 5.52 
3 *304:6 *304:27 14.53 
4 *304:27 *304:29 6.99 
5 *304:29 *304:31 0.87 
6 *304:31 *1254:A1 7.5 
7 *304:31 *1253:B 3.6 
8 *304:29 *1229:D 12.19 
9 *304:27 *1251:A 3.6 
*END

*D_NET *305 0.00213143
*CONN
*I *1228:C I *D sky130_fd_sc_hd__and3_1
*I *1254:B1 I *D sky130_fd_sc_hd__a31o_1
*I *1229:C I *D sky130_fd_sc_hd__and4_1
*I *1253:A I *D sky130_fd_sc_hd__and4_1
*I *1361:Q O *D sky130_fd_sc_hd__dfxtp_1
*CAP
1 *1228:C 7.62714e-05
2 *1254:B1 0.00016011
3 *1229:C 1.85943e-05
4 *1253:A 0
5 *1361:Q 0.000100343
6 *305:24 0.000247898
7 *305:15 0.000186137
8 *305:8 0.000256369
9 *1228:C *1228:A 7.33706e-05
10 *1228:C *1228:B 0.000107538
11 *1254:B1 *1228:B 0
12 *1254:B1 *307:29 0.000139245
13 *305:15 *1228:A 2.26739e-05
14 *305:15 *1229:B 0.000110767
15 *305:15 *306:37 0.000192493
16 *305:24 *1228:A 3.00381e-05
17 *1255:A_N *1254:B1 7.81998e-05
18 *170:18 *1228:C 8.52845e-05
19 *170:18 *1254:B1 0
20 *187:10 *1228:C 1.91597e-05
21 *187:10 *1254:B1 0.000116853
22 *187:10 *305:15 9.09209e-05
23 *187:10 *305:24 1.91597e-05
*RES
1 *1361:Q *305:8 3.1 
2 *305:8 *1253:A 1.6 
3 *305:8 *305:15 3.555 
4 *305:15 *1229:C 1.96 
5 *305:15 *305:24 0.45 
6 *305:24 *1254:B1 9.425 
7 *305:24 *1228:C 4.21 
*END

*D_NET *306 0.00535336
*CONN
*I *1259:A I *D sky130_fd_sc_hd__and3_1
*I *1229:B I *D sky130_fd_sc_hd__and4_1
*I *1228:B I *D sky130_fd_sc_hd__and3_1
*I *1257:A I *D sky130_fd_sc_hd__xnor2_1
*I *1362:Q O *D sky130_fd_sc_hd__dfxtp_1
*CAP
1 *1259:A 2.83119e-05
2 *1229:B 2.10917e-05
3 *1228:B 0.000422984
4 *1257:A 0
5 *1362:Q 0.000340921
6 *306:37 0.00086812
7 *306:29 0.000704681
8 *306:12 0.000593246
9 *1228:B *1228:A 0.00023436
10 *1228:B *1229:A 4.77719e-05
11 *1229:B *1228:A 3.68999e-05
12 *1229:B *1229:A 4.77719e-05
13 *306:37 *307:29 0
14 *1228:C *1228:B 0.000107538
15 *1254:A1 *306:37 0.000139238
16 *1254:A2 *306:37 1.34361e-05
17 *1254:A3 *306:37 2.75538e-05
18 *1254:B1 *1228:B 0
19 *1256:B1 *306:29 4.66108e-05
20 *1256:B1 *306:37 0
21 *1257:B *1259:A 8.65961e-05
22 *1257:B *306:29 0.000623453
23 *1258:A1 *306:29 5.16348e-05
24 *1258:A2 *306:29 0
25 *1259:C *1259:A 1.37328e-05
26 *1288:A *306:12 9.54399e-05
27 *1288:B *306:12 9.50342e-06
28 *1314:C *306:37 0.000162332
29 *1362:D *306:29 4.9968e-05
30 *191:12 *306:37 0
31 *266:96 *1259:A 4.60584e-05
32 *266:96 *306:29 0.000184234
33 *268:72 *306:29 4.66108e-05
34 *305:15 *1229:B 0.000110767
35 *305:15 *306:37 0.000192493
*RES
1 *1362:Q *306:12 11.195 
2 *306:12 *1257:A 1.6 
3 *306:12 *306:29 11.305 
4 *306:29 *306:37 12.31 
5 *306:37 *1228:B 8.18875 
6 *306:37 *1229:B 2.74 
7 *306:29 *1259:A 2.755 
*END

*D_NET *307 0.00257007
*CONN
*I *1409:A I *D sky130_fd_sc_hd__dlygate4sd3_1
*I *1228:A I *D sky130_fd_sc_hd__and3_1
*I *1229:A I *D sky130_fd_sc_hd__and4_1
*I *1260:A1 I *D sky130_fd_sc_hd__a21oi_1
*I *1363:Q O *D sky130_fd_sc_hd__dfxtp_1
*CAP
1 *1409:A 6.3485e-05
2 *1228:A 4.34314e-05
3 *1229:A 1.02931e-05
4 *1260:A1 0
5 *1363:Q 0
6 *307:29 0.000528431
7 *307:10 0.000679538
8 *307:4 0.000268316
9 *1228:B *1228:A 0.00023436
10 *1228:B *1229:A 4.77719e-05
11 *1228:C *1228:A 7.33706e-05
12 *1229:B *1228:A 3.68999e-05
13 *1229:B *1229:A 4.77719e-05
14 *1229:D *307:29 8.80293e-06
15 *1254:B1 *307:29 0.000139245
16 *1261:A2 *307:10 9.03138e-05
17 *1261:A2 *307:29 2.97746e-05
18 *1261:B1 *307:29 1.8497e-05
19 *170:18 *307:29 0
20 *187:10 *307:29 3.32209e-05
21 *187:20 *307:29 0.000139641
22 *191:12 *307:29 2.41894e-05
23 *305:15 *1228:A 2.26739e-05
24 *305:24 *1228:A 3.00381e-05
25 *306:37 *307:29 0
*RES
1 *1363:Q *307:4 1.6 
2 *307:4 *307:10 4.61 
3 *307:10 *1260:A1 3.6 
4 *307:10 *307:29 10.445 
5 *307:29 *1229:A 2.05 
6 *307:29 *1228:A 3.775 
7 *307:4 *1409:A 2.665 
*END

*D_NET *308 0.0023672
*CONN
*I *1131:D_N I *D sky130_fd_sc_hd__or4b_2
*I *1119:A I *D sky130_fd_sc_hd__or4b_2
*I *1125:A I *D sky130_fd_sc_hd__or4b_1
*I *1133:A I *D sky130_fd_sc_hd__or4b_1
*I *1376:Q O *D sky130_fd_sc_hd__dfxtp_1
*CAP
1 *1131:D_N 3.94281e-05
2 *1119:A 2.08101e-05
3 *1125:A 0.000127461
4 *1133:A 0
5 *1376:Q 0.000113492
6 *308:38 7.14581e-05
7 *308:21 0.000283988
8 *308:12 0.000258799
9 *1119:A *1131:C 0
10 *1125:A *1125:C 0.000204374
11 *1125:A *1125:D_N 2.49909e-05
12 *1125:A *310:10 1.0183e-05
13 *1125:A *311:36 1.73877e-05
14 *1125:A *311:45 8.08153e-06
15 *1131:D_N *1131:A 0.00019243
16 *1131:D_N *1131:C 8.43862e-05
17 *308:21 *1131:C 6.52265e-05
18 *308:21 *1133:C 0.000158066
19 *308:21 *309:43 9.02174e-05
20 *308:38 *1131:A 1.16578e-05
21 *308:38 *1131:C 2.16917e-05
22 *308:38 *309:43 2.0514e-05
23 *1126:A *1125:A 9.80032e-06
24 *1134:B *1125:A 9.11179e-05
25 *1134:D *308:12 5.30673e-05
26 *1134:D *308:21 2.7441e-05
27 *1136:C *308:12 0
28 *88:12 *1125:A 9.47454e-05
29 *96:14 *1125:A 9.30787e-05
30 *98:10 *308:12 3.00381e-05
31 *101:16 *308:12 0.000143266
*RES
1 *1376:Q *308:12 8.375 
2 *308:12 *1133:A 1.6 
3 *308:12 *308:21 3.57 
4 *308:21 *1125:A 9.335 
5 *308:21 *308:38 0.45 
6 *308:38 *1119:A 1.96 
7 *308:38 *1131:D_N 3.445 
*END

*D_NET *309 0.00418817
*CONN
*I *1119:B I *D sky130_fd_sc_hd__or4b_2
*I *1131:A I *D sky130_fd_sc_hd__or4b_2
*I *1133:D_N I *D sky130_fd_sc_hd__or4b_1
*I *1125:B I *D sky130_fd_sc_hd__or4b_1
*I *1158:A I *D sky130_fd_sc_hd__xor2_1
*I *1377:Q O *D sky130_fd_sc_hd__dfxtp_1
*CAP
1 *1119:B 0
2 *1131:A 0.000122989
3 *1133:D_N 0
4 *1125:B 0.00021969
5 *1158:A 0
6 *1377:Q 0.000123094
7 *309:43 0.000296943
8 *309:30 0.000264844
9 *309:19 0.000700173
10 *309:8 0.000512688
11 *1131:A *1131:B 0.00017088
12 *1131:A *1131:C 0.000137828
13 *309:19 *311:10 0
14 *309:19 *311:23 0
15 *309:30 *1125:C 9.54399e-05
16 *309:43 *1125:C 3.09164e-05
17 *309:43 *1133:B 9.50342e-06
18 *309:43 *310:10 6.45236e-05
19 *1126:A *1125:B 8.40213e-05
20 *1131:D_N *1131:A 0.00019243
21 *1134:B *1125:B 1.12578e-05
22 *1134:D *309:30 7.06865e-05
23 *1136:C *309:30 1.26626e-05
24 *1136:C *309:43 4.29069e-05
25 *1158:B *309:8 0.000131815
26 *1159:B_N *309:19 0.00028617
27 *1159:B_N *309:30 5.45594e-05
28 *1159:C *309:19 0.000139238
29 *1159:D *309:19 6.28843e-05
30 *88:12 *309:30 2.90086e-05
31 *88:18 *309:19 0
32 *88:18 *309:30 0
33 *96:14 *1125:B 8.82557e-05
34 *96:20 *1125:B 2.75229e-05
35 *245:75 *309:19 0
36 *269:25 *309:8 9.27255e-06
37 *269:25 *309:19 7.35729e-05
38 *308:21 *309:43 9.02174e-05
39 *308:38 *1131:A 1.16578e-05
40 *308:38 *309:43 2.0514e-05
*RES
1 *1377:Q *309:8 4.045 
2 *309:8 *1158:A 1.6 
3 *309:8 *309:19 10.64 
4 *309:19 *1125:B 6.465 
5 *309:19 *309:30 2.4 
6 *309:30 *1133:D_N 3.6 
7 *309:30 *309:43 4.955 
8 *309:43 *1131:A 5.545 
9 *309:43 *1119:B 1.6 
*END

*D_NET *310 0.00336287
*CONN
*I *1119:D_N I *D sky130_fd_sc_hd__or4b_2
*I *1131:C I *D sky130_fd_sc_hd__or4b_2
*I *1133:C I *D sky130_fd_sc_hd__or4b_1
*I *1125:C I *D sky130_fd_sc_hd__or4b_1
*I *1378:Q O *D sky130_fd_sc_hd__dfxtp_1
*CAP
1 *1119:D_N 0
2 *1131:C 0.000258518
3 *1133:C 5.77437e-05
4 *1125:C 0.000313255
5 *1378:Q 0.000303385
6 *310:25 0.000316261
7 *310:10 0.00061664
8 *1125:C *1125:D_N 1.47347e-05
9 *310:10 *1133:B 3.31204e-05
10 *310:10 *311:45 0
11 *1119:A *1131:C 0
12 *1125:A *1125:C 0.000204374
13 *1125:A *310:10 1.0183e-05
14 *1131:A *1131:C 0.000137828
15 *1131:D_N *1131:C 8.43862e-05
16 *1134:B *1125:C 4.21973e-05
17 *1134:D *1133:C 4.66742e-05
18 *1136:C *310:10 0.000144965
19 *1205:A2 *310:10 4.82919e-05
20 *88:12 *1125:C 3.86607e-05
21 *96:14 *1125:C 1.61831e-05
22 *96:14 *1131:C 0.00023468
23 *96:20 *1125:C 4.9253e-06
24 *250:35 *310:10 0
25 *308:21 *1131:C 6.52265e-05
26 *308:21 *1133:C 0.000158066
27 *308:38 *1131:C 2.16917e-05
28 *309:30 *1125:C 9.54399e-05
29 *309:43 *1125:C 3.09164e-05
30 *309:43 *310:10 6.45236e-05
*RES
1 *1378:Q *310:10 9.765 
2 *310:10 *1125:C 8.46 
3 *310:10 *310:25 2 
4 *310:25 *1133:C 3.085 
5 *310:25 *1131:C 7.255 
6 *310:25 *1119:D_N 1.6 
*END

*D_NET *311 0.00463412
*CONN
*I *1133:B I *D sky130_fd_sc_hd__or4b_1
*I *1131:B I *D sky130_fd_sc_hd__or4b_2
*I *1119:C I *D sky130_fd_sc_hd__or4b_2
*I *1125:D_N I *D sky130_fd_sc_hd__or4b_1
*I *1151:A1 I *D sky130_fd_sc_hd__o21a_1
*I *1379:Q O *D sky130_fd_sc_hd__dfxtp_1
*CAP
1 *1133:B 0.000339681
2 *1131:B 0.000161385
3 *1119:C 0
4 *1125:D_N 9.20586e-05
5 *1151:A1 0
6 *1379:Q 0.000580861
7 *311:45 0.000543817
8 *311:36 0.000120565
9 *311:23 0.000405531
10 *311:10 0.00081652
11 *1125:A *1125:D_N 2.49909e-05
12 *1125:A *311:36 1.73877e-05
13 *1125:A *311:45 8.08153e-06
14 *1125:C *1125:D_N 1.47347e-05
15 *1126:A *1125:D_N 0.00026908
16 *1131:A *1131:B 0.00017088
17 *1134:B *1125:D_N 0
18 *1136:C *1133:B 7.4027e-05
19 *1159:C *311:10 2.66935e-05
20 *1323:B *311:10 0.00011852
21 *1323:B *311:23 3.09164e-05
22 *1379:CLK *311:10 2.49909e-05
23 *1379:D *311:10 3.51254e-06
24 *1393:A *311:10 3.1562e-06
25 *88:12 *311:23 6.15576e-06
26 *88:18 *311:23 5.22145e-05
27 *96:14 *311:23 3.59531e-06
28 *96:14 *311:36 6.40897e-05
29 *110:10 *311:23 0.000108322
30 *245:71 *311:10 5.83121e-06
31 *250:35 *1133:B 6.19601e-05
32 *250:35 *311:23 0.000192227
33 *250:35 *311:36 0.000177353
34 *250:35 *311:45 7.23533e-05
35 *309:19 *311:10 0
36 *309:19 *311:23 0
37 *309:43 *1133:B 9.50342e-06
38 *310:10 *1133:B 3.31204e-05
39 *310:10 *311:45 0
*RES
1 *1379:Q *311:10 10.605 
2 *311:10 *1151:A1 3.6 
3 *311:10 *311:23 5.43 
4 *311:23 *1125:D_N 6.135 
5 *311:23 *311:36 2.145 
6 *311:36 *1119:C 3.6 
7 *311:36 *311:45 0.87 
8 *311:45 *1131:B 5.775 
9 *311:45 *1133:B 12.415 
*END

*D_NET *312 0.00475728
*CONN
*I *1161:A I *D sky130_fd_sc_hd__nand2_1
*I *1162:A I *D sky130_fd_sc_hd__or2_1
*I *1168:A1 I *D sky130_fd_sc_hd__a31o_1
*I *1167:A I *D sky130_fd_sc_hd__and4_1
*I *1164:A I *D sky130_fd_sc_hd__nand3_1
*I *1165:A1 I *D sky130_fd_sc_hd__a21o_1
*I *1160:A_N I *D sky130_fd_sc_hd__and2b_1
*I *1330:Q O *D sky130_fd_sc_hd__dfxtp_1
*CAP
1 *1161:A 3.92995e-05
2 *1162:A 0
3 *1168:A1 0.000117687
4 *1167:A 0
5 *1164:A 0
6 *1165:A1 0.000173405
7 *1160:A_N 0.00010095
8 *1330:Q 0
9 *312:71 0.000262276
10 *312:45 0.000523575
11 *312:29 0.000499805
12 *312:21 0.000921516
13 *312:10 0.00038629
14 *312:6 0.000319089
15 *1161:A *1162:B 4.94457e-05
16 *1165:A1 *1164:B 4.47125e-05
17 *1165:A1 *320:19 8.4841e-05
18 *1168:A1 *1167:B 3.83194e-05
19 *1168:A1 *1168:B1 9.5433e-05
20 *312:29 *1404:A 4.18603e-06
21 *312:45 *1167:B 7.10578e-05
22 *1163:A *312:10 0
23 *1163:A *312:71 0.000201508
24 *1163:B *1161:A 4.76036e-05
25 *1163:B *312:71 7.73143e-05
26 *1163:C *312:71 0.000110907
27 *1169:B *1168:A1 0.000114492
28 *1169:C *1168:A1 3.68784e-05
29 *1193:A *312:29 4.8854e-05
30 *1333:D *1168:A1 8.23457e-05
31 *1333:D *312:45 4.82863e-05
32 *244:12 *1168:A1 4.84472e-05
33 *264:14 *1165:A1 1.09302e-05
34 *264:14 *312:29 0.000197826
35 *264:38 *312:10 0
*RES
1 *1330:Q *312:6 3.6 
2 *312:6 *312:10 3.38 
3 *312:10 *1160:A_N 3.085 
4 *312:10 *312:21 2.88 
5 *312:21 *312:29 10.015 
6 *312:29 *1165:A1 4.045 
7 *312:29 *1164:A 1.6 
8 *312:21 *312:45 6.315 
9 *312:45 *1167:A 1.6 
10 *312:45 *1168:A1 8.99 
11 *312:6 *312:71 7.115 
12 *312:71 *1162:A 1.6 
13 *312:71 *1161:A 2.74 
*END

*D_NET *313 0.00405417
*CONN
*I *1152:B1 I *D sky130_fd_sc_hd__o211a_1
*I *1143:A I *D sky130_fd_sc_hd__or3_1
*I *1190:B I *D sky130_fd_sc_hd__and4_1
*I *1187:B1 I *D sky130_fd_sc_hd__a21o_1
*I *1188:A I *D sky130_fd_sc_hd__and3_1
*I *1340:Q O *D sky130_fd_sc_hd__dfxtp_1
*CAP
1 *1152:B1 0.000159382
2 *1143:A 0
3 *1190:B 0.000110853
4 *1187:B1 4.72002e-05
5 *1188:A 0.000108927
6 *1340:Q 0
7 *313:41 0.000245193
8 *313:30 0.000297018
9 *313:19 0.000427923
10 *313:4 0.000389296
11 *1152:B1 *1152:A1 4.66108e-05
12 *1152:B1 *1152:A2 4.66108e-05
13 *1188:A *314:10 3.45588e-05
14 *1190:B *1140:A 8.8266e-05
15 *1190:B *314:23 0.000113237
16 *1188:B *1188:A 1.03323e-05
17 *1188:B *313:19 0
18 *1189:C *1187:B1 8.65961e-05
19 *1190:C *1190:B 6.52265e-05
20 *1340:D *313:19 9.47454e-05
21 *103:25 *1190:B 8.05167e-05
22 *105:10 *1190:B 0.000387896
23 *107:12 *1152:B1 0.00011379
24 *133:33 *1187:B1 9.66106e-05
25 *143:12 *1188:A 0.000162311
26 *265:33 *313:19 0.000121525
27 *265:33 *313:30 6.68849e-05
28 *265:42 *313:30 0.000141599
29 *265:42 *313:41 0.000129047
30 *265:57 *1152:B1 0.000351094
31 *265:57 *313:41 3.09233e-05
32 *289:8 *1152:B1 0
33 *289:8 *313:19 0
34 *289:8 *313:30 0
35 *289:8 *313:41 0
*RES
1 *1340:Q *313:4 1.6 
2 *313:4 *1188:A 4.21 
3 *313:4 *313:19 6.485 
4 *313:19 *1187:B1 5.085 
5 *313:19 *313:30 2.4 
6 *313:30 *1190:B 7.845 
7 *313:30 *313:41 1.89 
8 *313:41 *1143:A 3.6 
9 *313:41 *1152:B1 8.235 
*END

*D_NET *314 0.00210683
*CONN
*I *1190:A I *D sky130_fd_sc_hd__and4_1
*I *1140:A I *D sky130_fd_sc_hd__or2_1
*I *1408:A I *D sky130_fd_sc_hd__dlygate4sd3_1
*I *1341:Q O *D sky130_fd_sc_hd__dfxtp_1
*CAP
1 *1190:A 0
2 *1140:A 6.58853e-05
3 *1408:A 0
4 *1341:Q 0.000213936
5 *314:23 0.000206588
6 *314:10 0.000354639
7 *1188:A *314:10 3.45588e-05
8 *1188:B *314:10 0.000221997
9 *1188:B *314:23 7.8848e-05
10 *1188:C *314:10 4.78458e-05
11 *1188:C *314:23 0
12 *1190:B *1140:A 8.8266e-05
13 *1190:B *314:23 0.000113237
14 *1190:C *1140:A 0.00012657
15 *1190:C *314:23 0.000124895
16 *105:10 *1140:A 0.000111285
17 *133:14 *1140:A 0.000201503
18 *133:18 *314:23 0
19 *143:12 *314:10 9.01224e-05
20 *144:8 *1140:A 2.66586e-05
*RES
1 *1341:Q *314:10 8.775 
2 *314:10 *1408:A 3.6 
3 *314:10 *314:23 5.54 
4 *314:23 *1140:A 4.81 
5 *314:23 *1190:A 1.6 
*END

*D_NET *315 0.00241092
*CONN
*I *1194:A I *D sky130_fd_sc_hd__or2_1
*I *1404:A I *D sky130_fd_sc_hd__dlygate4sd3_1
*I *1141:C I *D sky130_fd_sc_hd__or3_1
*I *1196:B I *D sky130_fd_sc_hd__and3_1
*I *1197:A1 I *D sky130_fd_sc_hd__a21o_1
*I *1342:Q O *D sky130_fd_sc_hd__dfxtp_1
*CAP
1 *1194:A 0
2 *1404:A 0.000123934
3 *1141:C 9.228e-05
4 *1196:B 0.000106954
5 *1197:A1 0
6 *1342:Q 0.000107591
7 *315:45 0.000172104
8 *315:23 0.000296591
9 *315:14 0.000225969
10 *315:8 0.000284373
11 *1141:C *1141:B 4.8854e-05
12 *1141:C *1197:B1 4.21973e-05
13 *1196:B *1141:B 2.42236e-05
14 *1196:B *316:10 5.92767e-05
15 *1196:B *316:19 5.7344e-05
16 *315:23 *1197:B1 9.81565e-05
17 *1193:A *1404:A 0
18 *1195:A *315:8 0.000161529
19 *1195:A *315:45 4.82919e-05
20 *1195:B *315:8 2.75145e-05
21 *1195:B *315:45 1.33285e-05
22 *1195:C *315:45 2.30292e-05
23 *1198:C *1196:B 0
24 *1198:C *315:14 0
25 *1342:D *315:8 2.16833e-05
26 *144:29 *1196:B 4.40899e-05
27 *144:29 *315:14 9.50342e-06
28 *144:44 *1196:B 1.22676e-05
29 *144:44 *315:14 0.000175214
30 *144:44 *315:45 0.0001249
31 *148:8 *1196:B 5.53249e-06
32 *264:16 *1404:A 0
33 *312:29 *1404:A 4.18603e-06
*RES
1 *1342:Q *315:8 4.045 
2 *315:8 *315:14 6.4 
3 *315:14 *1197:A1 1.6 
4 *315:14 *315:23 1.845 
5 *315:23 *1196:B 8.51 
6 *315:23 *1141:C 3.445 
7 *315:8 *315:45 1.485 
8 *315:45 *1404:A 7.49 
9 *315:45 *1194:A 1.6 
*END

*D_NET *316 0.00167982
*CONN
*I *1141:B I *D sky130_fd_sc_hd__or3_1
*I *1197:B1 I *D sky130_fd_sc_hd__a21o_1
*I *1196:A I *D sky130_fd_sc_hd__and3_1
*I *1343:Q O *D sky130_fd_sc_hd__dfxtp_1
*CAP
1 *1141:B 0.000129665
2 *1197:B1 0.000198314
3 *1196:A 0
4 *1343:Q 0.000237004
5 *316:19 0.000397051
6 *316:10 0.000306076
7 *1141:B *1141:A 0
8 *316:10 *1141:A 0
9 *316:19 *1141:A 0
10 *1141:C *1141:B 4.8854e-05
11 *1141:C *1197:B1 4.21973e-05
12 *1196:B *1141:B 2.42236e-05
13 *1196:B *316:10 5.92767e-05
14 *1196:B *316:19 5.7344e-05
15 *144:44 *1141:B 0
16 *148:8 *316:10 0
17 *244:30 *316:10 8.16598e-05
18 *315:23 *1197:B1 9.81565e-05
*RES
1 *1343:Q *316:10 7.32 
2 *316:10 *1196:A 3.6 
3 *316:10 *316:19 1.38 
4 *316:19 *1197:B1 6.825 
5 *316:19 *1141:B 5.52 
*END

*D_NET *317 0.00184221
*CONN
*I *1141:A I *D sky130_fd_sc_hd__or3_1
*I *1199:A I *D sky130_fd_sc_hd__and2_1
*I *1200:A I *D sky130_fd_sc_hd__or2_1
*I *1344:Q O *D sky130_fd_sc_hd__dfxtp_1
*CAP
1 *1141:A 0.000350033
2 *1199:A 0
3 *1200:A 3.91755e-05
4 *1344:Q 0.000277397
5 *317:12 3.91755e-05
6 *317:10 0.00062743
7 *1141:B *1141:A 0
8 *1199:B *1200:A 0.000153708
9 *1201:A_N *1141:A 0
10 *1201:A_N *317:10 0
11 *1201:B *1141:A 4.31106e-05
12 *1201:B *317:10 0.000112123
13 *1203:B *1141:A 0
14 *106:10 *1141:A 8.6076e-05
15 *244:30 *1200:A 0.000113978
16 *316:10 *1141:A 0
17 *316:19 *1141:A 0
*RES
1 *1344:Q *317:10 6.81 
2 *317:10 *317:12 2 
3 *317:12 *1200:A 3.1 
4 *317:12 *1199:A 1.6 
5 *317:10 *1141:A 9.27 
*END

*D_NET *318 0.0019621
*CONN
*I *1140:B I *D sky130_fd_sc_hd__or2_1
*I *1399:A I *D sky130_fd_sc_hd__dlygate4sd3_1
*I *1202:A I *D sky130_fd_sc_hd__or2_1
*I *1345:Q O *D sky130_fd_sc_hd__dfxtp_1
*CAP
1 *1140:B 0.00012886
2 *1399:A 0
3 *1202:A 0.000321446
4 *1345:Q 0
5 *318:23 0.000246309
6 *318:4 0.000438896
7 *1191:A *318:23 5.21046e-05
8 *1192:C1 *1202:A 0.000233875
9 *1192:C1 *318:23 3.23663e-05
10 *1204:B *1202:A 0.000132061
11 *1345:D *1202:A 5.20335e-05
12 *133:14 *1140:B 2.11084e-05
13 *144:8 *1140:B 0.00011964
14 *144:23 *1140:B 3.1835e-05
15 *144:23 *318:23 2.4997e-05
16 *244:22 *1202:A 0.00012657
17 *264:88 *318:23 0
*RES
1 *1345:Q *318:4 1.6 
2 *318:4 *1202:A 8.635 
3 *318:4 *318:23 6.43 
4 *318:23 *1399:A 1.6 
5 *318:23 *1140:B 4.48 
*END

*D_NET *319 0.00302083
*CONN
*I *1162:B I *D sky130_fd_sc_hd__or2_1
*I *1161:B I *D sky130_fd_sc_hd__nand2_1
*I *1167:B I *D sky130_fd_sc_hd__and4_1
*I *1168:A2 I *D sky130_fd_sc_hd__a31o_1
*I *1165:A2 I *D sky130_fd_sc_hd__a21o_1
*I *1164:B I *D sky130_fd_sc_hd__nand3_1
*I *1331:Q O *D sky130_fd_sc_hd__dfxtp_1
*CAP
1 *1162:B 8.54528e-05
2 *1161:B 0
3 *1167:B 0.000149878
4 *1168:A2 7.19184e-05
5 *1165:A2 0
6 *1164:B 2.26636e-05
7 *1331:Q 0.000162076
8 *319:56 0.000208482
9 *319:24 0.000285467
10 *319:16 0.00040497
11 *319:12 0.000353162
12 *319:10 0.000418142
13 *1164:B *320:19 4.77757e-05
14 *1168:A2 *320:27 8.82557e-05
15 *1168:A2 *320:36 3.00381e-05
16 *319:24 *320:27 0.000125495
17 *1161:A *1162:B 4.94457e-05
18 *1163:B *1162:B 1.16854e-05
19 *1165:A1 *1164:B 4.47125e-05
20 *1168:A1 *1167:B 3.83194e-05
21 *1169:B *1168:A2 4.92062e-05
22 *1169:C *319:10 1.22762e-05
23 *1169:C *319:12 5.38916e-05
24 *1169:C *319:16 4.49498e-05
25 *1333:D *319:12 6.74079e-05
26 *264:14 *1164:B 0.000124105
27 *312:45 *1167:B 7.10578e-05
*RES
1 *1331:Q *319:10 5.775 
2 *319:10 *319:12 2.91 
3 *319:12 *319:16 3.38 
4 *319:16 *319:24 8.575 
5 *319:24 *1164:B 2.74 
6 *319:24 *1165:A2 1.6 
7 *319:16 *1168:A2 3.43 
8 *319:12 *1167:B 5.43 
9 *319:10 *319:56 3.83 
10 *319:56 *1161:B 1.6 
11 *319:56 *1162:B 3.1 
*END

*D_NET *320 0.00394672
*CONN
*I *1165:B1 I *D sky130_fd_sc_hd__a21o_1
*I *1147:A2 I *D sky130_fd_sc_hd__o2111a_1
*I *1167:D I *D sky130_fd_sc_hd__and4_1
*I *1168:A3 I *D sky130_fd_sc_hd__a31o_1
*I *1164:C I *D sky130_fd_sc_hd__nand3_1
*I *1332:Q O *D sky130_fd_sc_hd__dfxtp_1
*CAP
1 *1165:B1 0
2 *1147:A2 0.000902619
3 *1167:D 0.000119176
4 *1168:A3 2.08101e-05
5 *1164:C 0
6 *1332:Q 8.60454e-05
7 *320:36 0.00111583
8 *320:27 0.000369376
9 *320:19 0.000329059
10 *320:10 0.00016057
11 *1147:A2 *1139:A1 1.56428e-05
12 *1147:A2 *1139:C1 5.20968e-05
13 *1147:A2 *1147:A1 9.54399e-05
14 *1167:D *321:10 4.66108e-05
15 *320:36 *1168:B1 1.83756e-05
16 *1164:B *320:19 4.77757e-05
17 *1165:A1 *320:19 8.4841e-05
18 *1166:A *320:19 1.20052e-05
19 *1168:A2 *320:27 8.82557e-05
20 *1168:A2 *320:36 3.00381e-05
21 *244:12 *1167:D 0.000160658
22 *264:14 *320:19 6.60042e-05
23 *319:24 *320:27 0.000125495
*RES
1 *1332:Q *320:10 6.725 
2 *320:10 *1164:C 1.6 
3 *320:10 *320:19 1.845 
4 *320:19 *320:27 8.41 
5 *320:27 *1168:A3 1.96 
6 *320:27 *320:36 1.485 
7 *320:36 *1167:D 7.94 
8 *320:36 *1147:A2 18.56 
9 *320:19 *1165:B1 1.6 
*END

*D_NET *321 0.00392497
*CONN
*I *1139:A1 I *D sky130_fd_sc_hd__o211a_1
*I *1147:A1 I *D sky130_fd_sc_hd__o2111a_1
*I *1167:C I *D sky130_fd_sc_hd__and4_1
*I *1168:B1 I *D sky130_fd_sc_hd__a31o_1
*I *1333:Q O *D sky130_fd_sc_hd__dfxtp_1
*CAP
1 *1139:A1 0.000230092
2 *1147:A1 0.000113299
3 *1167:C 0
4 *1168:B1 8.25953e-05
5 *1333:Q 0
6 *321:36 0.000831417
7 *321:10 0.000462319
8 *321:4 0.000867751
9 *1139:A1 *1139:C1 4.82919e-05
10 *1147:A1 *1139:C1 2.45924e-05
11 *1147:A1 *1147:C1 1.70935e-05
12 *1147:A1 *322:10 0
13 *1147:A1 *322:48 0
14 *321:36 *322:10 0
15 *321:36 *322:48 0
16 *1147:A2 *1139:A1 1.56428e-05
17 *1147:A2 *1147:A1 9.54399e-05
18 *1154:A1 *1139:A1 0
19 *1167:D *321:10 4.66108e-05
20 *1168:A1 *1168:B1 9.5433e-05
21 *1172:A *321:10 5.4155e-06
22 *1172:C *321:36 1.83194e-05
23 *1333:CLK *321:10 0.0001249
24 *1333:D *321:10 0.000117643
25 *1392:A *321:10 0.000163204
26 *1392:A *321:36 4.35348e-05
27 *129:21 *321:10 0.000103877
28 *244:12 *1168:B1 9.54469e-05
29 *265:57 *321:36 0.000303673
30 *320:36 *1168:B1 1.83756e-05
*RES
1 *1333:Q *321:4 1.6 
2 *321:4 *321:10 7.38 
3 *321:10 *1168:B1 7.535 
4 *321:10 *1167:C 1.6 
5 *321:4 *321:36 8.75 
6 *321:36 *1147:A1 6 
7 *321:36 *1139:A1 6.825 
*END

*D_NET *322 0.00509665
*CONN
*I *1139:A2 I *D sky130_fd_sc_hd__o211a_1
*I *1152:A2 I *D sky130_fd_sc_hd__o211a_1
*I *1147:C1 I *D sky130_fd_sc_hd__o2111a_1
*I *1171:A I *D sky130_fd_sc_hd__or2_1
*I *1170:A I *D sky130_fd_sc_hd__nand2_1
*I *1173:B I *D sky130_fd_sc_hd__and3_2
*I *1174:A1 I *D sky130_fd_sc_hd__a21o_1
*I *1334:Q O *D sky130_fd_sc_hd__dfxtp_1
*CAP
1 *1139:A2 0
2 *1152:A2 6.79281e-05
3 *1147:C1 0.000113072
4 *1171:A 0.000125335
5 *1170:A 0
6 *1173:B 0
7 *1174:A1 0.000114426
8 *1334:Q 0.000304389
9 *322:48 0.000597268
10 *322:35 0.000492743
11 *322:22 0.000335159
12 *322:20 0.00043983
13 *322:14 0.000242393
14 *322:10 0.000352019
15 *1147:C1 *1139:C1 5.23362e-05
16 *1147:C1 *1152:A1 2.39215e-05
17 *1147:C1 *323:12 0
18 *1147:C1 *323:36 2.75229e-05
19 *1152:A2 *1152:A1 4.45545e-05
20 *1174:A1 *1174:B1 2.84447e-05
21 *322:20 *1152:A1 6.74698e-05
22 *322:20 *323:36 1.91597e-05
23 *322:22 *1174:B1 2.10034e-05
24 *322:22 *323:36 0.000234777
25 *1139:B1 *322:14 0.000187766
26 *1147:A1 *1147:C1 1.70935e-05
27 *1147:A1 *322:10 0
28 *1147:A1 *322:48 0
29 *1152:B1 *1152:A2 4.66108e-05
30 *1152:C1 *1152:A2 7.49327e-05
31 *1152:C1 *322:20 4.82919e-05
32 *1170:B *1171:A 0.000124007
33 *1172:B *322:48 0.000247567
34 *1172:C *1171:A 4.66108e-05
35 *1172:C *322:48 0
36 *1173:C *1174:A1 0.000163204
37 *1287:B1 *322:10 0
38 *1334:D *322:48 1.26548e-05
39 *1385:A *322:10 5.43869e-05
40 *103:51 *1147:C1 0
41 *112:6 *1152:A2 0.000159747
42 *129:25 *322:48 0
43 *244:163 *322:48 1.44259e-05
44 *265:57 *322:10 8.97564e-05
45 *265:57 *322:14 0.000105849
46 *321:36 *322:10 0
47 *321:36 *322:48 0
*RES
1 *1334:Q *322:10 8.505 
2 *322:10 *322:14 4.145 
3 *322:14 *322:20 2.295 
4 *322:20 *322:22 4.245 
5 *322:22 *1174:A1 4.15 
6 *322:22 *322:35 0.36 
7 *322:35 *1173:B 1.6 
8 *322:35 *322:48 12.295 
9 *322:48 *1170:A 1.6 
10 *322:48 *1171:A 4.015 
11 *322:20 *1147:C1 7.52 
12 *322:14 *1152:A2 3.79 
13 *322:10 *1139:A2 3.6 
*END

*D_NET *323 0.00306333
*CONN
*I *1152:A1 I *D sky130_fd_sc_hd__o211a_1
*I *1147:B1 I *D sky130_fd_sc_hd__o2111a_1
*I *1139:C1 I *D sky130_fd_sc_hd__o211a_1
*I *1173:A I *D sky130_fd_sc_hd__and3_2
*I *1174:B1 I *D sky130_fd_sc_hd__a21o_1
*I *1335:Q O *D sky130_fd_sc_hd__dfxtp_1
*CAP
1 *1152:A1 0.000128438
2 *1147:B1 0
3 *1139:C1 0.000108529
4 *1173:A 0
5 *1174:B1 0.000248849
6 *1335:Q 0.000165299
7 *323:36 0.000417072
8 *323:12 0.000594253
9 *1139:A1 *1139:C1 4.82919e-05
10 *1139:B1 *1139:C1 7.97083e-05
11 *1147:A1 *1139:C1 2.45924e-05
12 *1147:A2 *1139:C1 5.20968e-05
13 *1147:C1 *1139:C1 5.23362e-05
14 *1147:C1 *1152:A1 2.39215e-05
15 *1147:C1 *323:12 0
16 *1147:C1 *323:36 2.75229e-05
17 *1147:D1 *1152:A1 0.000310323
18 *1152:A2 *1152:A1 4.45545e-05
19 *1152:B1 *1152:A1 4.66108e-05
20 *1152:C1 *1152:A1 0.000123225
21 *1173:C *1174:B1 0.000164549
22 *1173:C *323:36 1.31519e-05
23 *1174:A1 *1174:B1 2.84447e-05
24 *103:51 *1139:C1 2.97004e-06
25 *112:6 *1152:A1 1.61831e-05
26 *133:8 *323:12 0
27 *322:20 *1152:A1 6.74698e-05
28 *322:20 *323:36 1.91597e-05
29 *322:22 *1174:B1 2.10034e-05
30 *322:22 *323:36 0.000234777
*RES
1 *1335:Q *323:12 7.52 
2 *323:12 *1174:B1 5.995 
3 *323:12 *1173:A 1.6 
4 *323:12 *323:36 4.26 
5 *323:36 *1139:C1 8.45 
6 *323:36 *1147:B1 1.6 
7 *323:36 *1152:A1 6.19 
*END

*D_NET *324 0.00322921
*CONN
*I *1177:A I *D sky130_fd_sc_hd__or2_1
*I *1137:B I *D sky130_fd_sc_hd__and3_1
*I *1176:A I *D sky130_fd_sc_hd__nand2_1
*I *1138:B I *D sky130_fd_sc_hd__and4_1
*I *1182:A2 I *D sky130_fd_sc_hd__a31o_1
*I *1336:Q O *D sky130_fd_sc_hd__dfxtp_1
*CAP
1 *1177:A 0
2 *1137:B 0
3 *1176:A 0.000198819
4 *1138:B 0
5 *1182:A2 0.000124675
6 *1336:Q 6.32809e-05
7 *324:36 0.000454644
8 *324:16 0.000124675
9 *324:14 0.000412945
10 *324:8 0.0002204
11 *1176:A *325:10 8.87273e-05
12 *1176:A *325:19 8.8266e-05
13 *1182:A2 *1137:C 3.66286e-05
14 *1182:A2 *1138:D 0.000161529
15 *1182:A2 *1182:A1 2.16833e-05
16 *1182:A2 *1182:B1 0.000161529
17 *1182:A2 *326:19 3.74161e-05
18 *324:14 *326:10 4.94326e-05
19 *324:36 *325:19 3.90495e-05
20 *324:36 *326:10 1.07797e-05
21 *1176:B *324:8 4.43682e-05
22 *1176:B *324:14 7.66083e-05
23 *1179:B *1176:A 4.82919e-05
24 *102:10 *1182:A2 1.61831e-05
25 *102:10 *324:36 0.000201508
26 *133:56 *324:14 0.000278117
27 *265:20 *324:8 0.000124007
28 *265:20 *324:14 0.000145648
*RES
1 *1336:Q *324:8 3.355 
2 *324:8 *324:14 6.845 
3 *324:14 *324:16 2 
4 *324:16 *1182:A2 4.825 
5 *324:16 *1138:B 1.6 
6 *324:14 *324:36 5.645 
7 *324:36 *1176:A 5.44 
8 *324:36 *1137:B 1.6 
9 *324:8 *1177:A 1.6 
*END

*D_NET *325 0.00348387
*CONN
*I *1179:A I *D sky130_fd_sc_hd__xnor2_1
*I *1138:A I *D sky130_fd_sc_hd__and4_1
*I *1182:A1 I *D sky130_fd_sc_hd__a31o_1
*I *1137:A I *D sky130_fd_sc_hd__and3_1
*I *1337:Q O *D sky130_fd_sc_hd__dfxtp_1
*CAP
1 *1179:A 2.08101e-05
2 *1138:A 0
3 *1182:A1 6.00746e-05
4 *1137:A 0
5 *1337:Q 0.000526418
6 *325:19 0.000149589
7 *325:10 0.000453955
8 *325:8 0.000911669
9 *1182:A1 *1137:C 0.000124007
10 *1182:A1 *1182:B1 0.000161529
11 *1182:A1 *326:19 4.82919e-05
12 *325:19 *1137:C 0.000122411
13 *1176:A *325:10 8.87273e-05
14 *1176:A *325:19 8.8266e-05
15 *1179:B *325:10 0.000146622
16 *1182:A2 *1182:A1 2.16833e-05
17 *1337:CLK *325:8 2.75229e-05
18 *1337:D *325:8 1.54049e-05
19 *102:10 *1182:A1 0.000351268
20 *102:10 *325:19 0.00012657
21 *324:36 *325:19 3.90495e-05
*RES
1 *1337:Q *325:8 8.965 
2 *325:8 *325:10 6.315 
3 *325:10 *1137:A 1.6 
4 *325:10 *325:19 3.135 
5 *325:19 *1182:A1 4.81 
6 *325:19 *1138:A 1.6 
7 *325:8 *1179:A 1.96 
*END

*D_NET *326 0.00125323
*CONN
*I *1137:C I *D sky130_fd_sc_hd__and3_1
*I *1138:C I *D sky130_fd_sc_hd__and4_1
*I *1182:B1 I *D sky130_fd_sc_hd__a31o_1
*I *1338:Q O *D sky130_fd_sc_hd__dfxtp_1
*CAP
1 *1137:C 0.000140817
2 *1138:C 0
3 *1182:B1 2.70043e-05
4 *1338:Q 7.4654e-05
5 *326:19 0.000148943
6 *326:10 0.000109784
7 *1182:A1 *1137:C 0.000124007
8 *1182:A1 *1182:B1 0.000161529
9 *1182:A1 *326:19 4.82919e-05
10 *1182:A2 *1137:C 3.66286e-05
11 *1182:A2 *1182:B1 0.000161529
12 *1182:A2 *326:19 3.74161e-05
13 *133:56 *326:10 0
14 *324:14 *326:10 4.94326e-05
15 *324:36 *326:10 1.07797e-05
16 *325:19 *1137:C 0.000122411
*RES
1 *1338:Q *326:10 6.98 
2 *326:10 *1182:B1 3.085 
3 *326:10 *326:19 0.45 
4 *326:19 *1138:C 1.6 
5 *326:19 *1137:C 4.81 
*END

*D_NET *327 0.00344152
*CONN
*I *1148:A I *D sky130_fd_sc_hd__or3_1
*I *1155:A1 I *D sky130_fd_sc_hd__o31ai_1
*I *1184:B1 I *D sky130_fd_sc_hd__a21o_1
*I *1138:D I *D sky130_fd_sc_hd__and4_1
*I *1339:Q O *D sky130_fd_sc_hd__dfxtp_1
*CAP
1 *1148:A 0.00015413
2 *1155:A1 0.000217673
3 *1184:B1 0.000306507
4 *1138:D 0.000277815
5 *1339:Q 0
6 *327:32 0.000642416
7 *327:8 0.000686728
8 *327:6 0.000373018
9 *1147:D1 *1155:A1 1.08758e-05
10 *1148:C *1148:A 0.000136884
11 *1155:B1 *1148:A 0
12 *1155:B1 *1155:A1 0.000239807
13 *1182:A2 *1138:D 0.000161529
14 *1184:A2 *1184:B1 8.57751e-05
15 *108:14 *1155:A1 4.15527e-05
16 *108:25 *1155:A1 7.35933e-05
17 *122:12 *1148:A 0
18 *133:56 *1138:D 2.24336e-05
19 *245:25 *1148:A 1.07797e-05
20 *245:31 *1148:A 0
21 *245:31 *327:32 0
22 *269:53 *1148:A 0
*RES
1 *1339:Q *327:6 3.6 
2 *327:6 *327:8 1.635 
3 *327:8 *1138:D 7.74 
4 *327:8 *1184:B1 8.55 
5 *327:6 *327:32 4.44 
6 *327:32 *1155:A1 7.86 
7 *327:32 *1148:A 6.555 
*END

*D_NET *328 0.00354266
*CONN
*I *1402:A I *D sky130_fd_sc_hd__dlygate4sd3_1
*I *1282:B I *D sky130_fd_sc_hd__or3_1
*I *1316:A1 I *D sky130_fd_sc_hd__o31a_1
*I *1135:B I *D sky130_fd_sc_hd__nor2_1
*I *1136:B I *D sky130_fd_sc_hd__or3_2
*I *1374:Q O *D sky130_fd_sc_hd__dfxtp_1
*CAP
1 *1402:A 0.000156086
2 *1282:B 0
3 *1316:A1 0.000135617
4 *1135:B 0.000117476
5 *1136:B 8.06527e-05
6 *1374:Q 0
7 *328:34 0.000320872
8 *328:10 0.000360005
9 *328:8 0.000380996
10 *328:4 0.00018995
11 *1135:B *1135:A 4.82863e-05
12 *1136:B *1136:A 0.000141599
13 *1136:B *329:10 2.92496e-05
14 *328:10 *329:10 0.000372805
15 *328:34 *1282:A 0.000183043
16 *328:34 *329:10 0.000178255
17 *328:34 *329:30 0.000116853
18 *1283:B *328:34 2.96383e-05
19 *1316:A3 *1316:A1 0.00010068
20 *1329:A2 *328:34 4.18603e-06
21 *1374:D *1402:A 2.05056e-05
22 *1374:D *328:10 5.42473e-05
23 *1406:A *1316:A1 3.00381e-05
24 *87:64 *1402:A 1.78384e-05
25 *100:6 *1135:B 3.00381e-05
26 *206:12 *328:34 7.63883e-05
27 *247:88 *328:34 0.000188217
28 *247:96 *1402:A 3.66286e-05
29 *247:96 *328:8 4.82919e-05
30 *247:96 *328:10 1.52184e-05
31 *247:96 *328:34 6.55328e-05
32 *250:35 *1136:B 0
33 *250:35 *328:10 0
34 *259:8 *1316:A1 1.34594e-05
*RES
1 *1374:Q *328:4 1.6 
2 *328:4 *328:8 2.45 
3 *328:8 *328:10 4.44 
4 *328:10 *1136:B 5.49 
5 *328:10 *1135:B 5.445 
6 *328:8 *328:34 8.225 
7 *328:34 *1316:A1 4.405 
8 *328:34 *1282:B 1.6 
9 *328:4 *1402:A 3.805 
*END

*D_NET *329 0.00404433
*CONN
*I *1282:A I *D sky130_fd_sc_hd__or3_1
*I *1412:A I *D sky130_fd_sc_hd__dlygate4sd3_1
*I *1135:A I *D sky130_fd_sc_hd__nor2_1
*I *1136:A I *D sky130_fd_sc_hd__or3_2
*I *1375:Q O *D sky130_fd_sc_hd__dfxtp_1
*CAP
1 *1282:A 9.61204e-05
2 *1412:A 0.000254731
3 *1135:A 2.12116e-05
4 *1136:A 0.000108448
5 *1375:Q 0.000591422
6 *329:30 0.000413414
7 *329:10 0.000415842
8 *329:8 0.000940167
9 *1135:B *1135:A 4.82863e-05
10 *1136:B *1136:A 0.000141599
11 *1136:B *329:10 2.92496e-05
12 *1283:B *1282:A 4.43871e-06
13 *1346:CLK *1136:A 4.18603e-06
14 *1375:D *329:8 5.22443e-05
15 *250:35 *1136:A 0
16 *250:35 *1282:A 0
17 *250:35 *1412:A 7.20129e-05
18 *328:10 *329:10 0.000372805
19 *328:34 *1282:A 0.000183043
20 *328:34 *329:10 0.000178255
21 *328:34 *329:30 0.000116853
*RES
1 *1375:Q *329:8 9.915 
2 *329:8 *329:10 6.735 
3 *329:10 *1136:A 6 
4 *329:10 *1135:A 4.05 
5 *329:8 *329:30 1.38 
6 *329:30 *1412:A 7.5 
7 *329:30 *1282:A 5.745 
*END

*D_NET *330 0.006364
*CONN
*I *1324:A I *D sky130_fd_sc_hd__or4_1
*I *1304:A I *D sky130_fd_sc_hd__or4_1
*I *1115:A I *D sky130_fd_sc_hd__inv_2
*I *1216:B1 I *D sky130_fd_sc_hd__o21ai_1
*I *1214:A2 I *D sky130_fd_sc_hd__a21boi_1
*I *1217:A1 I *D sky130_fd_sc_hd__o211a_1
*I *1215:B1 I *D sky130_fd_sc_hd__o21a_1
*I *1352:Q O *D sky130_fd_sc_hd__dfxtp_1
*CAP
1 *1324:A 0.00035896
2 *1304:A 3.55506e-05
3 *1115:A 3.2968e-05
4 *1216:B1 0
5 *1214:A2 0.000307044
6 *1217:A1 0
7 *1215:B1 0.000159031
8 *1352:Q 0.000276611
9 *330:73 0.000676441
10 *330:58 0.000711722
11 *330:31 0.000432453
12 *330:23 0.000162472
13 *330:8 0.000359731
14 *330:6 0.000837072
15 *1214:A2 *1214:A1 2.75145e-05
16 *1213:A2 *1115:A 0.00016063
17 *1213:A2 *330:73 0
18 *1214:B1_N *1214:A2 8.40213e-05
19 *1215:A2 *330:58 0
20 *1217:A2 *1214:A2 8.80977e-05
21 *1217:B1 *1214:A2 4.66108e-05
22 *1217:C1 *1215:B1 1.33293e-05
23 *1218:B1 *330:23 0
24 *1292:A2 *330:73 6.28843e-05
25 *1297:B *330:58 0
26 *1304:C *1324:A 4.47125e-05
27 *1304:D *1324:A 4.66108e-05
28 *1309:B1 *330:73 7.23533e-05
29 *1325:B2 *1324:A 0
30 *1328:A2 *1324:A 0
31 *1352:CLK *330:6 0.000266453
32 *1352:CLK *330:8 0.000164874
33 *1352:CLK *330:23 1.85674e-05
34 *1352:D *330:31 4.91189e-05
35 *91:10 *330:73 0
36 *91:12 *330:73 0
37 *91:16 *330:73 0
38 *156:10 *1115:A 2.30292e-05
39 *156:10 *1215:B1 0.000120186
40 *157:21 *1215:B1 3.03775e-05
41 *157:21 *330:23 1.85674e-05
42 *222:10 *330:58 0
43 *222:10 *330:73 0
44 *245:119 *330:6 0.000160641
45 *254:14 *1324:A 0.000134314
46 *254:27 *1304:A 0
47 *255:10 *1115:A 0.000192977
48 *255:30 *330:58 0
49 *255:32 *330:58 0
50 *260:38 *330:31 6.95505e-05
51 *260:47 *1215:B1 0.00011852
52 *260:47 *330:58 0
*RES
1 *1352:Q *330:6 5.5 
2 *330:6 *330:8 2.175 
3 *330:8 *1215:B1 8.465 
4 *330:8 *330:23 0.87 
5 *330:23 *330:31 6.595 
6 *330:31 *1217:A1 1.6 
7 *330:31 *1214:A2 6.91 
8 *330:23 *1216:B1 1.6 
9 *330:6 *330:58 7.91 
10 *330:58 *1115:A 5.43 
11 *330:58 *330:73 6.125 
12 *330:73 *1304:A 2.215 
13 *330:73 *1324:A 10.535 
*END

*D_NET *331 0.00182897
*CONN
*I *1289:A I *D sky130_fd_sc_hd__or2_1
*I *1411:A I *D sky130_fd_sc_hd__dlygate4sd3_1
*I *1214:A1 I *D sky130_fd_sc_hd__a21boi_1
*I *1353:Q O *D sky130_fd_sc_hd__dfxtp_1
*CAP
1 *1289:A 0.000237949
2 *1411:A 0.000148182
3 *1214:A1 0.00037335
4 *1353:Q 3.58834e-05
5 *331:21 0.000477732
6 *331:8 0.000500834
7 *1214:A2 *1214:A1 2.75145e-05
8 *1287:B1 *1214:A1 0
9 *1287:B1 *1289:A 0
10 *1287:B1 *331:21 0
11 *1353:D *331:8 2.75229e-05
*RES
1 *1353:Q *331:8 4.05 
2 *331:8 *1214:A1 9.285 
3 *331:8 *331:21 1.38 
4 *331:21 *1411:A 5.775 
5 *331:21 *1289:A 7.53 
*END

*D_NET *332 0.00187782
*CONN
*I *1222:A2 I *D sky130_fd_sc_hd__o22ai_1
*I *1223:A2 I *D sky130_fd_sc_hd__a2111o_1
*I *1347:Q O *D sky130_fd_sc_hd__dfxtp_1
*CAP
1 *1222:A2 0
2 *1223:A2 6.55463e-05
3 *1347:Q 0.00058887
4 *332:10 0.000654416
5 *1223:A2 *333:10 2.97561e-05
6 *1207:A *1223:A2 4.99619e-05
7 *1207:A *332:10 7.66159e-05
8 *1207:B *1223:A2 0
9 *1223:D1 *1223:A2 0.0001249
10 *1347:CLK *332:10 0.000101375
11 *1347:D *332:10 1.34594e-05
12 *82:40 *1223:A2 0.0001249
13 *247:151 *332:10 4.80182e-05
*RES
1 *1347:Q *332:10 9.415 
2 *332:10 *1223:A2 7.7 
3 *332:10 *1222:A2 1.6 
*END

*D_NET *333 0.00167254
*CONN
*I *1222:B1 I *D sky130_fd_sc_hd__o22ai_1
*I *1219:A2 I *D sky130_fd_sc_hd__a22o_1
*I *1348:Q O *D sky130_fd_sc_hd__dfxtp_1
*CAP
1 *1222:B1 2.849e-05
2 *1219:A2 0.000381791
3 *1348:Q 0.00010732
4 *333:10 0.000517602
5 *1219:A2 *1116:A 0.000136104
6 *1207:B *333:10 0
7 *1223:A1 *1222:B1 8.8266e-05
8 *1223:A2 *333:10 2.97561e-05
9 *1223:B1 *333:10 3.09233e-05
10 *1224:C1 *1219:A2 2.12652e-05
11 *1348:D *333:10 0
12 *82:40 *1219:A2 0.000257443
13 *82:40 *1222:B1 7.35813e-05
*RES
1 *1348:Q *333:10 7.49 
2 *333:10 *1219:A2 7.96 
3 *333:10 *1222:B1 2.74 
*END

*D_NET *334 0.00171501
*CONN
*I *1224:A2 I *D sky130_fd_sc_hd__a211o_1
*I *1220:A2 I *D sky130_fd_sc_hd__o22ai_1
*I *1349:Q O *D sky130_fd_sc_hd__dfxtp_1
*CAP
1 *1224:A2 3.18955e-05
2 *1220:A2 0.000125925
3 *1349:Q 0.000367507
4 *334:10 0.000525327
5 *1220:A2 *341:56 0
6 *1208:A *1224:A2 8.65961e-05
7 *1208:A *334:10 0.00022257
8 *1208:B *334:10 2.30292e-05
9 *1219:B2 *1220:A2 0
10 *1349:D *334:10 8.8266e-05
11 *80:55 *1220:A2 0
12 *81:62 *1220:A2 0
13 *81:81 *1220:A2 4.49498e-05
14 *250:66 *1220:A2 0
15 *250:66 *334:10 0.000198939
*RES
1 *1349:Q *334:10 7.6 
2 *334:10 *1220:A2 7.745 
3 *334:10 *1224:A2 2.395 
*END

*D_NET *335 0.000988477
*CONN
*I *1219:B1 I *D sky130_fd_sc_hd__a22o_1
*I *1116:A I *D sky130_fd_sc_hd__inv_2
*I *1350:Q O *D sky130_fd_sc_hd__dfxtp_1
*CAP
1 *1219:B1 0
2 *1116:A 3.3165e-05
3 *1350:Q 0.000294697
4 *335:12 0.000327862
5 *1219:A2 *1116:A 0.000136104
6 *1219:B2 *335:12 3.86529e-05
7 *82:40 *1116:A 0.000108785
8 *287:10 *335:12 4.92096e-05
*RES
1 *1350:Q *335:12 9.41 
2 *335:12 *1116:A 3.46 
3 *335:12 *1219:B1 1.6 
*END

*D_NET *336 0.000627797
*CONN
*I *1117:A I *D sky130_fd_sc_hd__inv_2
*I *1351:Q O *D sky130_fd_sc_hd__dfxtp_1
*CAP
1 *1117:A 0.000313899
2 *1351:Q 0.000313899
3 *86:12 *1117:A 0
*RES
1 *1351:Q *1117:A 12.105 
*END

*D_NET *337 0.00888158
*CONN
*I *1110:A I *D sky130_fd_sc_hd__inv_2
*I *1121:B I *D sky130_fd_sc_hd__nor3_1
*I *1122:B I *D sky130_fd_sc_hd__or3_1
*I *1279:B1 I *D sky130_fd_sc_hd__a31o_1
*I *1128:A I *D sky130_fd_sc_hd__or3_1
*I *1401:A I *D sky130_fd_sc_hd__dlygate4sd3_1
*I *1325:A1_N I *D sky130_fd_sc_hd__a2bb2o_1
*I *1326:A1 I *D sky130_fd_sc_hd__o211ai_1
*I *1380:Q O *D sky130_fd_sc_hd__dfxtp_2
*CAP
1 *1110:A 8.28291e-05
2 *1121:B 0.000131479
3 *1122:B 0.000333791
4 *1279:B1 0.000112928
5 *1128:A 2.37409e-05
6 *1401:A 0.000144087
7 *1325:A1_N 0
8 *1326:A1 0.000227956
9 *1380:Q 0.000401212
10 *337:77 0.000773528
11 *337:73 0.000549048
12 *337:60 0.000351409
13 *337:49 0.000123142
14 *337:34 0.000528604
15 *337:21 0.000456206
16 *337:10 0.000719738
17 *1110:A *341:37 8.40269e-05
18 *1121:B *341:43 5.05437e-05
19 *337:34 *1128:B 2.75229e-05
20 *337:34 *1281:A1 5.23362e-05
21 *337:34 *339:32 8.40269e-05
22 *337:34 *340:37 2.49909e-05
23 *1129:B *337:77 0.000119654
24 *1130:A1 *1401:A 0.000157343
25 *1130:A2 *1401:A 0.000352161
26 *1212:B *1401:A 0.000124007
27 *1212:B *337:60 7.44453e-05
28 *1212:B *337:73 1.52184e-05
29 *1277:B *1110:A 7.06865e-05
30 *1279:A3 *1128:A 7.00889e-06
31 *1279:A3 *1279:B1 4.82919e-05
32 *1279:A3 *337:34 2.32597e-05
33 *1279:A3 *337:60 5.02217e-05
34 *1279:A3 *337:73 1.07797e-05
35 *1280:A1 *1122:B 9.02174e-05
36 *1280:B1 *1121:B 2.67022e-05
37 *1281:B2 *1279:B1 0
38 *1281:C1 *1122:B 0.00023468
39 *1281:C1 *337:77 7.49327e-05
40 *1290:A *337:34 0
41 *1325:A2_N *337:21 9.50342e-06
42 *1325:A2_N *337:34 0.000320834
43 *1325:B1 *337:34 0
44 *1327:B1 *1326:A1 0.00022957
45 *1327:B1 *337:21 0
46 *1328:A2 *337:10 0
47 *1328:A2 *337:21 0
48 *1380:CLK *1326:A1 0.000123225
49 *1380:CLK *337:10 4.11194e-05
50 *90:10 *1122:B 7.92464e-06
51 *93:10 *337:34 0
52 *94:8 *1128:A 1.08758e-05
53 *94:8 *1401:A 2.32597e-05
54 *154:10 *1110:A 3.23391e-05
55 *154:10 *337:73 0.00023405
56 *155:16 *1326:A1 0.000324762
57 *247:84 *1279:B1 6.1357e-05
58 *254:12 *337:10 0.000169117
59 *259:25 *337:34 6.52181e-05
60 *269:94 *1110:A 0.000130266
61 *269:94 *337:10 4.62478e-05
62 *269:94 *337:21 6.02447e-05
63 *269:94 *337:34 3.90097e-05
64 *269:94 *337:60 1.94636e-05
65 *269:94 *337:73 0.000170434
*RES
1 *1380:Q *337:10 9.48 
2 *337:10 *1326:A1 9.915 
3 *337:10 *337:21 1.89 
4 *337:21 *1325:A1_N 3.6 
5 *337:21 *337:34 10.4 
6 *337:34 *1401:A 6.67 
7 *337:34 *337:49 0.36 
8 *337:49 *1128:A 2.395 
9 *337:49 *337:60 3.635 
10 *337:60 *1279:B1 5.445 
11 *337:60 *337:73 5.205 
12 *337:73 *337:77 5.9 
13 *337:77 *1122:B 5.845 
14 *337:77 *1121:B 7.625 
15 *337:73 *1110:A 6.03 
*END

*D_NET *338 0.00258329
*CONN
*I *1122:C I *D sky130_fd_sc_hd__or3_1
*I *1277:C I *D sky130_fd_sc_hd__or3_1
*I *1211:B I *D sky130_fd_sc_hd__nand2b_1
*I *1121:C I *D sky130_fd_sc_hd__nor3_1
*I *1403:A I *D sky130_fd_sc_hd__dlygate4sd3_1
*I *1370:Q O *D sky130_fd_sc_hd__dfxtp_1
*CAP
1 *1122:C 0
2 *1277:C 0.000109658
3 *1211:B 6.16485e-06
4 *1121:C 0
5 *1403:A 0
6 *1370:Q 0.000155437
7 *338:32 0.000234612
8 *338:23 0.000250188
9 *338:16 0.000301624
10 *338:8 0.000325661
11 *1211:B *1211:A_N 4.59896e-06
12 *1211:B *341:39 1.7903e-05
13 *1277:C *341:37 4.99619e-05
14 *1277:C *341:39 0.000234127
15 *338:16 *1122:A 0.000103192
16 *338:16 *340:14 0
17 *338:16 *341:43 4.82919e-05
18 *338:16 *341:56 1.1561e-05
19 *338:23 *341:43 0.000298737
20 *338:32 *1211:A_N 5.39673e-05
21 *338:32 *341:39 2.37802e-05
22 *338:32 *341:43 6.20787e-05
23 *1280:A1 *338:8 0.000107704
24 *80:14 *338:8 6.6925e-05
25 *80:18 *338:16 3.05238e-05
26 *269:94 *1277:C 8.65961e-05
*RES
1 *1370:Q *338:8 4.735 
2 *338:8 *338:16 7.54 
3 *338:16 *1403:A 1.6 
4 *338:16 *338:23 2.865 
5 *338:23 *1121:C 1.6 
6 *338:23 *338:32 2.3625 
7 *338:32 *1211:B 2.12125 
8 *338:32 *1277:C 4.7575 
9 *338:8 *1122:C 1.6 
*END

*D_NET *339 0.00538415
*CONN
*I *1127:B I *D sky130_fd_sc_hd__or3_1
*I *1308:B I *D sky130_fd_sc_hd__or4_1
*I *1128:C I *D sky130_fd_sc_hd__or3_1
*I *1281:A2 I *D sky130_fd_sc_hd__a221o_1
*I *1278:B I *D sky130_fd_sc_hd__xnor2_1
*I *1112:A I *D sky130_fd_sc_hd__inv_2
*I *1371:Q O *D sky130_fd_sc_hd__dfxtp_1
*CAP
1 *1127:B 0.000115504
2 *1308:B 0
3 *1128:C 0
4 *1281:A2 6.60415e-05
5 *1278:B 1.31277e-05
6 *1112:A 0
7 *1371:Q 0.000172465
8 *339:56 0.000628319
9 *339:32 0.000128947
10 *339:23 0.000629731
11 *339:12 0.000661049
12 *339:8 0.000792631
13 *1278:B *340:37 3.26889e-05
14 *1281:A2 *1281:A1 0.000136884
15 *339:12 *340:22 0
16 *339:23 *340:22 0.000182343
17 *339:23 *340:33 0.000240528
18 *339:23 *340:37 9.27255e-06
19 *339:32 *340:37 3.09088e-05
20 *339:56 *340:14 4.13171e-05
21 *339:56 *340:22 0
22 *1123:C *339:23 0.00015896
23 *1279:A3 *339:32 2.49909e-05
24 *1281:B1 *1281:A2 5.53249e-06
25 *1281:B2 *1281:A2 1.2818e-05
26 *1290:A *1281:A2 0
27 *1300:A_N *1127:B 0.00010978
28 *1300:A_N *339:56 0.000276441
29 *1300:C *339:23 0.000124007
30 *1305:A1 *339:23 1.33293e-05
31 *1387:A *339:8 2.49909e-05
32 *1391:A *339:56 0
33 *81:31 *339:23 8.5841e-05
34 *81:38 *339:23 2.26018e-05
35 *91:10 *339:23 4.82863e-05
36 *202:25 *1127:B 4.66108e-05
37 *243:36 *339:12 0
38 *243:36 *339:56 0
39 *247:8 *339:8 7.67345e-05
40 *247:8 *339:56 0.0002187
41 *247:27 *339:56 0
42 *247:84 *1281:A2 1.2818e-05
43 *269:94 *1281:A2 0.000155928
44 *337:34 *339:32 8.40269e-05
*RES
1 *1371:Q *339:8 5.775 
2 *339:8 *339:12 3.38 
3 *339:12 *1112:A 1.6 
4 *339:12 *339:23 10.83 
5 *339:23 *1278:B 1.96 
6 *339:23 *339:32 1.485 
7 *339:32 *1281:A2 7.61375 
8 *339:32 *1128:C 1.6 
9 *339:8 *339:56 9.35 
10 *339:56 *1308:B 1.6 
11 *339:56 *1127:B 3.085 
*END

*D_NET *340 0.00718765
*CONN
*I *1221:A1 I *D sky130_fd_sc_hd__a221o_1
*I *1111:A I *D sky130_fd_sc_hd__inv_2
*I *1308:A I *D sky130_fd_sc_hd__or4_1
*I *1278:A I *D sky130_fd_sc_hd__xnor2_1
*I *1128:B I *D sky130_fd_sc_hd__or3_1
*I *1281:A1 I *D sky130_fd_sc_hd__a221o_1
*I *1123:A I *D sky130_fd_sc_hd__or3_2
*I *1372:Q O *D sky130_fd_sc_hd__dfxtp_1
*CAP
1 *1221:A1 0.00059399
2 *1111:A 0
3 *1308:A 6.63617e-05
4 *1278:A 0
5 *1128:B 2.82574e-05
6 *1281:A1 9.97294e-05
7 *1123:A 0
8 *1372:Q 0.000237755
9 *340:69 0.000651751
10 *340:37 0.000277135
11 *340:33 0.0003583
12 *340:22 0.000385724
13 *340:14 0.000706257
14 *340:8 0.000758841
15 *1221:A1 *1220:B2 4.60584e-05
16 *1123:C *340:33 0.000160635
17 *1127:A *1308:A 0.000312176
18 *1220:A1 *1221:A1 1.67738e-05
19 *1220:B1 *1221:A1 0.000252214
20 *1278:B *340:37 3.26889e-05
21 *1281:A2 *1281:A1 0.000136884
22 *1290:A *1281:A1 0
23 *1300:A_N *340:22 2.34345e-05
24 *1300:C *340:22 9.54399e-05
25 *80:14 *1221:A1 6.75724e-05
26 *80:14 *340:14 0.000186092
27 *80:14 *340:69 0.000109989
28 *80:18 *340:14 0
29 *80:18 *340:22 2.14129e-05
30 *80:55 *1221:A1 7.23602e-05
31 *81:38 *340:22 0.000164352
32 *81:49 *340:22 2.75145e-05
33 *81:49 *340:33 1.91597e-05
34 *86:12 *1221:A1 1.17409e-05
35 *91:10 *340:22 0
36 *247:8 *1308:A 0.000234674
37 *247:8 *340:14 0.000238137
38 *247:27 *340:14 0
39 *247:84 *1308:A 0.000113237
40 *250:66 *1221:A1 3.67779e-05
41 *269:94 *1281:A1 3.50033e-05
42 *337:34 *1128:B 2.75229e-05
43 *337:34 *1281:A1 5.23362e-05
44 *337:34 *340:37 2.49909e-05
45 *338:16 *340:14 0
46 *339:12 *340:22 0
47 *339:23 *340:22 0.000182343
48 *339:23 *340:33 0.000240528
49 *339:23 *340:37 9.27255e-06
50 *339:32 *340:37 3.09088e-05
51 *339:56 *340:14 4.13171e-05
52 *339:56 *340:22 0
*RES
1 *1372:Q *340:8 6.12 
2 *340:8 *340:14 11.165 
3 *340:14 *340:22 9.01 
4 *340:22 *1123:A 1.6 
5 *340:22 *340:33 4.71 
6 *340:33 *340:37 2.355 
7 *340:37 *1281:A1 8 
8 *340:37 *1128:B 2.05 
9 *340:33 *1278:A 1.6 
10 *340:14 *1308:A 4.81 
11 *340:8 *340:69 1.38 
12 *340:69 *1111:A 3.6 
13 *340:69 *1221:A1 12.075 
*END

*D_NET *341 0.00621887
*CONN
*I *1210:A I *D sky130_fd_sc_hd__and2_1
*I *1329:A1 I *D sky130_fd_sc_hd__o21a_1
*I *1277:A I *D sky130_fd_sc_hd__or3_1
*I *1211:A_N I *D sky130_fd_sc_hd__nand2b_1
*I *1121:A I *D sky130_fd_sc_hd__nor3_1
*I *1221:B2 I *D sky130_fd_sc_hd__a221o_1
*I *1220:B2 I *D sky130_fd_sc_hd__o22ai_1
*I *1122:A I *D sky130_fd_sc_hd__or3_1
*I *1129:A I *D sky130_fd_sc_hd__nand2_1
*I *1381:Q O *D sky130_fd_sc_hd__dfxtp_1
*CAP
1 *1210:A 0.000124448
2 *1329:A1 0
3 *1277:A 0
4 *1211:A_N 2.01872e-05
5 *1121:A 0
6 *1221:B2 2.8904e-05
7 *1220:B2 2.24356e-05
8 *1122:A 6.92088e-05
9 *1129:A 4.47326e-05
10 *1381:Q 0
11 *341:56 0.000252033
12 *341:43 0.000456121
13 *341:39 0.000301297
14 *341:37 0.000207377
15 *341:22 0.000502148
16 *341:12 0.000628973
17 *341:4 0.000408492
18 fsm_error *1210:A 0
19 *1110:A *341:37 8.40269e-05
20 *1118:A *1210:A 2.75229e-05
21 *1121:B *341:43 5.05437e-05
22 *1206:A *341:22 0.000102737
23 *1206:A *341:37 7.54567e-05
24 *1210:B *1210:A 5.4003e-05
25 *1211:B *1211:A_N 4.59896e-06
26 *1211:B *341:39 1.7903e-05
27 *1220:A1 *1220:B2 2.0053e-05
28 *1220:A1 *1221:B2 0
29 *1220:A2 *341:56 0
30 *1220:B1 *1220:B2 4.82863e-05
31 *1220:B1 *1221:B2 9.4538e-05
32 *1221:A1 *1220:B2 4.60584e-05
33 *1221:C1 *1220:B2 7.74308e-05
34 *1221:C1 *1221:B2 4.82919e-05
35 *1277:B *341:37 1.07797e-05
36 *1277:C *341:37 4.99619e-05
37 *1277:C *341:39 0.000234127
38 *1329:A2 *341:22 7.35813e-05
39 *1329:B1 *341:22 0.000124895
40 *1381:CLK *341:12 5.83121e-06
41 *1381:D *341:12 0
42 *1433:A *1210:A 0
43 *81:49 *1122:A 4.18603e-06
44 *81:62 *1122:A 6.7449e-05
45 *81:62 *1221:B2 1.8517e-05
46 *81:62 *341:56 0.000139067
47 *87:8 *1210:A 2.75229e-05
48 *87:12 *1210:A 0.000186092
49 *95:10 *1129:A 4.66742e-05
50 *95:10 *341:22 0.000141592
51 *154:10 *341:22 3.32246e-05
52 *154:10 *341:37 0.000300891
53 *154:10 *341:39 0.000162311
54 *247:123 *341:12 0.000137571
55 *250:50 *341:12 0
56 *250:66 *341:56 0
57 *269:94 *341:37 3.518e-05
58 *338:16 *1122:A 0.000103192
59 *338:16 *341:43 4.82919e-05
60 *338:16 *341:56 1.1561e-05
61 *338:23 *341:43 0.000298737
62 *338:32 *1211:A_N 5.39673e-05
63 *338:32 *341:39 2.37802e-05
64 *338:32 *341:43 6.20787e-05
*RES
1 *1381:Q *341:4 1.6 
2 *341:4 *341:12 7.81 
3 *341:12 *341:22 9.29 
4 *341:22 *1129:A 4.395 
5 *341:22 *341:37 5.975 
6 *341:37 *341:39 3.21 
7 *341:39 *341:43 6.245 
8 *341:43 *1122:A 5.745 
9 *341:43 *341:56 6.185 
10 *341:56 *1220:B2 2.74 
11 *341:56 *1221:B2 2.86375 
12 *341:39 *1121:A 1.6 
13 *341:39 *1211:A_N 2.41 
14 *341:37 *1277:A 1.6 
15 *341:12 *1329:A1 1.6 
16 *341:4 *1210:A 8.705 
*END
