*SPEF "ieee 1481-1999"
*DESIGN "caravel_secure_boot"
*DATE "03:49:51 Friday February 20, 2026"
*VENDOR "The OpenROAD Project"
*PROGRAM "OpenROAD"
*VERSION "edf00dff99f6c40d67a30c0e22a8191c5d2ed9d6"
*DESIGN_FLOW "NAME_SCOPE LOCAL" "PIN_CAP NONE"
*DIVIDER /
*DELIMITER :
*BUS_DELIMITER []
*T_UNIT 1 NS
*C_UNIT 1 PF
*R_UNIT 1 OHM
*L_UNIT 1 HENRY

*NAME_MAP
*3 clk
*4 clock_glitch
*5 cold_reset_req
*6 debug_enable
*7 file_denied
*8 fsm_error
*9 fw_fail
*10 fw_ok
*11 global_pin_ok
*12 group_autolock
*13 group_error
*14 group_suspended
*15 group_unlocked
*16 hdr_parse_fail
*17 illegal_in
*18 power_glitch
*19 reset
*20 safe_led
*21 security_breach
*22 size_mismatch
*23 tamper_in
*24 unlock_enable
*25 unlock_req
*26 warm_reset_req
*27 _000_
*28 _001_
*29 _002_
*30 _003_
*31 _004_
*32 _005_
*33 _006_
*34 _007_
*35 _008_
*36 _009_
*37 _010_
*38 _011_
*39 _012_
*40 _013_
*41 _014_
*42 _015_
*43 _016_
*44 _017_
*45 _018_
*46 _019_
*47 _020_
*48 _021_
*49 _022_
*50 _023_
*51 _024_
*52 _025_
*53 _026_
*54 _027_
*55 _028_
*56 _029_
*57 _030_
*58 _031_
*59 _032_
*60 _033_
*61 _034_
*62 _035_
*63 _036_
*64 _037_
*65 _038_
*66 _039_
*67 _040_
*68 _041_
*69 _042_
*70 _043_
*71 _044_
*72 _045_
*73 _046_
*74 _047_
*75 _048_
*76 _049_
*77 _050_
*78 _051_
*79 _052_
*80 _053_
*81 _054_
*82 _055_
*83 _056_
*84 _057_
*85 _058_
*86 _059_
*87 _060_
*88 _061_
*89 _062_
*90 _063_
*91 _064_
*92 _065_
*93 _066_
*94 _067_
*95 _068_
*96 _069_
*97 _070_
*98 _071_
*99 _072_
*100 _073_
*101 _074_
*102 _075_
*103 _076_
*104 _077_
*105 _078_
*106 _079_
*107 _080_
*108 _081_
*109 _082_
*110 _083_
*111 _084_
*112 _085_
*113 _086_
*114 _087_
*115 _088_
*116 _089_
*117 _090_
*118 _091_
*119 _092_
*120 _093_
*121 _094_
*122 _095_
*123 _096_
*124 _097_
*125 _098_
*126 _099_
*127 _100_
*128 _101_
*129 _102_
*130 _103_
*131 _104_
*132 _105_
*133 _106_
*134 _107_
*135 _108_
*136 _109_
*137 _110_
*138 _111_
*139 _112_
*140 _113_
*141 _114_
*142 _115_
*143 _116_
*144 _117_
*145 _118_
*146 _119_
*147 _120_
*148 _121_
*149 _122_
*150 _123_
*151 _124_
*152 _125_
*153 _126_
*154 _127_
*155 _128_
*156 _129_
*157 _130_
*158 _131_
*159 _132_
*160 _133_
*161 _134_
*162 _135_
*163 _136_
*164 _137_
*165 _138_
*166 _139_
*167 _140_
*168 _141_
*169 _142_
*170 _143_
*171 _144_
*172 _145_
*173 _146_
*174 _147_
*175 _148_
*176 _149_
*177 _150_
*178 _151_
*179 _152_
*180 _153_
*181 _154_
*182 _155_
*183 _156_
*184 _157_
*185 _158_
*186 _159_
*187 _160_
*188 _161_
*189 _162_
*190 _163_
*191 _164_
*192 _165_
*193 _166_
*194 _167_
*195 _168_
*196 _169_
*197 _170_
*198 _171_
*199 _172_
*200 _173_
*201 _174_
*202 _175_
*203 _176_
*204 _177_
*205 _178_
*206 _179_
*207 _180_
*208 _181_
*209 _182_
*210 _183_
*211 _184_
*212 _185_
*213 _186_
*214 _187_
*215 _188_
*216 _189_
*217 _190_
*218 _191_
*219 _192_
*220 _193_
*221 _194_
*222 _195_
*223 _196_
*224 _197_
*225 _198_
*226 _199_
*227 _200_
*228 _201_
*229 _202_
*230 _203_
*231 _204_
*232 _205_
*233 _206_
*234 _207_
*235 _208_
*236 _209_
*237 _210_
*238 _211_
*239 _212_
*240 _213_
*241 _214_
*242 _215_
*243 clknet_0_clk
*244 clknet_2_0__leaf_clk
*245 clknet_2_1__leaf_clk
*246 clknet_2_2__leaf_clk
*247 clknet_2_3__leaf_clk
*248 net1
*249 net10
*250 net11
*251 net12
*252 net13
*253 net14
*254 net15
*255 net16
*256 net17
*257 net18
*258 net19
*259 net2
*260 net20
*261 net21
*262 net22
*263 net23
*264 net24
*265 net25
*266 net26
*267 net27
*268 net28
*269 net29
*270 net3
*271 net30
*272 net31
*273 net32
*274 net33
*275 net34
*276 net35
*277 net36
*278 net37
*279 net38
*280 net39
*281 net4
*282 net40
*283 net41
*284 net42
*285 net43
*286 net44
*287 net5
*288 net6
*289 net7
*290 net8
*291 net9
*292 u_system\.global_timeout_count\[0\]
*293 u_system\.global_timeout_count\[10\]
*294 u_system\.global_timeout_count\[11\]
*295 u_system\.global_timeout_count\[12\]
*296 u_system\.global_timeout_count\[13\]
*297 u_system\.global_timeout_count\[14\]
*298 u_system\.global_timeout_count\[15\]
*299 u_system\.global_timeout_count\[1\]
*300 u_system\.global_timeout_count\[2\]
*301 u_system\.global_timeout_count\[3\]
*302 u_system\.global_timeout_count\[4\]
*303 u_system\.global_timeout_count\[5\]
*304 u_system\.global_timeout_count\[6\]
*305 u_system\.global_timeout_count\[7\]
*306 u_system\.global_timeout_count\[8\]
*307 u_system\.global_timeout_count\[9\]
*308 u_system\.group_state_bits\[0\]
*309 u_system\.group_state_bits\[1\]
*310 u_system\.group_state_bits\[2\]
*311 u_system\.group_state_bits\[3\]
*312 u_system\.group_timeout_count\[0\]
*313 u_system\.group_timeout_count\[10\]
*314 u_system\.group_timeout_count\[11\]
*315 u_system\.group_timeout_count\[12\]
*316 u_system\.group_timeout_count\[13\]
*317 u_system\.group_timeout_count\[14\]
*318 u_system\.group_timeout_count\[15\]
*319 u_system\.group_timeout_count\[1\]
*320 u_system\.group_timeout_count\[2\]
*321 u_system\.group_timeout_count\[3\]
*322 u_system\.group_timeout_count\[4\]
*323 u_system\.group_timeout_count\[5\]
*324 u_system\.group_timeout_count\[6\]
*325 u_system\.group_timeout_count\[7\]
*326 u_system\.group_timeout_count\[8\]
*327 u_system\.group_timeout_count\[9\]
*328 u_system\.sticky_illegal
*329 u_system\.sticky_tamper
*330 u_system\.u_global\.denial_counter\[0\]
*331 u_system\.u_global\.denial_counter\[1\]
*332 u_system\.u_global\.prev_state\[0\]
*333 u_system\.u_global\.prev_state\[1\]
*334 u_system\.u_global\.prev_state\[2\]
*335 u_system\.u_global\.prev_state\[3\]
*336 u_system\.u_global\.prev_state\[4\]
*337 u_system\.u_global\.state\[0\]
*338 u_system\.u_global\.state\[1\]
*339 u_system\.u_global\.state\[2\]
*340 u_system\.u_global\.state\[3\]
*341 u_system\.u_global\.state\[4\]
*342 FILLER_0_100
*343 FILLER_0_104
*344 FILLER_0_111
*345 FILLER_0_113
*346 FILLER_0_125
*347 FILLER_0_137
*348 FILLER_0_139
*349 FILLER_0_141
*350 FILLER_0_15
*351 FILLER_0_154
*352 FILLER_0_166
*353 FILLER_0_169
*354 FILLER_0_181
*355 FILLER_0_183
*356 FILLER_0_27
*357 FILLER_0_29
*358 FILLER_0_3
*359 FILLER_0_33
*360 FILLER_0_41
*361 FILLER_0_53
*362 FILLER_0_55
*363 FILLER_0_57
*364 FILLER_0_69
*365 FILLER_0_81
*366 FILLER_0_83
*367 FILLER_0_85
*368 FILLER_0_93
*369 FILLER_0_98
*370 FILLER_10_101
*371 FILLER_10_108
*372 FILLER_10_110
*373 FILLER_10_119
*374 FILLER_10_131
*375 FILLER_10_138
*376 FILLER_10_148
*377 FILLER_10_15
*378 FILLER_10_27
*379 FILLER_10_29
*380 FILLER_10_3
*381 FILLER_10_46
*382 FILLER_10_58
*383 FILLER_10_70
*384 FILLER_10_72
*385 FILLER_10_81
*386 FILLER_10_83
*387 FILLER_10_85
*388 FILLER_10_97
*389 FILLER_11_111
*390 FILLER_11_117
*391 FILLER_11_134
*392 FILLER_11_138
*393 FILLER_11_15
*394 FILLER_11_156
*395 FILLER_11_169
*396 FILLER_11_177
*397 FILLER_11_179
*398 FILLER_11_27
*399 FILLER_11_3
*400 FILLER_11_39
*401 FILLER_11_51
*402 FILLER_11_55
*403 FILLER_11_57
*404 FILLER_11_69
*405 FILLER_11_81
*406 FILLER_11_98
*407 FILLER_12_101
*408 FILLER_12_116
*409 FILLER_12_128
*410 FILLER_12_141
*411 FILLER_12_153
*412 FILLER_12_165
*413 FILLER_12_173
*414 FILLER_12_22
*415 FILLER_12_26
*416 FILLER_12_29
*417 FILLER_12_3
*418 FILLER_12_44
*419 FILLER_12_46
*420 FILLER_12_5
*421 FILLER_12_63
*422 FILLER_12_75
*423 FILLER_12_83
*424 FILLER_12_85
*425 FILLER_12_97
*426 FILLER_13_101
*427 FILLER_13_108
*428 FILLER_13_113
*429 FILLER_13_125
*430 FILLER_13_137
*431 FILLER_13_141
*432 FILLER_13_143
*433 FILLER_13_148
*434 FILLER_13_166
*435 FILLER_13_169
*436 FILLER_13_18
*437 FILLER_13_54
*438 FILLER_13_57
*439 FILLER_13_59
*440 FILLER_13_6
*441 FILLER_13_63
*442 FILLER_13_71
*443 FILLER_13_77
*444 FILLER_13_89
*445 FILLER_14_107
*446 FILLER_14_109
*447 FILLER_14_119
*448 FILLER_14_123
*449 FILLER_14_125
*450 FILLER_14_133
*451 FILLER_14_137
*452 FILLER_14_139
*453 FILLER_14_141
*454 FILLER_14_153
*455 FILLER_14_161
*456 FILLER_14_21
*457 FILLER_14_25
*458 FILLER_14_27
*459 FILLER_14_29
*460 FILLER_14_3
*461 FILLER_14_40
*462 FILLER_14_52
*463 FILLER_14_85
*464 FILLER_14_93
*465 FILLER_15_110
*466 FILLER_15_113
*467 FILLER_15_119
*468 FILLER_15_123
*469 FILLER_15_137
*470 FILLER_15_147
*471 FILLER_15_159
*472 FILLER_15_161
*473 FILLER_15_165
*474 FILLER_15_167
*475 FILLER_15_169
*476 FILLER_15_177
*477 FILLER_15_179
*478 FILLER_15_18
*479 FILLER_15_30
*480 FILLER_15_42
*481 FILLER_15_54
*482 FILLER_15_57
*483 FILLER_15_6
*484 FILLER_15_69
*485 FILLER_15_81
*486 FILLER_15_85
*487 FILLER_15_98
*488 FILLER_16_120
*489 FILLER_16_128
*490 FILLER_16_158
*491 FILLER_16_166
*492 FILLER_16_168
*493 FILLER_16_20
*494 FILLER_16_36
*495 FILLER_16_48
*496 FILLER_16_56
*497 FILLER_16_65
*498 FILLER_16_72
*499 FILLER_16_85
*500 FILLER_16_9
*501 FILLER_17_101
*502 FILLER_17_109
*503 FILLER_17_111
*504 FILLER_17_113
*505 FILLER_17_127
*506 FILLER_17_139
*507 FILLER_17_151
*508 FILLER_17_169
*509 FILLER_17_179
*510 FILLER_17_26
*511 FILLER_17_3
*512 FILLER_17_47
*513 FILLER_17_52
*514 FILLER_17_89
*515 FILLER_18_102
*516 FILLER_18_107
*517 FILLER_18_111
*518 FILLER_18_127
*519 FILLER_18_131
*520 FILLER_18_133
*521 FILLER_18_141
*522 FILLER_18_15
*523 FILLER_18_150
*524 FILLER_18_162
*525 FILLER_18_166
*526 FILLER_18_27
*527 FILLER_18_29
*528 FILLER_18_3
*529 FILLER_18_41
*530 FILLER_18_45
*531 FILLER_18_50
*532 FILLER_18_62
*533 FILLER_18_75
*534 FILLER_18_83
*535 FILLER_18_98
*536 FILLER_19_106
*537 FILLER_19_110
*538 FILLER_19_113
*539 FILLER_19_117
*540 FILLER_19_129
*541 FILLER_19_141
*542 FILLER_19_153
*543 FILLER_19_165
*544 FILLER_19_167
*545 FILLER_19_169
*546 FILLER_19_18
*547 FILLER_19_30
*548 FILLER_19_34
*549 FILLER_19_36
*550 FILLER_19_40
*551 FILLER_19_52
*552 FILLER_19_57
*553 FILLER_19_6
*554 FILLER_19_69
*555 FILLER_19_81
*556 FILLER_19_93
*557 FILLER_1_109
*558 FILLER_1_111
*559 FILLER_1_113
*560 FILLER_1_135
*561 FILLER_1_15
*562 FILLER_1_164
*563 FILLER_1_179
*564 FILLER_1_183
*565 FILLER_1_23
*566 FILLER_1_3
*567 FILLER_1_31
*568 FILLER_1_33
*569 FILLER_1_50
*570 FILLER_1_54
*571 FILLER_1_62
*572 FILLER_1_66
*573 FILLER_1_68
*574 FILLER_1_90
*575 FILLER_1_92
*576 FILLER_20_102
*577 FILLER_20_110
*578 FILLER_20_122
*579 FILLER_20_13
*580 FILLER_20_133
*581 FILLER_20_137
*582 FILLER_20_139
*583 FILLER_20_141
*584 FILLER_20_153
*585 FILLER_20_157
*586 FILLER_20_159
*587 FILLER_20_168
*588 FILLER_20_176
*589 FILLER_20_21
*590 FILLER_20_25
*591 FILLER_20_27
*592 FILLER_20_29
*593 FILLER_20_3
*594 FILLER_20_33
*595 FILLER_20_39
*596 FILLER_20_51
*597 FILLER_20_59
*598 FILLER_20_67
*599 FILLER_20_7
*600 FILLER_20_85
*601 FILLER_20_9
*602 FILLER_20_94
*603 FILLER_21_101
*604 FILLER_21_105
*605 FILLER_21_107
*606 FILLER_21_116
*607 FILLER_21_124
*608 FILLER_21_131
*609 FILLER_21_169
*610 FILLER_21_178
*611 FILLER_21_25
*612 FILLER_21_27
*613 FILLER_21_51
*614 FILLER_21_55
*615 FILLER_21_57
*616 FILLER_21_59
*617 FILLER_21_63
*618 FILLER_21_93
*619 FILLER_22_139
*620 FILLER_22_156
*621 FILLER_22_19
*622 FILLER_22_27
*623 FILLER_22_29
*624 FILLER_22_3
*625 FILLER_22_41
*626 FILLER_22_53
*627 FILLER_22_57
*628 FILLER_22_63
*629 FILLER_22_85
*630 FILLER_22_89
*631 FILLER_22_91
*632 FILLER_23_106
*633 FILLER_23_11
*634 FILLER_23_110
*635 FILLER_23_113
*636 FILLER_23_125
*637 FILLER_23_13
*638 FILLER_23_137
*639 FILLER_23_149
*640 FILLER_23_161
*641 FILLER_23_169
*642 FILLER_23_173
*643 FILLER_23_175
*644 FILLER_23_21
*645 FILLER_23_3
*646 FILLER_23_33
*647 FILLER_23_45
*648 FILLER_23_53
*649 FILLER_23_55
*650 FILLER_23_57
*651 FILLER_23_70
*652 FILLER_23_82
*653 FILLER_23_94
*654 FILLER_24_101
*655 FILLER_24_119
*656 FILLER_24_123
*657 FILLER_24_13
*658 FILLER_24_134
*659 FILLER_24_136
*660 FILLER_24_141
*661 FILLER_24_152
*662 FILLER_24_156
*663 FILLER_24_174
*664 FILLER_24_27
*665 FILLER_24_29
*666 FILLER_24_3
*667 FILLER_24_44
*668 FILLER_24_46
*669 FILLER_24_53
*670 FILLER_24_57
*671 FILLER_24_65
*672 FILLER_24_7
*673 FILLER_24_74
*674 FILLER_24_78
*675 FILLER_24_83
*676 FILLER_24_85
*677 FILLER_24_97
*678 FILLER_25_109
*679 FILLER_25_111
*680 FILLER_25_113
*681 FILLER_25_125
*682 FILLER_25_127
*683 FILLER_25_153
*684 FILLER_25_159
*685 FILLER_25_167
*686 FILLER_25_169
*687 FILLER_25_175
*688 FILLER_25_180
*689 FILLER_25_19
*690 FILLER_25_21
*691 FILLER_25_38
*692 FILLER_25_55
*693 FILLER_25_62
*694 FILLER_25_70
*695 FILLER_25_72
*696 FILLER_26_109
*697 FILLER_26_113
*698 FILLER_26_118
*699 FILLER_26_130
*700 FILLER_26_138
*701 FILLER_26_141
*702 FILLER_26_15
*703 FILLER_26_153
*704 FILLER_26_165
*705 FILLER_26_167
*706 FILLER_26_27
*707 FILLER_26_29
*708 FILLER_26_3
*709 FILLER_26_41
*710 FILLER_26_53
*711 FILLER_26_65
*712 FILLER_26_72
*713 FILLER_26_76
*714 FILLER_26_81
*715 FILLER_26_83
*716 FILLER_26_85
*717 FILLER_26_97
*718 FILLER_27_105
*719 FILLER_27_109
*720 FILLER_27_111
*721 FILLER_27_113
*722 FILLER_27_121
*723 FILLER_27_127
*724 FILLER_27_136
*725 FILLER_27_148
*726 FILLER_27_15
*727 FILLER_27_160
*728 FILLER_27_169
*729 FILLER_27_181
*730 FILLER_27_183
*731 FILLER_27_27
*732 FILLER_27_3
*733 FILLER_27_39
*734 FILLER_27_51
*735 FILLER_27_55
*736 FILLER_27_57
*737 FILLER_27_69
*738 FILLER_27_81
*739 FILLER_27_93
*740 FILLER_28_115
*741 FILLER_28_15
*742 FILLER_28_158
*743 FILLER_28_175
*744 FILLER_28_180
*745 FILLER_28_27
*746 FILLER_28_29
*747 FILLER_28_3
*748 FILLER_28_37
*749 FILLER_28_41
*750 FILLER_28_51
*751 FILLER_28_55
*752 FILLER_28_64
*753 FILLER_28_71
*754 FILLER_28_81
*755 FILLER_28_83
*756 FILLER_28_89
*757 FILLER_29_102
*758 FILLER_29_110
*759 FILLER_29_129
*760 FILLER_29_141
*761 FILLER_29_145
*762 FILLER_29_15
*763 FILLER_29_163
*764 FILLER_29_167
*765 FILLER_29_169
*766 FILLER_29_181
*767 FILLER_29_183
*768 FILLER_29_27
*769 FILLER_29_29
*770 FILLER_29_3
*771 FILLER_29_46
*772 FILLER_29_54
*773 FILLER_29_73
*774 FILLER_2_106
*775 FILLER_2_114
*776 FILLER_2_118
*777 FILLER_2_122
*778 FILLER_2_124
*779 FILLER_2_139
*780 FILLER_2_146
*781 FILLER_2_148
*782 FILLER_2_152
*783 FILLER_2_160
*784 FILLER_2_27
*785 FILLER_2_29
*786 FILLER_2_3
*787 FILLER_2_33
*788 FILLER_2_44
*789 FILLER_2_69
*790 FILLER_2_71
*791 FILLER_2_83
*792 FILLER_30_109
*793 FILLER_30_111
*794 FILLER_30_113
*795 FILLER_30_121
*796 FILLER_30_125
*797 FILLER_30_137
*798 FILLER_30_139
*799 FILLER_30_141
*800 FILLER_30_15
*801 FILLER_30_153
*802 FILLER_30_165
*803 FILLER_30_167
*804 FILLER_30_169
*805 FILLER_30_181
*806 FILLER_30_183
*807 FILLER_30_27
*808 FILLER_30_29
*809 FILLER_30_3
*810 FILLER_30_41
*811 FILLER_30_53
*812 FILLER_30_55
*813 FILLER_30_65
*814 FILLER_30_77
*815 FILLER_30_79
*816 FILLER_30_83
*817 FILLER_30_85
*818 FILLER_30_97
*819 FILLER_3_101
*820 FILLER_3_113
*821 FILLER_3_121
*822 FILLER_3_133
*823 FILLER_3_145
*824 FILLER_3_15
*825 FILLER_3_157
*826 FILLER_3_165
*827 FILLER_3_167
*828 FILLER_3_174
*829 FILLER_3_182
*830 FILLER_3_3
*831 FILLER_3_32
*832 FILLER_3_44
*833 FILLER_3_60
*834 FILLER_3_72
*835 FILLER_3_76
*836 FILLER_3_89
*837 FILLER_4_101
*838 FILLER_4_109
*839 FILLER_4_131
*840 FILLER_4_139
*841 FILLER_4_141
*842 FILLER_4_15
*843 FILLER_4_153
*844 FILLER_4_165
*845 FILLER_4_177
*846 FILLER_4_181
*847 FILLER_4_183
*848 FILLER_4_19
*849 FILLER_4_27
*850 FILLER_4_29
*851 FILLER_4_3
*852 FILLER_4_38
*853 FILLER_4_50
*854 FILLER_4_62
*855 FILLER_4_64
*856 FILLER_4_72
*857 FILLER_4_85
*858 FILLER_4_93
*859 FILLER_4_95
*860 FILLER_5_100
*861 FILLER_5_113
*862 FILLER_5_125
*863 FILLER_5_156
*864 FILLER_5_165
*865 FILLER_5_167
*866 FILLER_5_172
*867 FILLER_5_21
*868 FILLER_5_3
*869 FILLER_5_35
*870 FILLER_5_39
*871 FILLER_5_57
*872 FILLER_5_61
*873 FILLER_5_79
*874 FILLER_5_91
*875 FILLER_6_105
*876 FILLER_6_117
*877 FILLER_6_125
*878 FILLER_6_137
*879 FILLER_6_139
*880 FILLER_6_141
*881 FILLER_6_15
*882 FILLER_6_153
*883 FILLER_6_157
*884 FILLER_6_27
*885 FILLER_6_3
*886 FILLER_6_52
*887 FILLER_6_64
*888 FILLER_6_81
*889 FILLER_6_83
*890 FILLER_6_85
*891 FILLER_6_87
*892 FILLER_7_107
*893 FILLER_7_111
*894 FILLER_7_119
*895 FILLER_7_138
*896 FILLER_7_144
*897 FILLER_7_15
*898 FILLER_7_156
*899 FILLER_7_160
*900 FILLER_7_169
*901 FILLER_7_175
*902 FILLER_7_183
*903 FILLER_7_27
*904 FILLER_7_3
*905 FILLER_7_39
*906 FILLER_7_47
*907 FILLER_7_57
*908 FILLER_7_69
*909 FILLER_7_81
*910 FILLER_7_89
*911 FILLER_7_91
*912 FILLER_8_105
*913 FILLER_8_107
*914 FILLER_8_111
*915 FILLER_8_137
*916 FILLER_8_139
*917 FILLER_8_15
*918 FILLER_8_150
*919 FILLER_8_156
*920 FILLER_8_168
*921 FILLER_8_180
*922 FILLER_8_22
*923 FILLER_8_26
*924 FILLER_8_29
*925 FILLER_8_3
*926 FILLER_8_41
*927 FILLER_8_49
*928 FILLER_8_73
*929 FILLER_8_79
*930 FILLER_8_83
*931 FILLER_8_85
*932 FILLER_8_97
*933 FILLER_9_100
*934 FILLER_9_104
*935 FILLER_9_133
*936 FILLER_9_137
*937 FILLER_9_141
*938 FILLER_9_153
*939 FILLER_9_180
*940 FILLER_9_26
*941 FILLER_9_3
*942 FILLER_9_43
*943 FILLER_9_47
*944 FILLER_9_57
*945 FILLER_9_61
*946 FILLER_9_63
*947 FILLER_9_7
*948 FILLER_9_9
*949 PHY_EDGE_ROW_0_Left_31
*950 PHY_EDGE_ROW_0_Right_0
*951 PHY_EDGE_ROW_10_Left_41
*952 PHY_EDGE_ROW_10_Right_10
*953 PHY_EDGE_ROW_11_Left_42
*954 PHY_EDGE_ROW_11_Right_11
*955 PHY_EDGE_ROW_12_Left_43
*956 PHY_EDGE_ROW_12_Right_12
*957 PHY_EDGE_ROW_13_Left_44
*958 PHY_EDGE_ROW_13_Right_13
*959 PHY_EDGE_ROW_14_Left_45
*960 PHY_EDGE_ROW_14_Right_14
*961 PHY_EDGE_ROW_15_Left_46
*962 PHY_EDGE_ROW_15_Right_15
*963 PHY_EDGE_ROW_16_Left_47
*964 PHY_EDGE_ROW_16_Right_16
*965 PHY_EDGE_ROW_17_Left_48
*966 PHY_EDGE_ROW_17_Right_17
*967 PHY_EDGE_ROW_18_Left_49
*968 PHY_EDGE_ROW_18_Right_18
*969 PHY_EDGE_ROW_19_Left_50
*970 PHY_EDGE_ROW_19_Right_19
*971 PHY_EDGE_ROW_1_Left_32
*972 PHY_EDGE_ROW_1_Right_1
*973 PHY_EDGE_ROW_20_Left_51
*974 PHY_EDGE_ROW_20_Right_20
*975 PHY_EDGE_ROW_21_Left_52
*976 PHY_EDGE_ROW_21_Right_21
*977 PHY_EDGE_ROW_22_Left_53
*978 PHY_EDGE_ROW_22_Right_22
*979 PHY_EDGE_ROW_23_Left_54
*980 PHY_EDGE_ROW_23_Right_23
*981 PHY_EDGE_ROW_24_Left_55
*982 PHY_EDGE_ROW_24_Right_24
*983 PHY_EDGE_ROW_25_Left_56
*984 PHY_EDGE_ROW_25_Right_25
*985 PHY_EDGE_ROW_26_Left_57
*986 PHY_EDGE_ROW_26_Right_26
*987 PHY_EDGE_ROW_27_Left_58
*988 PHY_EDGE_ROW_27_Right_27
*989 PHY_EDGE_ROW_28_Left_59
*990 PHY_EDGE_ROW_28_Right_28
*991 PHY_EDGE_ROW_29_Left_60
*992 PHY_EDGE_ROW_29_Right_29
*993 PHY_EDGE_ROW_2_Left_33
*994 PHY_EDGE_ROW_2_Right_2
*995 PHY_EDGE_ROW_30_Left_61
*996 PHY_EDGE_ROW_30_Right_30
*997 PHY_EDGE_ROW_3_Left_34
*998 PHY_EDGE_ROW_3_Right_3
*999 PHY_EDGE_ROW_4_Left_35
*1000 PHY_EDGE_ROW_4_Right_4
*1001 PHY_EDGE_ROW_5_Left_36
*1002 PHY_EDGE_ROW_5_Right_5
*1003 PHY_EDGE_ROW_6_Left_37
*1004 PHY_EDGE_ROW_6_Right_6
*1005 PHY_EDGE_ROW_7_Left_38
*1006 PHY_EDGE_ROW_7_Right_7
*1007 PHY_EDGE_ROW_8_Left_39
*1008 PHY_EDGE_ROW_8_Right_8
*1009 PHY_EDGE_ROW_9_Left_40
*1010 PHY_EDGE_ROW_9_Right_9
*1011 TAP_TAPCELL_ROW_0_62
*1012 TAP_TAPCELL_ROW_0_63
*1013 TAP_TAPCELL_ROW_0_64
*1014 TAP_TAPCELL_ROW_0_65
*1015 TAP_TAPCELL_ROW_0_66
*1016 TAP_TAPCELL_ROW_0_67
*1017 TAP_TAPCELL_ROW_10_95
*1018 TAP_TAPCELL_ROW_10_96
*1019 TAP_TAPCELL_ROW_10_97
*1020 TAP_TAPCELL_ROW_11_100
*1021 TAP_TAPCELL_ROW_11_98
*1022 TAP_TAPCELL_ROW_11_99
*1023 TAP_TAPCELL_ROW_12_101
*1024 TAP_TAPCELL_ROW_12_102
*1025 TAP_TAPCELL_ROW_12_103
*1026 TAP_TAPCELL_ROW_13_104
*1027 TAP_TAPCELL_ROW_13_105
*1028 TAP_TAPCELL_ROW_13_106
*1029 TAP_TAPCELL_ROW_14_107
*1030 TAP_TAPCELL_ROW_14_108
*1031 TAP_TAPCELL_ROW_14_109
*1032 TAP_TAPCELL_ROW_15_110
*1033 TAP_TAPCELL_ROW_15_111
*1034 TAP_TAPCELL_ROW_15_112
*1035 TAP_TAPCELL_ROW_16_113
*1036 TAP_TAPCELL_ROW_16_114
*1037 TAP_TAPCELL_ROW_16_115
*1038 TAP_TAPCELL_ROW_17_116
*1039 TAP_TAPCELL_ROW_17_117
*1040 TAP_TAPCELL_ROW_17_118
*1041 TAP_TAPCELL_ROW_18_119
*1042 TAP_TAPCELL_ROW_18_120
*1043 TAP_TAPCELL_ROW_18_121
*1044 TAP_TAPCELL_ROW_19_122
*1045 TAP_TAPCELL_ROW_19_123
*1046 TAP_TAPCELL_ROW_19_124
*1047 TAP_TAPCELL_ROW_1_68
*1048 TAP_TAPCELL_ROW_1_69
*1049 TAP_TAPCELL_ROW_1_70
*1050 TAP_TAPCELL_ROW_20_125
*1051 TAP_TAPCELL_ROW_20_126
*1052 TAP_TAPCELL_ROW_20_127
*1053 TAP_TAPCELL_ROW_21_128
*1054 TAP_TAPCELL_ROW_21_129
*1055 TAP_TAPCELL_ROW_21_130
*1056 TAP_TAPCELL_ROW_22_131
*1057 TAP_TAPCELL_ROW_22_132
*1058 TAP_TAPCELL_ROW_22_133
*1059 TAP_TAPCELL_ROW_23_134
*1060 TAP_TAPCELL_ROW_23_135
*1061 TAP_TAPCELL_ROW_23_136
*1062 TAP_TAPCELL_ROW_24_137
*1063 TAP_TAPCELL_ROW_24_138
*1064 TAP_TAPCELL_ROW_24_139
*1065 TAP_TAPCELL_ROW_25_140
*1066 TAP_TAPCELL_ROW_25_141
*1067 TAP_TAPCELL_ROW_25_142
*1068 TAP_TAPCELL_ROW_26_143
*1069 TAP_TAPCELL_ROW_26_144
*1070 TAP_TAPCELL_ROW_26_145
*1071 TAP_TAPCELL_ROW_27_146
*1072 TAP_TAPCELL_ROW_27_147
*1073 TAP_TAPCELL_ROW_27_148
*1074 TAP_TAPCELL_ROW_28_149
*1075 TAP_TAPCELL_ROW_28_150
*1076 TAP_TAPCELL_ROW_28_151
*1077 TAP_TAPCELL_ROW_29_152
*1078 TAP_TAPCELL_ROW_29_153
*1079 TAP_TAPCELL_ROW_29_154
*1080 TAP_TAPCELL_ROW_2_71
*1081 TAP_TAPCELL_ROW_2_72
*1082 TAP_TAPCELL_ROW_2_73
*1083 TAP_TAPCELL_ROW_30_155
*1084 TAP_TAPCELL_ROW_30_156
*1085 TAP_TAPCELL_ROW_30_157
*1086 TAP_TAPCELL_ROW_30_158
*1087 TAP_TAPCELL_ROW_30_159
*1088 TAP_TAPCELL_ROW_30_160
*1089 TAP_TAPCELL_ROW_3_74
*1090 TAP_TAPCELL_ROW_3_75
*1091 TAP_TAPCELL_ROW_3_76
*1092 TAP_TAPCELL_ROW_4_77
*1093 TAP_TAPCELL_ROW_4_78
*1094 TAP_TAPCELL_ROW_4_79
*1095 TAP_TAPCELL_ROW_5_80
*1096 TAP_TAPCELL_ROW_5_81
*1097 TAP_TAPCELL_ROW_5_82
*1098 TAP_TAPCELL_ROW_6_83
*1099 TAP_TAPCELL_ROW_6_84
*1100 TAP_TAPCELL_ROW_6_85
*1101 TAP_TAPCELL_ROW_7_86
*1102 TAP_TAPCELL_ROW_7_87
*1103 TAP_TAPCELL_ROW_7_88
*1104 TAP_TAPCELL_ROW_8_89
*1105 TAP_TAPCELL_ROW_8_90
*1106 TAP_TAPCELL_ROW_8_91
*1107 TAP_TAPCELL_ROW_9_92
*1108 TAP_TAPCELL_ROW_9_93
*1109 TAP_TAPCELL_ROW_9_94
*1110 _216_
*1111 _217_
*1112 _218_
*1113 _219_
*1114 _220_
*1115 _221_
*1116 _222_
*1117 _223_
*1118 _224_
*1119 _225_
*1120 _226_
*1121 _227_
*1122 _228_
*1123 _229_
*1124 _230_
*1125 _231_
*1126 _232_
*1127 _233_
*1128 _234_
*1129 _235_
*1130 _236_
*1131 _237_
*1132 _238_
*1133 _239_
*1134 _240_
*1135 _241_
*1136 _242_
*1137 _243_
*1138 _244_
*1139 _245_
*1140 _246_
*1141 _247_
*1142 _248_
*1143 _249_
*1144 _250_
*1145 _251_
*1146 _252_
*1147 _253_
*1148 _254_
*1149 _255_
*1150 _256_
*1151 _257_
*1152 _258_
*1153 _259_
*1154 _260_
*1155 _261_
*1156 _262_
*1157 _263_
*1158 _264_
*1159 _265_
*1160 _266_
*1161 _267_
*1162 _268_
*1163 _269_
*1164 _270_
*1165 _271_
*1166 _272_
*1167 _273_
*1168 _274_
*1169 _275_
*1170 _276_
*1171 _277_
*1172 _278_
*1173 _279_
*1174 _280_
*1175 _281_
*1176 _282_
*1177 _283_
*1178 _284_
*1179 _285_
*1180 _286_
*1181 _287_
*1182 _288_
*1183 _289_
*1184 _290_
*1185 _291_
*1186 _292_
*1187 _293_
*1188 _294_
*1189 _295_
*1190 _296_
*1191 _297_
*1192 _298_
*1193 _299_
*1194 _300_
*1195 _301_
*1196 _302_
*1197 _303_
*1198 _304_
*1199 _305_
*1200 _306_
*1201 _307_
*1202 _308_
*1203 _309_
*1204 _310_
*1205 _311_
*1206 _312_
*1207 _313_
*1208 _314_
*1209 _315_
*1210 _316_
*1211 _317_
*1212 _318_
*1213 _319_
*1214 _320_
*1215 _321_
*1216 _322_
*1217 _323_
*1218 _324_
*1219 _325_
*1220 _326_
*1221 _327_
*1222 _328_
*1223 _329_
*1224 _330_
*1225 _331_
*1226 _332_
*1227 _333_
*1228 _334_
*1229 _335_
*1230 _336_
*1231 _337_
*1232 _338_
*1233 _339_
*1234 _340_
*1235 _341_
*1236 _342_
*1237 _343_
*1238 _344_
*1239 _345_
*1240 _346_
*1241 _347_
*1242 _348_
*1243 _349_
*1244 _350_
*1245 _351_
*1246 _352_
*1247 _353_
*1248 _354_
*1249 _355_
*1250 _356_
*1251 _357_
*1252 _358_
*1253 _359_
*1254 _360_
*1255 _361_
*1256 _362_
*1257 _363_
*1258 _364_
*1259 _365_
*1260 _366_
*1261 _367_
*1262 _368_
*1263 _369_
*1264 _370_
*1265 _371_
*1266 _372_
*1267 _373_
*1268 _374_
*1269 _375_
*1270 _376_
*1271 _377_
*1272 _378_
*1273 _379_
*1274 _380_
*1275 _381_
*1276 _382_
*1277 _383_
*1278 _384_
*1279 _385_
*1280 _386_
*1281 _387_
*1282 _388_
*1283 _389_
*1284 _390_
*1285 _391_
*1286 _392_
*1287 _393_
*1288 _394_
*1289 _395_
*1290 _396_
*1291 _397_
*1292 _398_
*1293 _399_
*1294 _400_
*1295 _401_
*1296 _402_
*1297 _403_
*1298 _404_
*1299 _405_
*1300 _406_
*1301 _407_
*1302 _408_
*1303 _409_
*1304 _410_
*1305 _411_
*1306 _412_
*1307 _413_
*1308 _414_
*1309 _415_
*1310 _416_
*1311 _417_
*1312 _418_
*1313 _419_
*1314 _420_
*1315 _421_
*1316 _422_
*1317 _423_
*1318 _424_
*1319 _425_
*1320 _426_
*1321 _427_
*1322 _428_
*1323 _429_
*1324 _430_
*1325 _431_
*1326 _432_
*1327 _433_
*1328 _434_
*1329 _435_
*1330 _436_
*1331 _437_
*1332 _438_
*1333 _439_
*1334 _440_
*1335 _441_
*1336 _442_
*1337 _443_
*1338 _444_
*1339 _445_
*1340 _446_
*1341 _447_
*1342 _448_
*1343 _449_
*1344 _450_
*1345 _451_
*1346 _452_
*1347 _453_
*1348 _454_
*1349 _455_
*1350 _456_
*1351 _457_
*1352 _458_
*1353 _459_
*1354 _460_
*1355 _461_
*1356 _462_
*1357 _463_
*1358 _464_
*1359 _465_
*1360 _466_
*1361 _467_
*1362 _468_
*1363 _469_
*1364 _470_
*1365 _471_
*1366 _472_
*1367 _473_
*1368 _474_
*1369 _475_
*1370 _476_
*1371 _477_
*1372 _478_
*1373 _479_
*1374 _480_
*1375 _481_
*1376 _482_
*1377 _483_
*1378 _484_
*1379 _485_
*1380 _486_
*1381 _487_
*1382 _488_
*1383 _489_
*1384 clkbuf_0_clk
*1385 clkbuf_2_0__f_clk
*1386 clkbuf_2_1__f_clk
*1387 clkbuf_2_2__f_clk
*1388 clkbuf_2_3__f_clk
*1389 clkload0
*1390 clkload1
*1391 clkload2
*1392 fanout24
*1393 fanout25
*1394 fanout26
*1395 fanout27
*1396 fanout28
*1397 fanout29
*1398 hold1
*1399 hold10
*1400 hold11
*1401 hold12
*1402 hold13
*1403 hold14
*1404 hold15
*1405 hold2
*1406 hold3
*1407 hold4
*1408 hold5
*1409 hold6
*1410 hold7
*1411 hold8
*1412 hold9
*1413 input1
*1414 input10
*1415 input11
*1416 input12
*1417 input13
*1418 input14
*1419 input15
*1420 input2
*1421 input3
*1422 input4
*1423 input5
*1424 input6
*1425 input7
*1426 input8
*1427 input9
*1428 output16
*1429 output17
*1430 output18
*1431 output19
*1432 output20
*1433 output21
*1434 output22
*1435 output23

*PORTS
clk I
clock_glitch I
cold_reset_req I
debug_enable O
file_denied I
fsm_error O
fw_fail I
fw_ok I
global_pin_ok I
group_autolock I
group_error O
group_suspended O
group_unlocked O
hdr_parse_fail I
illegal_in I
power_glitch I
reset I
safe_led O
security_breach O
size_mismatch I
tamper_in I
unlock_enable O
unlock_req I
warm_reset_req I

*D_NET *3 0.0106336
*CONN
*P clk I
*I *1384:A I *D sky130_fd_sc_hd__clkbuf_16
*CAP
1 clk 0.0031426
2 *1384:A 0
3 *3:11 0.0017079
4 *3:7 0.0048505
5 *3:11 *1371:CLK 0
6 *3:11 *68:8 0
7 *3:11 *69:14 0
8 *3:11 *165:35 0
9 *3:11 *173:14 0
10 *3:11 *211:10 0.00031776
11 *3:11 *211:16 0.000486495
12 *3:11 *246:156 0
13 *3:11 *247:44 0
14 *3:11 *247:55 0
15 *3:11 *266:151 0
16 *3:11 *282:8 0
17 *3:11 *301:66 0.00012837
*RES
1 clk *3:7 15.8848 
2 *3:7 *3:11 49.4789 
3 *3:11 *1384:A 23 
*END

*D_NET *4 0.000651132
*CONN
*P clock_glitch I
*I *1413:A I *D sky130_fd_sc_hd__clkbuf_1
*CAP
1 clock_glitch 0.000315413
2 *1413:A 0
3 *4:17 0.000315413
4 *4:17 *18:17 2.0307e-05
*RES
1 clock_glitch *4:17 27.1584 
2 *4:17 *1413:A 23 
*END

*D_NET *5 0.000882345
*CONN
*P cold_reset_req I
*I *1420:A I *D sky130_fd_sc_hd__buf_1
*CAP
1 cold_reset_req 0.000306364
2 *1420:A 0.000306364
3 *1420:A security_breach 8.73764e-05
4 *1420:A *23:11 0.000110226
5 *1420:A *252:8 7.20154e-05
6 *1420:A *262:8 0
*RES
1 cold_reset_req *1420:A 48.831 
*END

*D_NET *6 0.000643532
*CONN
*P debug_enable O
*I *1428:X O *D sky130_fd_sc_hd__buf_2
*CAP
1 debug_enable 0.000236107
2 *1428:X 0.000236107
3 debug_enable group_suspended 8.97484e-05
4 debug_enable unlock_enable 8.15691e-05
*RES
1 *1428:X debug_enable 48.1384 
*END

*D_NET *7 0.000911302
*CONN
*P file_denied I
*I *1421:A I *D sky130_fd_sc_hd__buf_1
*CAP
1 file_denied 0.000440959
2 *1421:A 0.000440959
3 *1421:A *1425:A 0
4 *1421:A *260:18 2.93845e-05
*RES
1 file_denied *1421:A 47.3214 
*END

*D_NET *8 0.00134822
*CONN
*P fsm_error O
*I *1429:X O *D sky130_fd_sc_hd__buf_2
*CAP
1 fsm_error 0.000217214
2 *1429:X 0.000286222
3 *8:10 0.000503435
4 fsm_error safe_led 7.82427e-05
5 fsm_error security_breach 0
6 *8:10 *1429:A 7.82385e-05
7 *8:10 *20:10 0.000124641
8 *8:10 *261:27 6.02252e-05
9 *8:10 *341:106 0
*RES
1 *1429:X *8:10 44.1418 
2 *8:10 fsm_error 8.84373 
*END

*D_NET *9 0.00109318
*CONN
*P fw_fail I
*I *1422:A I *D sky130_fd_sc_hd__clkbuf_1
*CAP
1 fw_fail 0.00036781
2 *1422:A 0
3 *9:13 0.00036781
4 *9:13 *1426:A 0
5 *9:13 *22:17 2.12457e-05
6 *9:13 *246:67 0.000208735
7 *9:13 *281:8 0.00012758
*RES
1 fw_fail *9:13 27.2512 
2 *9:13 *1422:A 23 
*END

*D_NET *10 0.0011089
*CONN
*P fw_ok I
*I *1423:A I *D sky130_fd_sc_hd__clkbuf_1
*CAP
1 fw_ok 0.000554451
2 *1423:A 0.000554451
*RES
1 fw_ok *1423:A 49.7864 
*END

*D_NET *11 0.00111352
*CONN
*P global_pin_ok I
*I *1424:A I *D sky130_fd_sc_hd__clkbuf_1
*CAP
1 global_pin_ok 0.000455933
2 *1424:A 0
3 *11:11 0.000455933
4 *11:11 group_error 0.000105143
5 *11:11 unlock_enable 9.65101e-05
6 *11:11 *1205:B1 0
7 *11:11 *250:27 0
*RES
1 global_pin_ok *11:11 27.6776 
2 *11:11 *1424:A 23 
*END

*D_NET *12 0.000922241
*CONN
*P group_autolock I
*I *1425:A I *D sky130_fd_sc_hd__buf_1
*CAP
1 group_autolock 0.000446428
2 *1425:A 0.000446428
3 *1425:A group_unlocked 0
4 *1425:A *260:18 2.93845e-05
5 *1421:A *1425:A 0
*RES
1 group_autolock *1425:A 47.3214 
*END

*D_NET *13 0.000713844
*CONN
*P group_error O
*I *1430:X O *D sky130_fd_sc_hd__buf_2
*CAP
1 group_error 0.000244487
2 *1430:X 0.000244487
3 group_error *1205:B1 0
4 group_error *1419:A 8.73764e-05
5 group_error *1430:A 3.23515e-05
6 *11:11 group_error 0.000105143
*RES
1 *1430:X group_error 48.0408 
*END

*D_NET *14 0.000654605
*CONN
*P group_suspended O
*I *1431:X O *D sky130_fd_sc_hd__buf_2
*CAP
1 group_suspended 0.00022112
2 *1431:X 0.00022112
3 group_suspended unlock_enable 0
4 group_suspended *1418:A 8.73764e-05
5 group_suspended *258:10 3.52397e-05
6 debug_enable group_suspended 8.97484e-05
*RES
1 *1431:X group_suspended 47.955 
*END

*D_NET *15 0.000935434
*CONN
*P group_unlocked O
*I *1432:X O *D sky130_fd_sc_hd__buf_2
*CAP
1 group_unlocked 0.000467717
2 *1432:X 0.000467717
3 *1425:A group_unlocked 0
*RES
1 *1432:X group_unlocked 47.0936 
*END

*D_NET *16 0.000889385
*CONN
*P hdr_parse_fail I
*I *1426:A I *D sky130_fd_sc_hd__clkbuf_1
*CAP
1 hdr_parse_fail 0.000413445
2 *1426:A 0.000413445
3 *1426:A *18:17 3.12475e-05
4 *1426:A *22:17 3.12475e-05
5 *1426:A *213:18 0
6 *1426:A *268:83 0
7 *9:13 *1426:A 0
*RES
1 hdr_parse_fail *1426:A 48.2126 
*END

*D_NET *17 0.000557373
*CONN
*P illegal_in I
*I *1427:A I *D sky130_fd_sc_hd__clkbuf_1
*CAP
1 illegal_in 0.000180464
2 *1427:A 0.000180464
3 *1427:A *1419:A 8.15691e-05
4 *1427:A *23:11 8.73764e-05
5 *1427:A *252:8 2.74987e-05
*RES
1 illegal_in *1427:A 47.5169 
*END

*D_NET *18 0.00070915
*CONN
*P power_glitch I
*I *1414:A I *D sky130_fd_sc_hd__clkbuf_1
*CAP
1 power_glitch 0.000328798
2 *1414:A 0
3 *18:17 0.000328798
4 *18:17 *22:17 0
5 *18:17 *213:18 0
6 *1426:A *18:17 3.12475e-05
7 *4:17 *18:17 2.0307e-05
*RES
1 power_glitch *18:17 27.8627 
2 *18:17 *1414:A 23 
*END

*D_NET *19 0.0007332
*CONN
*P reset I
*I *1415:A I *D sky130_fd_sc_hd__clkbuf_2
*CAP
1 reset 0.0003666
2 *1415:A 0.0003666
3 *1415:A *1418:A 0
4 *1415:A *269:8 0
*RES
1 reset *1415:A 48.3071 
*END

*D_NET *20 0.00152102
*CONN
*P safe_led O
*I *1433:X O *D sky130_fd_sc_hd__buf_2
*CAP
1 safe_led 0.000143178
2 *1433:X 0.000284384
3 *20:10 0.000427562
4 safe_led security_breach 7.45504e-05
5 *20:10 *1429:A 0.000222501
6 *20:10 *256:10 0.000165964
7 *20:10 *261:27 0
8 fsm_error safe_led 7.82427e-05
9 *8:10 *20:10 0.000124641
*RES
1 *1433:X *20:10 44.3489 
2 *20:10 safe_led 8.75787 
*END

*D_NET *21 0.00081492
*CONN
*P security_breach O
*I *1434:X O *D sky130_fd_sc_hd__buf_2
*CAP
1 security_breach 0.000324389
2 *1434:X 0.000324389
3 security_breach *261:27 4.21594e-06
4 security_breach *272:8 0
5 fsm_error security_breach 0
6 safe_led security_breach 7.45504e-05
7 *1420:A security_breach 8.73764e-05
*RES
1 *1434:X security_breach 49.5469 
*END

*D_NET *22 0.000777366
*CONN
*P size_mismatch I
*I *1416:A I *D sky130_fd_sc_hd__clkbuf_1
*CAP
1 size_mismatch 0.000362436
2 *1416:A 0
3 *22:17 0.000362436
4 *22:17 *213:18 0
5 *1426:A *22:17 3.12475e-05
6 *9:13 *22:17 2.12457e-05
7 *18:17 *22:17 0
*RES
1 size_mismatch *22:17 28.567 
2 *22:17 *1416:A 23 
*END

*D_NET *23 0.00112269
*CONN
*P tamper_in I
*I *1417:A I *D sky130_fd_sc_hd__clkbuf_1
*CAP
1 tamper_in 0.000380855
2 *1417:A 0
3 *23:11 0.000380855
4 *23:11 *252:8 0.000163378
5 *1420:A *23:11 0.000110226
6 *1427:A *23:11 8.73764e-05
*RES
1 tamper_in *23:11 29.0948 
2 *23:11 *1417:A 23 
*END

*D_NET *24 0.000591073
*CONN
*P unlock_enable O
*I *1435:X O *D sky130_fd_sc_hd__buf_2
*CAP
1 unlock_enable 0.000206497
2 *1435:X 0.000206497
3 unlock_enable *255:62 0
4 debug_enable unlock_enable 8.15691e-05
5 group_suspended unlock_enable 0
6 *11:11 unlock_enable 9.65101e-05
*RES
1 *1435:X unlock_enable 47.6028 
*END

*D_NET *25 0.000780328
*CONN
*P unlock_req I
*I *1418:A I *D sky130_fd_sc_hd__buf_1
*CAP
1 unlock_req 0.000341193
2 *1418:A 0.000341193
3 *1418:A *253:12 1.05658e-05
4 group_suspended *1418:A 8.73764e-05
5 *1415:A *1418:A 0
*RES
1 unlock_req *1418:A 49.6298 
*END

*D_NET *26 0.000585181
*CONN
*P warm_reset_req I
*I *1419:A I *D sky130_fd_sc_hd__buf_1
*CAP
1 warm_reset_req 0.000208118
2 *1419:A 0.000208118
3 group_error *1419:A 8.73764e-05
4 *1427:A *1419:A 8.15691e-05
*RES
1 warm_reset_req *1419:A 47.8691 
*END

*D_NET *27 0.000444935
*CONN
*I *1330:D I *D sky130_fd_sc_hd__dfxtp_1
*I *1160:X O *D sky130_fd_sc_hd__and2b_1
*CAP
1 *1330:D 9.62535e-05
2 *1160:X 0.000126214
3 *27:8 0.000222468
4 *27:8 *1163:A 0
5 *27:8 *244:61 0
*RES
1 *1160:X *27:8 40.2579 
2 *27:8 *1330:D 39.6209 
*END

*D_NET *28 0.00028917
*CONN
*I *1331:D I *D sky130_fd_sc_hd__dfxtp_1
*I *1163:X O *D sky130_fd_sc_hd__and3_1
*CAP
1 *1331:D 4.80329e-05
2 *1163:X 9.65519e-05
3 *28:8 0.000144585
*RES
1 *1163:X *28:8 39.5536 
2 *28:8 *1331:D 38.668 
*END

*D_NET *29 0.000280918
*CONN
*I *1332:D I *D sky130_fd_sc_hd__dfxtp_1
*I *1166:X O *D sky130_fd_sc_hd__and3_1
*CAP
1 *1332:D 4.28935e-05
2 *1166:X 7.97336e-05
3 *29:8 0.000122627
4 *29:8 *244:12 3.5664e-05
*RES
1 *1166:X *29:8 39.5536 
2 *29:8 *1332:D 38.668 
*END

*D_NET *30 0.00129012
*CONN
*I *1333:D I *D sky130_fd_sc_hd__dfxtp_1
*I *1169:X O *D sky130_fd_sc_hd__and3b_1
*CAP
1 *1333:D 0.000219962
2 *1169:X 4.99509e-05
3 *30:8 0.000269913
4 *1333:D *1333:CLK 0.00014196
5 *1333:D *129:12 3.22879e-05
6 *1333:D *129:21 8.09814e-05
7 *1333:D *312:45 5.50049e-05
8 *1333:D *312:60 9.41704e-05
9 *1333:D *321:10 0.00013115
10 *30:8 *264:77 0.000141888
11 *30:8 *319:12 7.28526e-05
*RES
1 *1169:X *30:8 39.9057 
2 *30:8 *1333:D 43.9243 
*END

*D_NET *31 0.00122239
*CONN
*I *1334:D I *D sky130_fd_sc_hd__dfxtp_1
*I *1172:X O *D sky130_fd_sc_hd__and3_1
*CAP
1 *1334:D 0.000162749
2 *1172:X 8.00149e-05
3 *31:8 0.000242764
4 *1334:D *1334:CLK 0.000267167
5 *1334:D *1385:A 0.000177678
6 *31:8 *131:8 0.000164282
7 *31:8 *132:10 7.69935e-05
8 *31:8 *244:163 3.70187e-05
9 *31:8 *322:48 1.37246e-05
*RES
1 *1172:X *31:8 40.61 
2 *31:8 *1334:D 42.3293 
*END

*D_NET *32 0.00039965
*CONN
*I *1335:D I *D sky130_fd_sc_hd__dfxtp_1
*I *1175:X O *D sky130_fd_sc_hd__and3b_1
*CAP
1 *1335:D 1.58638e-05
2 *1175:X 0.000148468
3 *32:10 0.000164332
4 *32:10 *106:10 1.73399e-05
5 *32:10 *134:8 5.36457e-05
6 *32:10 *264:86 0
*RES
1 *1175:X *32:10 40.8793 
2 *32:10 *1335:D 38.1916 
*END

*D_NET *33 0.00107756
*CONN
*I *1336:D I *D sky130_fd_sc_hd__dfxtp_1
*I *1178:X O *D sky130_fd_sc_hd__and3_1
*CAP
1 *1336:D 0.000127429
2 *1178:X 0.000255055
3 *33:10 0.000382484
4 *1336:D *265:10 0.000109487
5 *33:10 *1178:C 3.45438e-05
6 *33:10 *135:12 5.67058e-05
7 *33:10 *265:85 0.000111852
*RES
1 *1178:X *33:10 43.1371 
2 *33:10 *1336:D 41.0502 
*END

*D_NET *34 0.000495854
*CONN
*I *1337:D I *D sky130_fd_sc_hd__dfxtp_1
*I *1180:X O *D sky130_fd_sc_hd__and2_1
*CAP
1 *1337:D 8.77079e-06
2 *1180:X 0.000184753
3 *34:10 0.000193524
4 *1337:D *325:8 1.74843e-05
5 *34:10 *1180:B 3.7122e-06
6 *34:10 *124:12 8.76088e-05
*RES
1 *1180:X *34:10 41.3557 
2 *34:10 *1337:D 38.1916 
*END

*D_NET *35 0.000377638
*CONN
*I *1338:D I *D sky130_fd_sc_hd__dfxtp_1
*I *1183:X O *D sky130_fd_sc_hd__and3_1
*CAP
1 *1338:D 0.000106491
2 *1183:X 0.000106491
3 *1338:D *1338:CLK 5.67058e-05
4 *1338:D *265:20 0.00010795
*RES
1 *1183:X *1338:D 49.0864 
*END

*D_NET *36 0.000293895
*CONN
*I *1339:D I *D sky130_fd_sc_hd__dfxtp_1
*I *1186:X O *D sky130_fd_sc_hd__and3_1
*CAP
1 *1339:D 0.000146947
2 *1186:X 0.000146947
*RES
1 *1186:X *1339:D 48.3873 
*END

*D_NET *37 0.000753913
*CONN
*I *1340:D I *D sky130_fd_sc_hd__dfxtp_1
*I *1189:X O *D sky130_fd_sc_hd__and3b_1
*CAP
1 *1340:D 0.000107812
2 *1189:X 7.55506e-05
3 *37:8 0.000183363
4 *1340:D *265:33 0.000274034
5 *37:8 *289:8 0
6 *37:8 *313:19 0.000113153
*RES
1 *1189:X *37:8 39.5536 
2 *37:8 *1340:D 41.0502 
*END

*D_NET *38 0.00079161
*CONN
*I *1341:D I *D sky130_fd_sc_hd__dfxtp_1
*I *1192:X O *D sky130_fd_sc_hd__o211a_1
*CAP
1 *1341:D 0.000292099
2 *1192:X 7.58908e-05
3 *38:8 0.00036799
4 *38:8 *1188:C 5.56306e-05
*RES
1 *1192:X *38:8 39.5536 
2 *38:8 *1341:D 42.9559 
*END

*D_NET *39 0.000986951
*CONN
*I *1342:D I *D sky130_fd_sc_hd__dfxtp_1
*I *1195:X O *D sky130_fd_sc_hd__and3_1
*CAP
1 *1342:D 0
2 *1195:X 0.00045437
3 *39:10 0.00045437
4 *39:10 *1195:A 5.50106e-05
5 *39:10 *315:8 2.32004e-05
*RES
1 *1195:X *39:10 30.5037 
2 *39:10 *1342:D 23 
*END

*D_NET *40 0.000416956
*CONN
*I *1343:D I *D sky130_fd_sc_hd__dfxtp_1
*I *1198:X O *D sky130_fd_sc_hd__and3b_1
*CAP
1 *1343:D 5.33781e-05
2 *1198:X 7.59234e-05
3 *40:8 0.000129301
4 *1343:D *244:30 0.000102732
5 *40:8 *149:10 5.56203e-05
*RES
1 *1198:X *40:8 39.5536 
2 *40:8 *1343:D 39.1445 
*END

*D_NET *41 0.000646807
*CONN
*I *1344:D I *D sky130_fd_sc_hd__dfxtp_1
*I *1201:X O *D sky130_fd_sc_hd__and3b_1
*CAP
1 *1344:D 0.000186381
2 *1201:X 9.32185e-05
3 *41:8 0.000279599
4 *41:8 *151:8 8.76088e-05
*RES
1 *1201:X *41:8 40.2579 
2 *41:8 *1344:D 41.0502 
*END

*D_NET *42 0.000356053
*CONN
*I *1345:D I *D sky130_fd_sc_hd__dfxtp_1
*I *1204:X O *D sky130_fd_sc_hd__and3_1
*CAP
1 *1345:D 1.55139e-05
2 *1204:X 7.94693e-05
3 *42:8 9.49831e-05
4 *1345:D *1202:A 5.92579e-05
5 *1345:D *152:10 5.92579e-05
6 *42:8 *152:10 4.08537e-05
7 *42:8 *153:10 6.7177e-06
8 *42:8 *244:115 0
*RES
1 *1204:X *42:8 39.5536 
2 *42:8 *1345:D 38.668 
*END

*D_NET *43 0.000468932
*CONN
*I *1346:D I *D sky130_fd_sc_hd__dfxtp_1
*I *1205:X O *D sky130_fd_sc_hd__o21a_1
*CAP
1 *1346:D 1.66233e-05
2 *1205:X 9.79035e-05
3 *43:10 0.000114527
4 *43:10 *1205:A2 1.39431e-05
5 *43:10 *1205:B1 0.000111852
6 *43:10 *250:27 0.000114083
*RES
1 *1205:X *43:10 40.175 
2 *43:10 *1346:D 38.1916 
*END

*D_NET *44 0.00148523
*CONN
*I *1347:D I *D sky130_fd_sc_hd__dfxtp_1
*I *1206:X O *D sky130_fd_sc_hd__or2_1
*CAP
1 *1347:D 8.69083e-05
2 *1206:X 0.000202013
3 *44:8 0.000288921
4 *1347:D *1347:CLK 0.000129006
5 *1347:D *332:10 1.41077e-05
6 *44:8 *247:151 0
7 *44:8 *250:48 0.000222183
8 *44:8 *269:107 0.000542095
*RES
1 *1206:X *44:8 45.1879 
2 *44:8 *1347:D 39.8902 
*END

*D_NET *45 0.000441207
*CONN
*I *1348:D I *D sky130_fd_sc_hd__dfxtp_1
*I *1207:Y O *D sky130_fd_sc_hd__nor2_1
*CAP
1 *1348:D 7.53811e-05
2 *1207:Y 0.000145222
3 *45:8 0.000220603
4 *45:8 *247:166 0
5 *45:8 *333:8 0
*RES
1 *1207:Y *45:8 40.61 
2 *45:8 *1348:D 39.1445 
*END

*D_NET *46 0.0011689
*CONN
*I *1349:D I *D sky130_fd_sc_hd__dfxtp_1
*I *1208:Y O *D sky130_fd_sc_hd__nor2_1
*CAP
1 *1349:D 0
2 *1208:Y 0.000242488
3 *46:6 0.000242488
4 *46:6 *1208:A 3.22879e-05
5 *46:6 *165:10 1.22822e-05
6 *46:6 *247:70 0.000539178
7 *46:6 *334:10 0.00010018
*RES
1 *1208:Y *46:6 29.8616 
2 *46:6 *1349:D 23 
*END

*D_NET *47 0.000531365
*CONN
*I *1350:D I *D sky130_fd_sc_hd__dfxtp_1
*I *1209:Y O *D sky130_fd_sc_hd__nor2_1
*CAP
1 *1350:D 0.000100866
2 *1209:Y 0.000134273
3 *47:8 0.000235139
4 *1350:D *247:70 5.50106e-05
5 *47:8 *80:72 6.07611e-06
6 *47:8 *247:70 0
*RES
1 *1209:Y *47:8 40.2579 
2 *47:8 *1350:D 39.9471 
*END

*D_NET *48 0.000362332
*CONN
*I *1351:D I *D sky130_fd_sc_hd__dfxtp_1
*I *1210:X O *D sky130_fd_sc_hd__and2_1
*CAP
1 *1351:D 1.66233e-05
2 *1210:X 0.00011712
3 *48:10 0.000133743
4 *48:10 *1118:A 5.67058e-05
5 *48:10 *247:138 3.81391e-05
*RES
1 *1210:X *48:10 40.175 
2 *48:10 *1351:D 38.1916 
*END

*D_NET *49 0.000538647
*CONN
*I *1352:D I *D sky130_fd_sc_hd__dfxtp_1
*I *1217:X O *D sky130_fd_sc_hd__o211a_1
*CAP
1 *1352:D 3.93911e-05
2 *1217:X 0.000161227
3 *49:10 0.000200618
4 *1352:D *1352:CLK 8.90341e-05
5 *49:10 *157:27 0
6 *49:10 *245:106 0
7 *49:10 *260:38 0
8 *49:10 *330:31 4.83778e-05
*RES
1 *1217:X *49:10 40.8793 
2 *49:10 *1352:D 38.9943 
*END

*D_NET *50 0.000926572
*CONN
*I *1353:D I *D sky130_fd_sc_hd__dfxtp_1
*I *1218:X O *D sky130_fd_sc_hd__o221a_1
*CAP
1 *1353:D 0
2 *1218:X 0.000448594
3 *50:6 0.000448594
4 *50:6 *331:8 2.93845e-05
*RES
1 *1218:X *50:6 31.2909 
2 *50:6 *1353:D 23 
*END

*D_NET *51 0.000444965
*CONN
*I *1354:D I *D sky130_fd_sc_hd__dfxtp_1
*I *1236:Y O *D sky130_fd_sc_hd__a21oi_1
*CAP
1 *1354:D 9.62535e-05
2 *1236:Y 0.000126229
3 *51:8 0.000222482
4 *51:8 *1354:CLK 0
5 *51:8 *292:8 0
*RES
1 *1236:Y *51:8 40.2579 
2 *51:8 *1354:D 39.6209 
*END

*D_NET *52 0.000702554
*CONN
*I *1355:D I *D sky130_fd_sc_hd__dfxtp_1
*I *1238:Y O *D sky130_fd_sc_hd__a21oi_1
*CAP
1 *1355:D 0.000225048
2 *1238:Y 0.000126229
3 *52:8 0.000351277
4 *52:8 *299:8 0
*RES
1 *1238:Y *52:8 40.2579 
2 *52:8 *1355:D 42.003 
*END

*D_NET *53 0.000685309
*CONN
*I *1356:D I *D sky130_fd_sc_hd__dfxtp_1
*I *1241:Y O *D sky130_fd_sc_hd__nor2_1
*CAP
1 *1356:D 0.000127792
2 *1241:Y 9.67411e-05
3 *53:8 0.000224534
4 *1356:D *246:57 0.000151109
5 *53:8 *178:10 0
6 *53:8 *267:51 8.51329e-05
*RES
1 *1241:Y *53:8 40.2579 
2 *53:8 *1356:D 41.0502 
*END

*D_NET *54 0.000290615
*CONN
*I *1357:D I *D sky130_fd_sc_hd__dfxtp_1
*I *1245:Y O *D sky130_fd_sc_hd__a21oi_1
*CAP
1 *1357:D 1.31802e-05
2 *1245:Y 0.000132127
3 *54:8 0.000145307
*RES
1 *1245:Y *54:8 40.2579 
2 *54:8 *1357:D 38.1916 
*END

*D_NET *55 0.000988802
*CONN
*I *1358:D I *D sky130_fd_sc_hd__dfxtp_1
*I *1247:Y O *D sky130_fd_sc_hd__a21oi_1
*CAP
1 *1358:D 0.000109781
2 *1247:Y 0.000156986
3 *55:8 0.000266767
4 *1358:D *244:178 0.000233156
5 *55:8 *183:8 0
6 *55:8 *244:178 0.000222113
*RES
1 *1247:Y *55:8 40.9621 
2 *55:8 *1358:D 40.5737 
*END

*D_NET *56 0.000725291
*CONN
*I *1359:D I *D sky130_fd_sc_hd__dfxtp_1
*I *1250:Y O *D sky130_fd_sc_hd__a21oi_1
*CAP
1 *1359:D 0
2 *1250:Y 0.000245499
3 *56:12 0.000245499
4 *56:12 *1250:B1 1.32314e-05
5 *56:12 *169:10 7.55718e-05
6 *56:12 *246:20 0.00012365
7 *56:12 *268:44 2.18409e-05
*RES
1 *1250:Y *56:12 28.4686 
2 *56:12 *1359:D 23 
*END

*D_NET *57 0.000359604
*CONN
*I *1360:D I *D sky130_fd_sc_hd__dfxtp_1
*I *1252:Y O *D sky130_fd_sc_hd__a21oi_1
*CAP
1 *1360:D 9.26771e-06
2 *1252:Y 9.63388e-05
3 *57:8 0.000105606
4 *1360:D *1251:B 1.64354e-05
5 *1360:D *186:10 4.9054e-06
6 *57:8 *1251:B 4.07715e-05
7 *57:8 *186:10 8.62783e-05
8 *57:8 *304:27 0
9 *57:8 *304:29 0
*RES
1 *1252:Y *57:8 40.2579 
2 *57:8 *1360:D 38.1916 
*END

*D_NET *58 0.000388611
*CONN
*I *1361:D I *D sky130_fd_sc_hd__dfxtp_1
*I *1256:Y O *D sky130_fd_sc_hd__a21oi_1
*CAP
1 *1361:D 6.24925e-05
2 *1256:Y 0.000110143
3 *58:8 0.000172635
4 *58:8 *236:8 4.334e-05
5 *58:8 *251:10 0
6 *58:8 *268:108 0
*RES
1 *1256:Y *58:8 40.2579 
2 *58:8 *1361:D 38.9943 
*END

*D_NET *59 0.000973634
*CONN
*I *1362:D I *D sky130_fd_sc_hd__dfxtp_1
*I *1258:Y O *D sky130_fd_sc_hd__a21oi_1
*CAP
1 *1362:D 5.81708e-05
2 *1258:Y 0.000355796
3 *59:8 0.000413967
4 *59:8 *244:67 0
5 *59:8 *244:82 0
6 *59:8 *266:111 8.62876e-05
7 *59:8 *277:10 0
8 *59:8 *306:29 5.94125e-05
*RES
1 *1258:Y *59:8 44.4836 
2 *59:8 *1362:D 38.9943 
*END

*D_NET *60 0.000100053
*CONN
*I *1410:A I *D sky130_fd_sc_hd__dlygate4sd3_1
*I *1261:X O *D sky130_fd_sc_hd__o21a_1
*CAP
1 *1410:A 2.13623e-05
2 *1261:X 2.13623e-05
3 *1410:A *1357:CLK 5.73288e-05
*RES
1 *1261:X *1410:A 46.6214 
*END

*D_NET *61 0.00096366
*CONN
*I *1364:D I *D sky130_fd_sc_hd__dfxtp_1
*I *1264:Y O *D sky130_fd_sc_hd__a21oi_1
*CAP
1 *1364:D 6.7202e-06
2 *1264:Y 0.000375152
3 *61:10 0.000381872
4 *1364:D *1286:B 1.74843e-05
5 *1364:D *293:10 4.9054e-06
6 *61:10 *1264:B1 3.7122e-06
7 *61:10 *173:58 7.30979e-06
8 *61:10 *209:10 0.000166504
9 *61:10 *294:18 0
*RES
1 *1264:Y *61:10 43.2614 
2 *61:10 *1364:D 38.1916 
*END

*D_NET *62 0.000577095
*CONN
*I *1365:D I *D sky130_fd_sc_hd__dfxtp_1
*I *1266:Y O *D sky130_fd_sc_hd__a21oi_1
*CAP
1 *1365:D 0
2 *1266:Y 0.000200416
3 *62:12 0.000200416
4 *62:12 *1231:C 2.46468e-05
5 *62:12 *266:151 0.000109222
6 *62:12 *294:6 4.23956e-05
*RES
1 *1266:Y *62:12 27.3345 
2 *62:12 *1365:D 23 
*END

*D_NET *63 0.000445674
*CONN
*I *1366:D I *D sky130_fd_sc_hd__dfxtp_1
*I *1269:Y O *D sky130_fd_sc_hd__nor2_1
*CAP
1 *1366:D 1.38132e-05
2 *1269:Y 0.000153195
3 *63:10 0.000167008
4 *1366:D *266:24 4.9054e-06
5 *63:10 *1269:A 2.81963e-05
6 *63:10 *1269:B 4.84129e-06
7 *63:10 *266:24 2.21614e-05
8 *63:10 *266:41 4.07253e-05
9 *63:10 *267:27 1.08287e-05
*RES
1 *1269:Y *63:10 40.8793 
2 *63:10 *1366:D 38.1916 
*END

*D_NET *64 0.000386913
*CONN
*I *1367:D I *D sky130_fd_sc_hd__dfxtp_1
*I *1272:Y O *D sky130_fd_sc_hd__a21oi_1
*CAP
1 *1367:D 1.03929e-05
2 *1272:Y 0.000179863
3 *64:14 0.000190256
4 *1367:D *1367:CLK 6.40123e-06
*RES
1 *1272:Y *64:14 41.6457 
2 *64:14 *1367:D 38.1916 
*END

*D_NET *65 0.000523792
*CONN
*I *1368:D I *D sky130_fd_sc_hd__dfxtp_1
*I *1274:X O *D sky130_fd_sc_hd__o21ba_1
*CAP
1 *1368:D 3.47594e-05
2 *1274:X 0.00018262
3 *65:10 0.000217379
4 *1368:D *1369:CLK 8.90341e-05
5 *65:10 *172:31 0
*RES
1 *1274:X *65:10 40.5271 
2 *65:10 *1368:D 38.9943 
*END

*D_NET *66 0.00028001
*CONN
*I *1369:D I *D sky130_fd_sc_hd__dfxtp_1
*I *1276:Y O *D sky130_fd_sc_hd__nor2_1
*CAP
1 *1369:D 1.12314e-05
2 *1276:Y 6.90544e-05
3 *66:8 8.02858e-05
4 *1369:D *165:18 5.34647e-06
5 *66:8 *201:10 0.000114092
6 *66:8 *267:73 0
*RES
1 *1276:Y *66:8 39.5536 
2 *66:8 *1369:D 38.1916 
*END

*D_NET *67 0.00128024
*CONN
*I *1370:D I *D sky130_fd_sc_hd__dfxtp_1
*I *1303:X O *D sky130_fd_sc_hd__o21a_1
*CAP
1 *1370:D 4.51763e-05
2 *1303:X 0.000434009
3 *67:8 0.000479185
4 *1370:D *247:27 8.38361e-05
5 *67:8 *1306:B 3.56537e-05
6 *67:8 *1391:A 7.55832e-05
7 *67:8 *69:14 0
8 *67:8 *229:12 0
9 *67:8 *243:36 0
10 *67:8 *247:27 0.000126793
*RES
1 *1303:X *67:8 48.005 
2 *67:8 *1370:D 38.9373 
*END

*D_NET *68 0.000304418
*CONN
*I *1371:D I *D sky130_fd_sc_hd__dfxtp_1
*I *1306:X O *D sky130_fd_sc_hd__and2b_1
*CAP
1 *1371:D 1.26271e-05
2 *1306:X 7.43226e-05
3 *68:8 8.69496e-05
4 *1371:D *1387:A 1.64354e-05
5 *68:8 *69:14 0.000114083
6 *3:11 *68:8 0
*RES
1 *1306:X *68:8 39.5536 
2 *68:8 *1371:D 38.1916 
*END

*D_NET *69 0.00201122
*CONN
*I *1372:D I *D sky130_fd_sc_hd__dfxtp_1
*I *1315:X O *D sky130_fd_sc_hd__and3_1
*CAP
1 *1372:D 0
2 *1315:X 4.96719e-05
3 *69:14 0.000778853
4 *69:8 0.000828525
5 *69:14 *1371:CLK 0.000149011
6 *69:14 *211:10 0
7 *69:14 *229:12 0
8 *69:14 *247:44 7.66188e-05
9 *69:14 *247:55 1.44546e-05
10 *3:11 *69:14 0
11 *67:8 *69:14 0
12 *68:8 *69:14 0.000114083
*RES
1 *1315:X *69:8 38.6214 
2 *69:8 *69:14 31.5352 
3 *69:14 *1372:D 23 
*END

*D_NET *70 0.000355107
*CONN
*I *1406:A I *D sky130_fd_sc_hd__dlygate4sd3_1
*I *1316:X O *D sky130_fd_sc_hd__o31a_1
*CAP
1 *1406:A 0
2 *1316:X 0.000102037
3 *70:10 0.000102037
4 *70:10 *1316:A1 3.22879e-05
5 *70:10 *247:88 7.28526e-05
6 *70:10 *261:12 4.58924e-05
*RES
1 *1316:X *70:10 40.5271 
2 *70:10 *1406:A 38 
*END

*D_NET *71 0.00150778
*CONN
*I *1374:D I *D sky130_fd_sc_hd__dfxtp_1
*I *1317:X O *D sky130_fd_sc_hd__o21a_1
*CAP
1 *1374:D 0.000149612
2 *1317:X 7.51645e-05
3 *71:8 0.000224777
4 *1374:D *1402:A 2.18409e-05
5 *1374:D *87:64 0.000239816
6 *1374:D *247:96 0.000577442
7 *71:8 *250:27 0.000166513
8 *71:8 *328:10 5.26101e-05
*RES
1 *1317:X *71:8 40.2579 
2 *71:8 *1374:D 44.8616 
*END

*D_NET *72 0.000858237
*CONN
*I *1375:D I *D sky130_fd_sc_hd__dfxtp_1
*I *1318:X O *D sky130_fd_sc_hd__o21a_1
*CAP
1 *1375:D 0.000117773
2 *1318:X 0.000236463
3 *72:8 0.000354236
4 *1375:D *329:8 5.1206e-05
5 *72:8 *87:31 0
6 *72:8 *279:10 0
7 *72:8 *284:10 8.62783e-05
8 *72:8 *291:10 1.22803e-05
*RES
1 *1318:X *72:8 42.3707 
2 *72:8 *1375:D 40.0973 
*END

*D_NET *73 0.00038166
*CONN
*I *1376:D I *D sky130_fd_sc_hd__dfxtp_1
*I *1319:X O *D sky130_fd_sc_hd__a31o_1
*CAP
1 *1376:D 6.24925e-05
2 *1319:X 0.000100272
3 *73:8 0.000162764
4 *73:8 *255:32 0
5 *73:8 *269:57 5.61311e-05
*RES
1 *1319:X *73:8 40.2579 
2 *73:8 *1376:D 38.9943 
*END

*D_NET *74 0.000483652
*CONN
*I *1377:D I *D sky130_fd_sc_hd__dfxtp_1
*I *1320:Y O *D sky130_fd_sc_hd__nor2_1
*CAP
1 *1377:D 3.73802e-05
2 *1320:Y 3.73802e-05
3 *1377:D *1158:B 0.000170785
4 *1377:D *1320:A 9.75779e-05
5 *1377:D *1377:CLK 2.4754e-05
6 *1377:D *269:25 0.000115774
*RES
1 *1320:Y *1377:D 48.3666 
*END

*D_NET *75 0.000581432
*CONN
*I *1378:D I *D sky130_fd_sc_hd__dfxtp_1
*I *1322:Y O *D sky130_fd_sc_hd__nor3_1
*CAP
1 *1378:D 0
2 *1322:Y 9.76982e-05
3 *75:12 9.76982e-05
4 *75:12 *1322:B 0.000144982
5 *75:12 *1378:CLK 1.14154e-05
6 *75:12 *238:12 9.84794e-05
7 *75:12 *245:127 2.32101e-05
8 *75:12 *245:142 0.00010795
*RES
1 *1322:Y *75:12 27.0393 
2 *75:12 *1378:D 23 
*END

*D_NET *76 0.000446017
*CONN
*I *1379:D I *D sky130_fd_sc_hd__dfxtp_1
*I *1323:Y O *D sky130_fd_sc_hd__nor2_1
*CAP
1 *1379:D 1.5148e-05
2 *1323:Y 9.81639e-05
3 *76:10 0.000113312
4 *1379:D *311:10 3.24476e-06
5 *76:10 *1323:B 9.21347e-06
6 *76:10 *124:12 3.83778e-05
7 *76:10 *250:14 0.000111852
8 *76:10 *269:25 5.67058e-05
*RES
1 *1323:Y *76:10 40.175 
2 *76:10 *1379:D 38.1916 
*END

*D_NET *77 0.000454602
*CONN
*I *1380:D I *D sky130_fd_sc_hd__dfxtp_2
*I *1328:X O *D sky130_fd_sc_hd__a21o_1
*CAP
1 *1380:D 5.33781e-05
2 *1328:X 6.55153e-05
3 *77:8 0.000118893
4 *1380:D *254:12 0.000102732
5 *77:8 *242:10 0
6 *77:8 *269:90 0.000114083
*RES
1 *1328:X *77:8 39.5536 
2 *77:8 *1380:D 39.1445 
*END

*D_NET *78 0.000329821
*CONN
*I *1381:D I *D sky130_fd_sc_hd__dfxtp_1
*I *1329:X O *D sky130_fd_sc_hd__o21a_1
*CAP
1 *1381:D 3.45771e-05
2 *1329:X 7.16565e-05
3 *78:8 0.000106234
4 *1381:D *1381:CLK 5.92579e-05
5 *78:8 *247:123 0
6 *78:8 *250:48 5.80963e-05
7 *78:8 *341:12 0
*RES
1 *1329:X *78:8 39.5536 
2 *78:8 *1381:D 38.668 
*END

*D_NET *79 0.0020383
*CONN
*I *1222:A1 I *D sky130_fd_sc_hd__o22ai_1
*I *1223:A1 I *D sky130_fd_sc_hd__a2111o_1
*I *1277:B I *D sky130_fd_sc_hd__or3_1
*I *1110:Y O *D sky130_fd_sc_hd__inv_2
*CAP
1 *1222:A1 0.000121784
2 *1223:A1 0.000100465
3 *1277:B 0.000175267
4 *1110:Y 0
5 *79:21 0.000616292
6 *79:6 0.000569309
7 *1222:A1 *1207:A 9.54772e-05
8 *1222:A1 *82:40 1.94812e-05
9 *1223:A1 *1222:B1 0.00010018
10 *1223:A1 *82:40 1.40958e-05
11 *1277:B *1110:A 8.4047e-05
12 *1277:B *154:8 9.58714e-05
13 *1277:B *154:10 3.47781e-05
14 *1277:B *269:107 0
15 *1277:B *341:37 1.12487e-05
16 *79:21 *1223:B1 0
17 *79:21 *250:58 0
18 *79:21 *269:107 0
*RES
1 *1110:Y *79:6 38 
2 *79:6 *1277:B 41.0036 
3 *79:6 *79:21 21.8357 
4 *79:21 *1223:A1 24.5743 
5 *79:21 *1222:A1 25.9414 
*END

*D_NET *80 0.00834522
*CONN
*I *1219:B2 I *D sky130_fd_sc_hd__a22o_1
*I *1209:A I *D sky130_fd_sc_hd__nor2_1
*I *1280:A1 I *D sky130_fd_sc_hd__a21oi_1
*I *1127:A I *D sky130_fd_sc_hd__or3_1
*I *1300:C I *D sky130_fd_sc_hd__and3b_1
*I *1111:Y O *D sky130_fd_sc_hd__inv_2
*CAP
1 *1219:B2 0
2 *1209:A 0
3 *1280:A1 0.000269925
4 *1127:A 0.000331991
5 *1300:C 0.000149726
6 *1111:Y 0.000102641
7 *80:72 0.000795203
8 *80:55 0.00101693
9 *80:18 0.00087038
10 *80:14 0.00117212
11 *80:8 0.000837904
12 *1127:A *1308:A 0.000355023
13 *1127:A *231:10 5.50049e-05
14 *1127:A *247:84 0.000113302
15 *1280:A1 *1122:B 9.62666e-05
16 *1280:A1 *1280:B1 2.02517e-05
17 *1280:A1 *90:10 3.16665e-05
18 *1280:A1 *338:8 0.000122212
19 *1300:C *202:33 0.000111852
20 *1300:C *339:23 0.000141052
21 *1300:C *340:22 0.000114083
22 *80:14 *1221:A1 8.11552e-05
23 *80:14 *338:8 7.24365e-05
24 *80:14 *340:14 0.000223034
25 *80:14 *340:69 0.000131735
26 *80:18 *81:49 0
27 *80:18 *202:33 8.62876e-05
28 *80:18 *338:16 2.99716e-05
29 *80:18 *340:14 0
30 *80:18 *340:22 2.55642e-05
31 *80:55 *1221:A1 8.62876e-05
32 *80:55 *250:66 7.90999e-05
33 *80:55 *334:16 0
34 *80:72 *1208:A 7.42621e-05
35 *80:72 *1224:B1 5.70419e-05
36 *80:72 *85:8 6.07611e-06
37 *80:72 *164:10 0.000234989
38 *80:72 *165:10 0.000402806
39 *80:72 *247:70 0
40 *80:72 *334:16 0
41 *80:72 *335:10 4.08537e-05
42 *47:8 *80:72 6.07611e-06
*RES
1 *1111:Y *80:8 39.0979 
2 *80:8 *80:14 24.7357 
3 *80:14 *80:18 22.1879 
4 *80:18 *1300:C 41.1279 
5 *80:18 *1127:A 44.8357 
6 *80:14 *1280:A1 28.9243 
7 *80:8 *80:55 4.72286 
8 *80:55 *1209:A 38 
9 *80:55 *80:72 43.0293 
10 *80:72 *1219:B2 38 
*END

*D_NET *81 0.00988262
*CONN
*I *1208:A I *D sky130_fd_sc_hd__nor2_1
*I *1224:A1 I *D sky130_fd_sc_hd__a211o_1
*I *1220:A1 I *D sky130_fd_sc_hd__o22ai_1
*I *1280:A2 I *D sky130_fd_sc_hd__a21oi_1
*I *1123:B I *D sky130_fd_sc_hd__or3_2
*I *1300:B I *D sky130_fd_sc_hd__and3b_1
*I *1305:A1 I *D sky130_fd_sc_hd__o32a_1
*I *1112:Y O *D sky130_fd_sc_hd__inv_2
*CAP
1 *1208:A 0.000189034
2 *1224:A1 0
3 *1220:A1 0.000176479
4 *1280:A2 0
5 *1123:B 0
6 *1300:B 0
7 *1305:A1 0
8 *1112:Y 0
9 *81:81 0.000290737
10 *81:62 0.000732466
11 *81:49 0.00088101
12 *81:38 0.000704595
13 *81:31 0.000420529
14 *81:20 0.000682095
15 *81:4 0.000824755
16 *1208:A *1208:B 5.67058e-05
17 *1208:A *1224:A2 9.84851e-05
18 *1208:A *1224:B1 2.02517e-05
19 *1208:A *165:10 0.000619272
20 *1208:A *250:66 0.000120403
21 *1208:A *334:10 0.000251581
22 *1220:A1 *1220:B2 2.18778e-05
23 *1220:A1 *1221:A1 1.68475e-05
24 *1220:A1 *1221:B2 0
25 *1220:A1 *1221:C1 2.63684e-05
26 *81:20 *1298:B 4.6318e-06
27 *81:20 *1305:A2 2.60748e-05
28 *81:20 *155:16 0
29 *81:20 *218:12 0.000349395
30 *81:20 *223:10 0.000168744
31 *81:20 *223:23 0.000179693
32 *81:20 *225:8 0
33 *81:20 *225:22 2.70469e-05
34 *81:20 *227:8 0.000376261
35 *81:20 *228:8 5.67058e-05
36 *81:20 *237:31 8.4047e-05
37 *81:20 *243:10 1.64402e-05
38 *81:20 *243:36 5.08899e-05
39 *81:20 *339:23 1.32939e-05
40 *81:31 *339:23 9.36522e-05
41 *81:38 *339:23 2.25419e-05
42 *81:38 *340:22 0.000176355
43 *81:49 *1122:A 4.21594e-06
44 *81:49 *202:33 0
45 *81:49 *231:10 0.00021673
46 *81:49 *287:10 0.000418529
47 *81:49 *287:20 0.000265999
48 *81:49 *340:22 2.93747e-05
49 *81:49 *340:33 2.02872e-05
50 *81:62 *1122:A 6.53609e-05
51 *81:62 *1220:B1 9.74124e-06
52 *81:62 *1221:B2 2.00852e-05
53 *81:62 *1221:C1 4.95081e-05
54 *81:62 *287:10 0.000718646
55 *81:62 *334:16 0
56 *81:62 *341:56 0.000134917
57 *81:81 *287:10 0
58 *81:81 *334:16 4.3407e-05
59 *46:6 *1208:A 3.22879e-05
60 *80:18 *81:49 0
61 *80:72 *1208:A 7.42621e-05
*RES
1 *1112:Y *81:4 23 
2 *81:4 *81:20 47.11 
3 *81:20 *1305:A1 23 
4 *81:4 *81:31 3.52143 
5 *81:31 *1300:B 23 
6 *81:31 *81:38 4.43286 
7 *81:38 *1123:B 23 
8 *81:38 *81:49 25.3986 
9 *81:49 *1280:A2 38 
10 *81:49 *81:62 26.7036 
11 *81:62 *1220:A1 26.19 
12 *81:62 *81:81 31.9057 
13 *81:81 *1224:A1 23 
14 *81:81 *1208:A 32.2386 
*END

*D_NET *82 0.00703285
*CONN
*I *1129:B I *D sky130_fd_sc_hd__nand2_1
*I *1207:A I *D sky130_fd_sc_hd__nor2_1
*I *1222:B2 I *D sky130_fd_sc_hd__o22ai_1
*I *1219:A1 I *D sky130_fd_sc_hd__a22o_1
*I *1290:A I *D sky130_fd_sc_hd__nor2_1
*I *1113:Y O *D sky130_fd_sc_hd__inv_2
*CAP
1 *1129:B 0.000263935
2 *1207:A 5.00156e-05
3 *1222:B2 0
4 *1219:A1 0
5 *1290:A 0
6 *1113:Y 0
7 *82:40 0.000317153
8 *82:31 0.000964474
9 *82:19 0.000981329
10 *82:12 0.000517634
11 *82:4 0.000537692
12 *1129:B *205:10 7.88828e-05
13 *1129:B *337:77 0.000128466
14 *1207:A *332:10 8.6732e-05
15 *1207:A *332:18 5.67058e-05
16 *82:12 *90:10 0
17 *82:12 *93:10 0.000503524
18 *82:12 *205:10 0.000122931
19 *82:12 *208:6 0.000271476
20 *82:12 *259:25 0.000269769
21 *82:12 *337:34 0
22 *82:12 *339:40 0
23 *82:12 *340:43 0
24 *82:31 *1113:A 0.00010018
25 *82:31 *1280:B1 3.47099e-05
26 *82:31 *85:8 0
27 *82:31 *90:10 1.24376e-05
28 *82:31 *205:10 1.22822e-05
29 *82:31 *285:8 7.7086e-05
30 *82:31 *287:10 0.000407471
31 *82:40 *1116:A 0.000120935
32 *82:40 *1219:A2 0.0002792
33 *82:40 *1222:B1 7.88926e-05
34 *82:40 *1223:D1 0.000117759
35 *82:40 *164:10 0.000370167
36 *82:40 *332:18 0.00014196
37 *1222:A1 *1207:A 9.54772e-05
38 *1222:A1 *82:40 1.94812e-05
39 *1223:A1 *82:40 1.40958e-05
*RES
1 *1113:Y *82:4 23 
2 *82:4 *82:12 43.7129 
3 *82:12 *1290:A 23 
4 *82:4 *82:19 0.497143 
5 *82:19 *82:31 44.2307 
6 *82:31 *1219:A1 23 
7 *82:31 *82:40 10.0464 
8 *82:40 *1222:B2 23 
9 *82:40 *1207:A 25.5996 
10 *82:19 *1129:B 28.8829 
*END

*D_NET *83 0.000771689
*CONN
*I *1273:A1 I *D sky130_fd_sc_hd__a41o_1
*I *1114:Y O *D sky130_fd_sc_hd__inv_2
*CAP
1 *1273:A1 0
2 *1114:Y 0.000205764
3 *83:6 0.000205764
4 *83:6 *1271:A 2.32004e-05
5 *83:6 *172:12 2.18409e-05
6 *83:6 *172:38 6.17437e-06
7 *83:6 *267:14 0.000308946
*RES
1 *1114:Y *83:6 27.4329 
2 *83:6 *1273:A1 23 
*END

*D_NET *84 0.000294275
*CONN
*I *1292:A1 I *D sky130_fd_sc_hd__a21oi_1
*I *1115:Y O *D sky130_fd_sc_hd__inv_2
*CAP
1 *1292:A1 0
2 *1115:Y 9.23792e-05
3 *84:8 9.23792e-05
4 *84:8 *1213:A2 8.41115e-05
5 *84:8 *217:10 2.54046e-05
6 *84:8 *222:10 0
*RES
1 *1115:Y *84:8 40.2579 
2 *84:8 *1292:A1 38 
*END

*D_NET *85 0.000750605
*CONN
*I *1221:A2 I *D sky130_fd_sc_hd__a221o_1
*I *1116:Y O *D sky130_fd_sc_hd__inv_2
*CAP
1 *1221:A2 7.66907e-05
2 *1116:Y 0.000192187
3 *85:8 0.000268877
4 *1221:A2 *86:12 0.000206774
5 *85:8 *162:10 0
6 *85:8 *287:10 0
7 *80:72 *85:8 6.07611e-06
8 *82:31 *85:8 0
*RES
1 *1116:Y *85:8 40.61 
2 *85:8 *1221:A2 40.2889 
*END

*D_NET *86 0.00422546
*CONN
*I *1221:B1 I *D sky130_fd_sc_hd__a221o_1
*I *1220:B1 I *D sky130_fd_sc_hd__o22ai_1
*I *1117:Y O *D sky130_fd_sc_hd__inv_2
*CAP
1 *1221:B1 0
2 *1220:B1 0.000107526
3 *1117:Y 9.53488e-05
4 *86:12 0.0011493
5 *86:8 0.00113712
6 *1220:B1 *1220:B2 5.50049e-05
7 *1220:B1 *1221:A1 0.000290554
8 *1220:B1 *1221:B2 0.000106568
9 *86:8 *247:151 0
10 *86:8 *336:8 0
11 *86:12 *1221:A1 1.14876e-05
12 *86:12 *162:10 0.000445374
13 *86:12 *250:48 0.000610665
14 *1221:A2 *86:12 0.000206774
15 *81:62 *1220:B1 9.74124e-06
*RES
1 *1117:Y *86:8 39.5536 
2 *86:8 *86:12 37.5371 
3 *86:12 *1220:B1 26.7286 
4 *86:12 *1221:B1 23 
*END

*D_NET *87 0.0166708
*CONN
*I *1210:B I *D sky130_fd_sc_hd__and2_1
*I *1316:B1 I *D sky130_fd_sc_hd__o31a_1
*I *1296:A1 I *D sky130_fd_sc_hd__a21oi_1
*I *1287:A1 I *D sky130_fd_sc_hd__a41o_1
*I *1312:C1 I *D sky130_fd_sc_hd__o311a_1
*I *1318:B1 I *D sky130_fd_sc_hd__o21a_1
*I *1317:B1 I *D sky130_fd_sc_hd__o21a_1
*I *1205:B1 I *D sky130_fd_sc_hd__o21a_1
*I *1329:B1 I *D sky130_fd_sc_hd__o21a_1
*I *1118:Y O *D sky130_fd_sc_hd__inv_2
*CAP
1 *1210:B 3.88261e-05
2 *1316:B1 0
3 *1296:A1 0.000160534
4 *1287:A1 0.000178226
5 *1312:C1 0
6 *1318:B1 0.000110643
7 *1317:B1 0
8 *1205:B1 0.000368395
9 *1329:B1 0.000210475
10 *1118:Y 0.000214959
11 *87:83 0.000569539
12 *87:74 0.000767274
13 *87:64 0.00315485
14 *87:48 0.000110643
15 *87:33 0.00043622
16 *87:31 0.00270995
17 *87:25 0.000866886
18 *87:12 0.000810114
19 *87:8 0.000471868
20 *1205:B1 *250:27 0.000273789
21 *1210:B *247:138 0
22 *1210:B *341:106 6.48142e-05
23 *1287:A1 *1287:A2 5.41385e-05
24 *1287:A1 *210:14 0
25 *1287:A1 *214:8 0
26 *1287:A1 *221:12 1.97329e-05
27 *1287:A1 *243:14 7.41334e-05
28 *1296:A1 *1296:B1 5.3304e-05
29 *1296:A1 *155:45 4.79544e-05
30 *1296:A1 *214:19 0.000299117
31 *1296:A1 *221:8 0.000121021
32 *1318:B1 *254:12 0.000271476
33 *1329:B1 *341:22 0.000141954
34 *87:8 *1118:A 4.79498e-05
35 *87:8 *341:106 2.93845e-05
36 *87:12 *247:123 0
37 *87:12 *247:138 0
38 *87:12 *261:27 0
39 *87:12 *341:106 0.000223034
40 *87:25 *247:88 0
41 *87:25 *247:123 0
42 *87:25 *261:12 0.000266259
43 *87:25 *261:27 0
44 *87:25 *262:8 0.00025214
45 *87:25 *272:8 0.000170827
46 *87:31 *250:27 0.000349187
47 *87:31 *252:8 0
48 *87:31 *261:12 0.000193379
49 *87:31 *262:8 0.000140949
50 *87:31 *279:10 0
51 *87:31 *291:10 1.83667e-05
52 *87:33 *250:27 0.00015822
53 *87:33 *284:10 2.04774e-05
54 *87:33 *291:10 4.08537e-05
55 *87:64 *1326:B1 9.74625e-05
56 *87:64 *1326:C1 4.94192e-05
57 *87:64 *1402:A 1.79471e-05
58 *87:64 *155:16 0.00137407
59 *87:64 *247:96 3.45353e-05
60 *87:64 *247:104 2.4754e-05
61 *87:74 *210:14 0
62 *87:74 *211:16 0
63 *87:74 *229:12 0
64 *87:74 *234:10 0
65 *87:83 *221:12 0.000104945
66 *87:83 *243:14 7.73198e-05
67 *87:83 *243:36 2.68708e-05
68 group_error *1205:B1 0
69 *1374:D *87:64 0.000239816
70 *11:11 *1205:B1 0
71 *43:10 *1205:B1 0.000111852
72 *72:8 *87:31 0
*RES
1 *1118:Y *87:8 41.0036 
2 *87:8 *87:12 19.7229 
3 *87:12 *1329:B1 26.9564 
4 *87:12 *87:25 25.0464 
5 *87:25 *87:31 11.02 
6 *87:31 *87:33 2.25786 
7 *87:33 *1205:B1 47.0107 
8 *87:33 *87:48 15 
9 *87:48 *1317:B1 23 
10 *87:48 *1318:B1 26.0036 
11 *87:31 *87:64 46.5893 
12 *87:64 *87:74 40.15 
13 *87:74 *1312:C1 23 
14 *87:64 *87:83 19.7229 
15 *87:83 *1287:A1 42.06 
16 *87:83 *1296:A1 42.9093 
17 *87:25 *1316:B1 38 
18 *87:8 *1210:B 39.2014 
*END

*D_NET *88 0.00752784
*CONN
*I *1134:A I *D sky130_fd_sc_hd__and4_1
*I *1145:A1 I *D sky130_fd_sc_hd__a31oi_1
*I *1120:A I *D sky130_fd_sc_hd__inv_2
*I *1218:A1 I *D sky130_fd_sc_hd__o221a_1
*I *1321:B2 I *D sky130_fd_sc_hd__o221a_1
*I *1119:X O *D sky130_fd_sc_hd__or4b_2
*CAP
1 *1134:A 0
2 *1145:A1 0
3 *1120:A 0
4 *1218:A1 0
5 *1321:B2 3.71453e-05
6 *1119:X 0.000136605
7 *88:67 0.000447026
8 *88:57 0.000725624
9 *88:51 0.00121531
10 *88:30 0.00117717
11 *88:18 0.000650583
12 *88:12 0.000583874
13 *1321:B2 *1321:A2 2.93845e-05
14 *1321:B2 *109:8 5.41385e-05
15 *88:12 *1125:C 4.08641e-05
16 *88:12 *96:10 2.14808e-05
17 *88:12 *308:31 0.000113153
18 *88:12 *309:30 2.80767e-05
19 *88:12 *311:23 5.58152e-06
20 *88:18 *110:10 0.000214998
21 *88:18 *309:19 0
22 *88:18 *309:30 0
23 *88:18 *311:23 5.012e-05
24 *88:30 *1145:A3 0.000155386
25 *88:30 *1321:A2 2.1136e-05
26 *88:30 *1321:B1 7.89128e-06
27 *88:30 *109:8 2.32725e-05
28 *88:51 *1150:B 8.21456e-06
29 *88:51 *1156:D1 2.26497e-05
30 *88:51 *245:25 0
31 *88:51 *253:12 6.54229e-05
32 *88:57 *104:14 0.000615945
33 *88:67 *1218:B1 0
34 *88:67 *157:12 5.50106e-05
35 *88:67 *157:21 0.000169595
36 *88:67 *159:10 0.000194318
37 *88:67 *243:14 8.92841e-05
38 *88:67 *260:38 0.000136739
39 *88:67 *270:38 0.000431843
*RES
1 *1119:X *88:12 41.3764 
2 *88:12 *88:18 24.0729 
3 *88:18 *88:30 5.26143 
4 *88:30 *1321:B2 24.0979 
5 *88:30 *88:51 48.8535 
6 *88:51 *88:57 7.93357 
7 *88:57 *88:67 42.0971 
8 *88:67 *1218:A1 23 
9 *88:57 *1120:A 23 
10 *88:18 *1145:A1 23 
11 *88:12 *1134:A 38 
*END

*D_NET *89 0.000720545
*CONN
*I *1280:B1 I *D sky130_fd_sc_hd__a21oi_1
*I *1121:Y O *D sky130_fd_sc_hd__nor3_1
*CAP
1 *1280:B1 6.08611e-05
2 *1121:Y 8.72356e-05
3 *89:8 0.000148097
4 *1280:B1 *1113:A 5.50106e-05
5 *1280:B1 *90:10 1.57571e-05
6 *1280:B1 *205:10 0.000137651
7 *89:8 *285:8 0.000135557
8 *89:8 *337:94 2.5415e-05
9 *1280:A1 *1280:B1 2.02517e-05
10 *82:31 *1280:B1 3.47099e-05
*RES
1 *1121:Y *89:8 39.9057 
2 *89:8 *1280:B1 40.0714 
*END

*D_NET *90 0.00193776
*CONN
*I *1127:C I *D sky130_fd_sc_hd__or3_1
*I *1123:C I *D sky130_fd_sc_hd__or3_2
*I *1122:X O *D sky130_fd_sc_hd__or3_1
*CAP
1 *1127:C 0
2 *1123:C 0.000174508
3 *1122:X 0.000426848
4 *90:10 0.000601355
5 *1123:C *93:10 5.93485e-05
6 *1123:C *202:44 1.14452e-05
7 *1123:C *287:20 5.51325e-05
8 *1123:C *339:23 0.000181125
9 *1123:C *340:33 0.000182826
10 *90:10 *1122:B 7.96152e-06
11 *90:10 *93:10 2.54046e-05
12 *90:10 *202:44 5.01986e-05
13 *90:10 *287:10 0.000101749
14 *1280:A1 *90:10 3.16665e-05
15 *1280:B1 *90:10 1.57571e-05
16 *82:12 *90:10 0
17 *82:31 *90:10 1.24376e-05
*RES
1 *1122:X *90:10 45.6021 
2 *90:10 *1123:C 42.6607 
3 *90:10 *1127:C 38 
*END

*D_NET *91 0.00427147
*CONN
*I *1307:A I *D sky130_fd_sc_hd__or3b_1
*I *1324:B I *D sky130_fd_sc_hd__or4_1
*I *1124:A I *D sky130_fd_sc_hd__inv_2
*I *1213:A1 I *D sky130_fd_sc_hd__a21oi_1
*I *1123:X O *D sky130_fd_sc_hd__or3_2
*CAP
1 *1307:A 0
2 *1324:B 0.000204899
3 *1124:A 6.68773e-05
4 *1213:A1 0
5 *1123:X 4.25104e-05
6 *91:16 0.000253604
7 *91:12 0.000403651
8 *91:10 0.000766341
9 *91:8 0.000796826
10 *1124:A *1213:B1 0.000143655
11 *1124:A *156:8 5.41385e-05
12 *1124:A *255:10 4.95081e-05
13 *1324:B *1324:C 2.93845e-05
14 *91:8 *339:23 5.50049e-05
15 *91:10 *1291:A 0.00021197
16 *91:10 *1301:A1_N 0
17 *91:10 *1309:A3 0
18 *91:10 *202:33 0
19 *91:10 *214:38 0.000164282
20 *91:10 *215:10 0.000135547
21 *91:10 *215:22 5.05059e-05
22 *91:10 *225:8 0
23 *91:10 *230:8 0.000121912
24 *91:10 *231:10 0.000221077
25 *91:10 *254:27 0.000419189
26 *91:10 *254:55 0
27 *91:10 *259:31 0
28 *91:10 *259:45 8.05936e-05
29 *91:10 *330:73 0
30 *91:10 *340:22 0
31 *91:12 *330:73 0
32 *91:16 *330:73 0
*RES
1 *1123:X *91:8 38.6214 
2 *91:8 *91:10 18.1043 
3 *91:10 *91:12 0.321071 
4 *91:12 *91:16 17.7861 
5 *91:16 *1213:A1 23 
6 *91:16 *1124:A 25.5271 
7 *91:12 *1324:B 40.8689 
8 *91:10 *1307:A 38 
*END

*D_NET *92 0.00129826
*CONN
*I *1126:A I *D sky130_fd_sc_hd__inv_2
*I *1134:B I *D sky130_fd_sc_hd__and4_1
*I *1125:X O *D sky130_fd_sc_hd__or4b_1
*CAP
1 *1126:A 0.000195832
2 *1134:B 9.72975e-05
3 *1125:X 0
4 *92:4 0.00029313
5 *1126:A *1125:B 9.58714e-05
6 *1126:A *1125:D_N 0.000308188
7 *1126:A *308:31 1.03836e-05
8 *1134:B *1125:B 1.22822e-05
9 *1134:B *1125:C 4.5051e-05
10 *1134:B *1125:D_N 0
11 *1134:B *1134:C 0
12 *1134:B *96:14 0.000136738
13 *1134:B *308:31 0.000103485
*RES
1 *1125:X *92:4 23 
2 *92:4 *1134:B 25.9 
3 *92:4 *1126:A 27.8057 
*END

*D_NET *93 0.00842933
*CONN
*I *1130:B1 I *D sky130_fd_sc_hd__o21ai_1
*I *1301:A1_N I *D sky130_fd_sc_hd__a2bb2o_1
*I *1309:A3 I *D sky130_fd_sc_hd__o311a_1
*I *1325:B1 I *D sky130_fd_sc_hd__a2bb2o_1
*I *1127:X O *D sky130_fd_sc_hd__or3_1
*CAP
1 *1130:B1 0
2 *1301:A1_N 0.000143893
3 *1309:A3 9.93879e-05
4 *1325:B1 0.000327794
5 *1127:X 0
6 *93:61 0.00105267
7 *93:27 0.000768081
8 *93:10 0.00139786
9 *93:4 0.00159793
10 *1301:A1_N *1301:B1 9.5877e-05
11 *1301:A1_N *215:22 2.24054e-06
12 *1301:A1_N *216:8 2.64616e-05
13 *1301:A1_N *216:16 3.14861e-05
14 *1309:A3 *216:16 8.51432e-05
15 *1309:A3 *230:8 1.14452e-05
16 *1325:B1 *1325:B2 0.000213872
17 *1325:B1 *1327:A2 0.000187129
18 *1325:B1 *231:10 0
19 *1325:B1 *254:55 0.00010018
20 *1325:B1 *337:34 0
21 *93:10 *202:25 5.3304e-05
22 *93:10 *231:10 0
23 *93:10 *287:20 0
24 *93:10 *337:34 0
25 *93:27 *1301:B1 9.84851e-05
26 *93:27 *216:8 2.31797e-05
27 *93:27 *287:20 1.53864e-05
28 *93:61 *1329:A2 9.67719e-05
29 *93:61 *202:25 0.000255642
30 *93:61 *206:8 0.000778451
31 *93:61 *206:12 0.000275473
32 *93:61 *247:84 8.54813e-05
33 *93:61 *247:123 1.12487e-05
34 *93:61 *261:6 6.17437e-06
35 *1123:C *93:10 5.93485e-05
36 *82:12 *93:10 0.000503524
37 *90:10 *93:10 2.54046e-05
38 *91:10 *1301:A1_N 0
39 *91:10 *1309:A3 0
*RES
1 *1127:X *93:4 23 
2 *93:4 *93:10 25.9786 
3 *93:10 *1325:B1 45.7679 
4 *93:10 *93:27 36.815 
5 *93:27 *1309:A3 40.2579 
6 *93:27 *1301:A1_N 40.7136 
7 *93:4 *93:61 48.125 
8 *93:61 *1130:B1 23 
*END

*D_NET *94 0.00119116
*CONN
*I *1130:A1 I *D sky130_fd_sc_hd__o21ai_1
*I *1212:A I *D sky130_fd_sc_hd__or2_1
*I *1128:X O *D sky130_fd_sc_hd__or3_1
*CAP
1 *1130:A1 0.00028488
2 *1212:A 0
3 *1128:X 0.000123216
4 *94:8 0.000408096
5 *1130:A1 *1130:A2 2.98648e-05
6 *1130:A1 *1212:B 8.60475e-05
7 *1130:A1 *1401:A 0.000168821
8 *94:8 *1128:A 1.24376e-05
9 *94:8 *1212:B 5.3304e-05
10 *94:8 *1401:A 2.44913e-05
*RES
1 *1128:X *94:8 25.0714 
2 *94:8 *1212:A 23 
3 *94:8 *1130:A1 28.8829 
*END

*D_NET *95 0.00266794
*CONN
*I *1279:A1 I *D sky130_fd_sc_hd__a31o_1
*I *1130:A2 I *D sky130_fd_sc_hd__o21ai_1
*I *1129:Y O *D sky130_fd_sc_hd__nand2_1
*CAP
1 *1279:A1 0
2 *1130:A2 0.000426852
3 *1129:Y 0.000234947
4 *95:10 0.000661799
5 *1130:A2 *1212:B 0.000191166
6 *1130:A2 *1401:A 0.000400204
7 *1130:A2 *154:10 1.14452e-05
8 *1130:A2 *155:8 1.83667e-05
9 *1130:A2 *250:48 0
10 *1130:A2 *269:90 0
11 *1130:A2 *283:8 4.48671e-05
12 *95:10 *1129:A 4.9662e-05
13 *95:10 *154:10 0.000364788
14 *95:10 *283:8 6.43149e-05
15 *95:10 *341:22 0.000169665
16 *1130:A1 *1130:A2 2.98648e-05
*RES
1 *1129:Y *95:10 44.1729 
2 *95:10 *1130:A2 47.1764 
3 *95:10 *1279:A1 38 
*END

*D_NET *96 0.00566661
*CONN
*I *1134:C I *D sky130_fd_sc_hd__and4_1
*I *1145:A2 I *D sky130_fd_sc_hd__a31oi_1
*I *1150:A I *D sky130_fd_sc_hd__or3_1
*I *1132:A I *D sky130_fd_sc_hd__inv_2
*I *1149:A I *D sky130_fd_sc_hd__nor2_1
*I *1131:X O *D sky130_fd_sc_hd__or4b_2
*CAP
1 *1134:C 2.43835e-05
2 *1145:A2 0
3 *1150:A 0
4 *1132:A 0
5 *1149:A 0
6 *1131:X 0.000302471
7 *96:40 0.000377522
8 *96:32 0.000480141
9 *96:26 0.000411477
10 *96:20 0.000769335
11 *96:14 0.000538757
12 *96:10 0.000356366
13 *96:10 *1131:C 0.000267173
14 *96:10 *308:31 0.000110922
15 *96:10 *311:23 3.41998e-06
16 *96:10 *311:36 6.66453e-05
17 *96:14 *1125:B 9.45591e-05
18 *96:14 *1125:C 1.76557e-05
19 *96:20 *1125:B 2.93845e-05
20 *96:20 *1125:C 5.37348e-06
21 *96:20 *1150:B 0
22 *96:20 *98:46 1.94693e-05
23 *96:20 *101:16 6.35758e-05
24 *96:20 *101:34 4.21594e-06
25 *96:20 *238:12 5.93017e-05
26 *96:26 *1150:B 4.94073e-05
27 *96:26 *101:34 0.000539757
28 *96:32 *1150:B 7.53384e-06
29 *96:32 *1150:C 5.67058e-05
30 *96:32 *101:34 4.94545e-05
31 *96:32 *122:10 9.84794e-05
32 *96:40 *1144:A 0.000159657
33 *96:40 *1149:B 8.40819e-05
34 *96:40 *1150:C 2.48636e-05
35 *96:40 *1156:A2 0
36 *96:40 *98:10 0.000211979
37 *96:40 *101:34 9.84851e-05
38 *96:40 *112:19 0
39 *96:40 *118:10 7.63302e-05
40 *96:40 *122:10 4.95081e-05
41 *96:40 *245:25 0
42 *96:40 *255:32 0
43 *1134:B *1134:C 0
44 *1134:B *96:14 0.000136738
45 *88:12 *96:10 2.14808e-05
*RES
1 *1131:X *96:10 43.2614 
2 *96:10 *96:14 17.0507 
3 *96:14 *96:20 23.8243 
4 *96:20 *96:26 22.9957 
5 *96:26 *96:32 3.045 
6 *96:32 *96:40 39.3421 
7 *96:40 *1149:A 23 
8 *96:32 *1132:A 23 
9 *96:26 *1150:A 23 
10 *96:20 *1145:A2 38 
11 *96:14 *1134:C 23.4971 
*END

*D_NET *97 0.00145609
*CONN
*I *1155:B1 I *D sky130_fd_sc_hd__o31ai_1
*I *1132:Y O *D sky130_fd_sc_hd__inv_2
*CAP
1 *1155:B1 0.000137378
2 *1132:Y 0.000173825
3 *97:10 0.000311203
4 *1155:B1 *1155:A1 0.000272377
5 *1155:B1 *108:25 0.000187129
6 *1155:B1 *112:19 1.72202e-05
7 *1155:B1 *245:25 0.000267167
8 *97:10 *1148:A 0
9 *97:10 *122:10 5.50106e-05
10 *97:10 *245:31 3.47781e-05
*RES
1 *1132:Y *97:10 40.8793 
2 *97:10 *1155:B1 43.3857 
*END

*D_NET *98 0.00482749
*CONN
*I *1134:D I *D sky130_fd_sc_hd__and4_1
*I *1156:B1 I *D sky130_fd_sc_hd__a2111o_1
*I *1144:A I *D sky130_fd_sc_hd__or3_1
*I *1133:X O *D sky130_fd_sc_hd__or4b_1
*CAP
1 *1134:D 0
2 *1156:B1 0
3 *1144:A 0.000131418
4 *1133:X 0
5 *98:46 0.000287735
6 *98:29 0.00040994
7 *98:10 0.00133509
8 *98:4 0.00108147
9 *1144:A *1149:B 0.000159657
10 *1144:A *1321:B1 9.58714e-05
11 *1144:A *109:8 7.53384e-06
12 *98:10 *1149:B 0.000219882
13 *98:10 *1319:A3 0.00011451
14 *98:10 *1319:B1 2.47815e-05
15 *98:10 *269:53 9.88574e-06
16 *98:10 *308:12 3.22879e-05
17 *98:29 *1146:B 8.10857e-05
18 *98:29 *1389:A 1.59094e-05
19 *98:29 *245:25 0.000110913
20 *98:46 *1133:C 4.9662e-05
21 *98:46 *1159:B_N 1.14452e-05
22 *98:46 *99:25 8.62783e-05
23 *98:46 *308:12 5.70419e-05
24 *98:46 *308:21 2.9938e-05
25 *98:46 *309:30 8.4047e-05
26 *96:20 *98:46 1.94693e-05
27 *96:40 *1144:A 0.000159657
28 *96:40 *98:10 0.000211979
*RES
1 *1133:X *98:4 23 
2 *98:4 *98:10 27.6357 
3 *98:10 *1144:A 41.3557 
4 *98:10 *98:29 35.51 
5 *98:29 *1156:B1 38 
6 *98:4 *98:46 34.8264 
7 *98:46 *1134:D 23 
*END

*D_NET *99 0.00355459
*CONN
*I *1136:C I *D sky130_fd_sc_hd__or3_2
*I *1159:B_N I *D sky130_fd_sc_hd__and4bb_1
*I *1134:X O *D sky130_fd_sc_hd__and4_1
*CAP
1 *1136:C 0
2 *1159:B_N 0.000501285
3 *1134:X 0
4 *99:25 0.000822354
5 *99:6 0.00132364
6 *1159:B_N *101:16 0
7 *1159:B_N *101:34 0
8 *1159:B_N *245:71 5.41288e-05
9 *1159:B_N *309:19 0.00030798
10 *1159:B_N *309:30 5.80715e-05
11 *99:25 *101:10 9.84851e-05
12 *99:25 *101:16 0
13 *99:25 *245:142 0
14 *99:25 *250:27 0
15 *99:25 *308:8 0
16 *99:25 *309:30 1.37349e-05
17 *99:25 *309:43 4.59441e-05
18 *99:25 *310:10 0.000142724
19 *99:25 *311:68 8.85189e-05
20 *98:46 *1159:B_N 1.14452e-05
21 *98:46 *99:25 8.62783e-05
*RES
1 *1134:X *99:6 38 
2 *99:6 *1159:B_N 49.1029 
3 *99:6 *99:25 31.3229 
4 *99:25 *1136:C 23 
*END

*D_NET *100 0.00349314
*CONN
*I *1319:A1 I *D sky130_fd_sc_hd__a31o_1
*I *1328:A1 I *D sky130_fd_sc_hd__a21o_1
*I *1135:Y O *D sky130_fd_sc_hd__nor2_1
*CAP
1 *1319:A1 0
2 *1328:A1 0.000117587
3 *1135:Y 0.000439057
4 *100:21 0.000577572
5 *100:6 0.00113422
6 *1328:A1 *269:90 5.3304e-05
7 *100:6 *1135:B 3.22879e-05
8 *100:6 *269:90 9.84851e-05
9 *100:21 *101:10 0
10 *100:21 *238:12 0
11 *100:21 *269:57 0.000623269
12 *100:21 *269:66 0.000166522
13 *100:21 *269:79 0.000250839
*RES
1 *1135:Y *100:6 31.7207 
2 *100:6 *1328:A1 25.0714 
3 *100:6 *100:21 43.8786 
4 *100:21 *1319:A1 23 
*END

*D_NET *101 0.00866162
*CONN
*I *1205:A2 I *D sky130_fd_sc_hd__o21a_1
*I *1322:B I *D sky130_fd_sc_hd__nor3_1
*I *1145:B1 I *D sky130_fd_sc_hd__a31oi_1
*I *1157:B1 I *D sky130_fd_sc_hd__a31o_1
*I *1136:X O *D sky130_fd_sc_hd__or3_2
*CAP
1 *1205:A2 0.000557476
2 *1322:B 0.000283133
3 *1145:B1 0
4 *1157:B1 0
5 *1136:X 0.000504995
6 *101:48 0.000840609
7 *101:34 0.000654073
8 *101:16 0.0014068
9 *101:10 0.00125772
10 *1205:A2 *245:142 0.000217539
11 *1205:A2 *310:10 5.50106e-05
12 *1322:B *245:127 1.32939e-05
13 *1322:B *245:142 1.27757e-05
14 *101:10 *238:12 0
15 *101:16 *238:12 0
16 *101:16 *308:8 0.000171906
17 *101:34 *1148:B 8.06804e-06
18 *101:34 *1150:C 3.56477e-05
19 *101:34 *1151:B1 0.000514788
20 *101:34 *1157:A3 0.00024214
21 *101:34 *113:8 0.000139352
22 *101:34 *115:16 5.67058e-05
23 *101:34 *118:10 0.000481035
24 *101:34 *119:8 0.000104183
25 *101:34 *122:10 9.14693e-05
26 *1159:B_N *101:16 0
27 *1159:B_N *101:34 0
28 *43:10 *1205:A2 1.39431e-05
29 *75:12 *1322:B 0.000144982
30 *96:20 *101:16 6.35758e-05
31 *96:20 *101:34 4.21594e-06
32 *96:26 *101:34 0.000539757
33 *96:32 *101:34 4.94545e-05
34 *96:40 *101:34 9.84851e-05
35 *99:25 *101:10 9.84851e-05
36 *99:25 *101:16 0
37 *100:21 *101:10 0
*RES
1 *1136:X *101:10 45.395 
2 *101:10 *101:16 14.2929 
3 *101:16 *101:34 36.3564 
4 *101:34 *1157:B1 23 
5 *101:16 *1145:B1 38 
6 *101:10 *101:48 15 
7 *101:48 *1322:B 27.4536 
8 *101:48 *1205:A2 33.3157 
*END

*D_NET *102 0.00601649
*CONN
*I *1147:D1 I *D sky130_fd_sc_hd__o2111a_1
*I *1184:A1 I *D sky130_fd_sc_hd__a21o_1
*I *1181:A I *D sky130_fd_sc_hd__nand2_1
*I *1137:X O *D sky130_fd_sc_hd__and3_1
*CAP
1 *1147:D1 0
2 *1184:A1 0
3 *1181:A 6.81588e-05
4 *1137:X 0.000243774
5 *102:36 0.00129668
6 *102:23 0.00148429
7 *102:10 0.000499542
8 *1181:A *103:6 0.000100733
9 *1181:A *133:41 5.25114e-05
10 *1181:A *133:48 0.00010018
11 *102:10 *1182:A1 0.000399297
12 *102:10 *1182:A2 1.76557e-05
13 *102:10 *103:6 0.000507372
14 *102:10 *133:48 0.000260641
15 *102:10 *324:36 0.000228909
16 *102:10 *325:19 0.000143655
17 *102:23 *245:41 0
18 *102:36 *1152:A1 0.000353442
19 *102:36 *1155:A1 1.24376e-05
20 *102:36 *108:10 0
21 *102:36 *108:14 0.000135799
22 *102:36 *112:6 0.000111421
23 *102:36 *245:37 0
24 *102:36 *245:41 0
*RES
1 *1137:X *102:10 34.2686 
2 *102:10 *1181:A 25.5479 
3 *102:10 *102:23 17.9621 
4 *102:23 *1184:A1 38 
5 *102:23 *102:36 35.1032 
6 *102:36 *1147:D1 23 
*END

*D_NET *103 0.00915913
*CONN
*I *1185:A I *D sky130_fd_sc_hd__nand2_1
*I *1139:B1 I *D sky130_fd_sc_hd__o211a_1
*I *1152:C1 I *D sky130_fd_sc_hd__o211a_1
*I *1188:B I *D sky130_fd_sc_hd__and3_1
*I *1190:C I *D sky130_fd_sc_hd__and4_1
*I *1187:A1 I *D sky130_fd_sc_hd__a21o_1
*I *1138:X O *D sky130_fd_sc_hd__and4_1
*CAP
1 *1185:A 0
2 *1139:B1 9.43292e-05
3 *1152:C1 3.3586e-05
4 *1188:B 0.000555692
5 *1190:C 0.000270803
6 *1187:A1 8.21578e-05
7 *1138:X 0.000638255
8 *103:75 0.000107133
9 *103:51 0.000455025
10 *103:34 0.000882802
11 *103:25 0.000781745
12 *103:10 0.000842109
13 *103:6 0.000994397
14 *1139:B1 *265:57 6.7177e-06
15 *1139:B1 *322:14 0.000225275
16 *1139:B1 *323:44 7.80954e-05
17 *1152:C1 *1152:A1 0.000140259
18 *1152:C1 *1152:A2 8.52481e-05
19 *1152:C1 *322:20 5.50106e-05
20 *1187:A1 *260:18 0
21 *1187:A1 *289:8 9.168e-05
22 *1188:B *1188:A 9.88574e-06
23 *1188:B *105:10 4.18957e-05
24 *1188:B *143:10 0.000138727
25 *1188:B *265:33 7.55832e-05
26 *1188:B *265:42 3.89103e-05
27 *1188:B *313:19 0
28 *1188:B *314:10 0.000247552
29 *1188:B *314:23 7.62945e-05
30 *1190:C *1140:A 0.000143655
31 *1190:C *1190:B 6.9805e-05
32 *1190:C *314:23 0.000141954
33 *103:6 *133:41 4.7312e-05
34 *103:10 *133:33 5.50106e-05
35 *103:10 *133:41 2.13733e-05
36 *103:10 *133:92 0.00018282
37 *103:25 *1190:B 8.56254e-05
38 *103:25 *260:18 0
39 *103:25 *289:8 0.00021382
40 *103:51 *105:10 6.08032e-05
41 *103:51 *106:18 0.000255292
42 *103:51 *265:57 5.51015e-05
43 *103:51 *322:74 0
44 *103:51 *323:44 2.76611e-06
45 *103:75 *245:41 0
46 *103:75 *270:8 0.000166522
47 *1181:A *103:6 0.000100733
48 *102:10 *103:6 0.000507372
*RES
1 *1138:X *103:6 33.15 
2 *103:6 *103:10 18.48 
3 *103:10 *1187:A1 39.2014 
4 *103:10 *103:25 22.8714 
5 *103:25 *1190:C 27.4329 
6 *103:25 *103:34 15 
7 *103:34 *1188:B 49.31 
8 *103:34 *103:51 7.54 
9 *103:51 *1152:C1 39.5743 
10 *103:51 *1139:B1 41.3143 
11 *103:6 *103:75 32.2579 
12 *103:75 *1185:A 23 
*END

*D_NET *104 0.00306898
*CONN
*I *1144:B I *D sky130_fd_sc_hd__or3_1
*I *1156:C1 I *D sky130_fd_sc_hd__a2111o_1
*I *1139:X O *D sky130_fd_sc_hd__o211a_1
*CAP
1 *1144:B 0.000181114
2 *1156:C1 0
3 *1139:X 7.68956e-05
4 *104:14 0.000885568
5 *104:8 0.00078135
6 *1144:B *1144:C 7.9567e-06
7 *1144:B *1156:A1 0.000139357
8 *104:8 *265:57 5.80963e-05
9 *104:8 *289:30 0
10 *104:14 *1144:C 5.50106e-05
11 *104:14 *1156:A1 3.32545e-05
12 *104:14 *260:10 5.3304e-05
13 *104:14 *260:38 0.000181125
14 *88:57 *104:14 0.000615945
*RES
1 *1139:X *104:8 39.5536 
2 *104:8 *104:14 30.0386 
3 *104:14 *1156:C1 23 
4 *104:14 *1144:B 25.5271 
*END

*D_NET *105 0.00248942
*CONN
*I *1142:A I *D sky130_fd_sc_hd__or2_1
*I *1143:B I *D sky130_fd_sc_hd__or3_1
*I *1140:X O *D sky130_fd_sc_hd__or2_1
*CAP
1 *1142:A 9.76933e-05
2 *1143:B 0
3 *1140:X 0.000439947
4 *105:10 0.00053764
5 *1142:A *106:18 0.00016046
6 *1142:A *265:57 0.000169674
7 *105:10 *1140:A 0.000119313
8 *105:10 *1190:B 0.00044107
9 *105:10 *106:18 9.26098e-05
10 *105:10 *144:8 3.22879e-05
11 *105:10 *265:42 0.000188926
12 *105:10 *265:57 0.000107101
13 *1188:B *105:10 4.18957e-05
14 *103:51 *105:10 6.08032e-05
*RES
1 *1140:X *105:10 49.31 
2 *105:10 *1143:B 38 
3 *105:10 *1142:A 40.8793 
*END

*D_NET *106 0.00437521
*CONN
*I *1143:C I *D sky130_fd_sc_hd__or3_1
*I *1142:B I *D sky130_fd_sc_hd__or2_1
*I *1141:X O *D sky130_fd_sc_hd__or3_1
*CAP
1 *1143:C 0
2 *1142:B 0
3 *1141:X 2.30556e-05
4 *106:18 8.6441e-05
5 *106:10 0.00165559
6 *106:6 0.00159221
7 *106:10 *1141:A 9.91024e-05
8 *106:10 *1175:A_N 9.00922e-05
9 *106:10 *1175:B 3.06338e-05
10 *106:10 *1175:C 0.000272383
11 *1142:A *106:18 0.00016046
12 *32:10 *106:10 1.73399e-05
13 *103:51 *106:18 0.000255292
14 *105:10 *106:18 9.26098e-05
*RES
1 *1141:X *106:6 23.4971 
2 *106:6 *106:10 28.7514 
3 *106:10 *106:18 33.9357 
4 *106:18 *1142:B 23 
5 *106:10 *1143:C 23 
*END

*D_NET *107 0.00207701
*CONN
*I *1153:C I *D sky130_fd_sc_hd__or4_1
*I *1154:A3 I *D sky130_fd_sc_hd__o41ai_1
*I *1142:X O *D sky130_fd_sc_hd__or2_1
*CAP
1 *1153:C 0.000119699
2 *1154:A3 0
3 *1142:X 0.000247665
4 *107:12 0.000215549
5 *107:8 0.000343515
6 *1153:C *1153:A 0.000185434
7 *1153:C *1153:B 3.59635e-05
8 *1153:C *1153:D 8.54813e-05
9 *1153:C *1154:A1 1.21972e-05
10 *1153:C *1154:B1 9.84794e-05
11 *1153:C *119:8 0.000399297
12 *107:8 *1152:B1 0.000135547
13 *107:8 *265:57 0.000103009
14 *107:8 *289:8 0
15 *107:8 *289:30 0
16 *107:12 *1153:B 6.17437e-06
17 *107:12 *1154:A1 5.47808e-05
18 *107:12 *1154:A2 3.42179e-05
*RES
1 *1142:X *107:8 42.7229 
2 *107:8 *107:12 17.0507 
3 *107:12 *1154:A3 23 
4 *107:12 *1153:C 28.3857 
*END

*D_NET *108 0.0051524
*CONN
*I *1156:D1 I *D sky130_fd_sc_hd__a2111o_1
*I *1144:C I *D sky130_fd_sc_hd__or3_1
*I *1148:B I *D sky130_fd_sc_hd__or3_1
*I *1155:A2 I *D sky130_fd_sc_hd__o31ai_1
*I *1143:X O *D sky130_fd_sc_hd__or3_1
*CAP
1 *1156:D1 5.56826e-05
2 *1144:C 0.000245606
3 *1148:B 9.44641e-05
4 *1155:A2 0
5 *1143:X 0.000589482
6 *108:40 0.000522994
7 *108:25 0.000444941
8 *108:14 0.000212325
9 *108:10 0.000673035
10 *1144:C *1156:A1 4.91513e-05
11 *1148:B *122:10 5.3304e-05
12 *1156:D1 *245:25 1.37136e-05
13 *108:10 *1186:A 0.000123148
14 *108:10 *1186:C 8.91468e-07
15 *108:10 *140:10 1.01436e-05
16 *108:10 *245:37 0
17 *108:10 *270:8 0.000382564
18 *108:14 *1155:A1 4.46649e-05
19 *108:14 *112:6 0.000424544
20 *108:25 *1155:A1 7.91053e-05
21 *108:25 *112:6 7.84431e-05
22 *108:25 *112:19 0.000259146
23 *108:25 *120:10 4.08641e-05
24 *108:25 *245:25 0.000136486
25 *108:40 *120:10 2.95125e-05
26 *108:40 *121:8 3.54915e-05
27 *108:40 *245:25 0.000136086
28 *1144:B *1144:C 7.9567e-06
29 *1155:B1 *108:25 0.000187129
30 *88:51 *1156:D1 2.26497e-05
31 *101:34 *1148:B 8.06804e-06
32 *102:36 *108:10 0
33 *102:36 *108:14 0.000135799
34 *104:14 *1144:C 5.50106e-05
*RES
1 *1143:X *108:10 48.4607 
2 *108:10 *108:14 19.6711 
3 *108:14 *1155:A2 23 
4 *108:14 *108:25 20.6239 
5 *108:25 *1148:B 39.0979 
6 *108:25 *108:40 4.205 
7 *108:40 *1144:C 42.1429 
8 *108:40 *1156:D1 38.8493 
*END

*D_NET *109 0.0013591
*CONN
*I *1145:A3 I *D sky130_fd_sc_hd__a31oi_1
*I *1321:A1 I *D sky130_fd_sc_hd__o221a_1
*I *1144:X O *D sky130_fd_sc_hd__or3_1
*CAP
1 *1145:A3 6.74535e-05
2 *1321:A1 0
3 *1144:X 0.000420536
4 *109:8 0.00048799
5 *109:8 *1321:B1 8.77809e-05
6 *109:8 *115:16 5.50049e-05
7 *1144:A *109:8 7.53384e-06
8 *1321:B2 *109:8 5.41385e-05
9 *88:30 *1145:A3 0.000155386
10 *88:30 *109:8 2.32725e-05
*RES
1 *1144:X *109:8 29.235 
2 *109:8 *1321:A1 23 
3 *109:8 *1145:A3 25.0507 
*END

*D_NET *110 0.00274805
*CONN
*I *1151:A2 I *D sky130_fd_sc_hd__o21a_1
*I *1323:B I *D sky130_fd_sc_hd__nor2_1
*I *1145:Y O *D sky130_fd_sc_hd__a31oi_1
*CAP
1 *1151:A2 8.18961e-05
2 *1323:B 0.000225397
3 *1145:Y 0.000551025
4 *110:10 0.000858318
5 *1323:B *116:10 0
6 *1323:B *124:12 0.000136486
7 *1323:B *245:75 0.000218943
8 *1323:B *250:14 6.72536e-05
9 *1323:B *269:25 3.27248e-05
10 *1323:B *311:10 0.000141879
11 *1323:B *311:23 3.70094e-05
12 *110:10 *250:14 2.76611e-06
13 *110:10 *250:27 4.06408e-05
14 *110:10 *311:23 0.000129504
15 *76:10 *1323:B 9.21347e-06
16 *88:18 *110:10 0.000214998
*RES
1 *1145:Y *110:10 46.7207 
2 *110:10 *1323:B 44.4007 
3 *110:10 *1151:A2 39.0979 
*END

*D_NET *111 0.00206663
*CONN
*I *1319:A2 I *D sky130_fd_sc_hd__a31o_1
*I *1321:A2 I *D sky130_fd_sc_hd__o221a_1
*I *1150:B I *D sky130_fd_sc_hd__or3_1
*I *1146:Y O *D sky130_fd_sc_hd__nand2_1
*CAP
1 *1319:A2 0.000115656
2 *1321:A2 5.04176e-05
3 *1150:B 0.000400894
4 *1146:Y 0.000168565
5 *111:10 0.000621505
6 *111:8 0.000454414
7 *1150:B *1156:A1 2.76611e-06
8 *1150:B *115:16 4.75593e-05
9 *1150:B *238:12 0
10 *1150:B *269:53 0
11 *1319:A2 *238:12 0
12 *1319:A2 *269:53 0
13 *1321:A2 *1321:B1 5.90675e-06
14 *111:8 *1146:A 2.64616e-05
15 *111:10 *1146:A 1.28274e-05
16 *111:10 *1156:A1 4.39843e-05
17 *111:10 *238:12 0
18 *111:10 *269:53 0
19 *1321:B2 *1321:A2 2.93845e-05
20 *88:30 *1321:A2 2.1136e-05
21 *88:51 *1150:B 8.21456e-06
22 *96:20 *1150:B 0
23 *96:26 *1150:B 4.94073e-05
24 *96:32 *1150:B 7.53384e-06
*RES
1 *1146:Y *111:8 40.0507 
2 *111:8 *111:10 3.31429 
3 *111:10 *1150:B 43.945 
4 *111:10 *1321:A2 39.1186 
5 *111:8 *1319:A2 39.9057 
*END

*D_NET *112 0.00328564
*CONN
*I *1148:C I *D sky130_fd_sc_hd__or3_1
*I *1155:A3 I *D sky130_fd_sc_hd__o31ai_1
*I *1147:X O *D sky130_fd_sc_hd__o2111a_1
*CAP
1 *1148:C 0
2 *1155:A3 0
3 *1147:X 0.000605799
4 *112:19 0.000215251
5 *112:6 0.00082105
6 *112:6 *1152:A1 1.76557e-05
7 *112:6 *1152:A2 0.000181925
8 *112:19 *1148:A 0.000163361
9 *112:19 *120:10 0.000143655
10 *112:19 *245:25 0.000246167
11 *112:19 *269:53 0
12 *1155:B1 *112:19 1.72202e-05
13 *96:40 *112:19 0
14 *102:36 *112:6 0.000111421
15 *108:14 *112:6 0.000424544
16 *108:25 *112:6 7.84431e-05
17 *108:25 *112:19 0.000259146
*RES
1 *1147:X *112:6 35.5321 
2 *112:6 *1155:A3 23 
3 *112:6 *112:19 36.5664 
4 *112:19 *1148:C 23 
*END

*D_NET *113 0.00193369
*CONN
*I *1149:B I *D sky130_fd_sc_hd__nor2_1
*I *1150:C I *D sky130_fd_sc_hd__or3_1
*I *1148:X O *D sky130_fd_sc_hd__or3_1
*CAP
1 *1149:B 0.000270502
2 *1150:C 0.00013292
3 *1148:X 0.000107668
4 *113:8 0.00051109
5 *1149:B *269:53 0.00017099
6 *1150:C *269:53 2.03327e-05
7 *1144:A *1149:B 0.000159657
8 *96:32 *1150:C 5.67058e-05
9 *96:40 *1149:B 8.40819e-05
10 *96:40 *1150:C 2.48636e-05
11 *98:10 *1149:B 0.000219882
12 *101:34 *1150:C 3.56477e-05
13 *101:34 *113:8 0.000139352
*RES
1 *1148:X *113:8 39.5743 
2 *113:8 *1150:C 40.2371 
3 *113:8 *1149:B 45.54 
*END

*D_NET *114 0.000513607
*CONN
*I *1319:A3 I *D sky130_fd_sc_hd__a31o_1
*I *1149:Y O *D sky130_fd_sc_hd__nor2_1
*CAP
1 *1319:A3 0.000128568
2 *1149:Y 0.000128568
3 *1319:A3 *269:53 0.00014196
4 *98:10 *1319:A3 0.00011451
*RES
1 *1149:Y *1319:A3 49.48 
*END

*D_NET *115 0.00258494
*CONN
*I *1151:B1 I *D sky130_fd_sc_hd__o21a_1
*I *1321:C1 I *D sky130_fd_sc_hd__o221a_1
*I *1150:X O *D sky130_fd_sc_hd__or3_1
*CAP
1 *1151:B1 0.000748558
2 *1321:C1 0
3 *1150:X 0
4 *115:16 0.000160598
5 *115:4 0.000909156
6 *1151:B1 *116:10 8.19644e-06
7 *115:16 *1321:B1 3.44953e-05
8 *115:16 *269:53 4.98765e-05
9 *1150:B *115:16 4.75593e-05
10 *101:34 *1151:B1 0.000514788
11 *101:34 *115:16 5.67058e-05
12 *109:8 *115:16 5.50049e-05
*RES
1 *1150:X *115:4 23 
2 *115:4 *115:16 33.2936 
3 *115:16 *1321:C1 23 
4 *115:4 *1151:B1 33.9993 
*END

*D_NET *116 0.000573434
*CONN
*I *1159:C I *D sky130_fd_sc_hd__and4bb_1
*I *1151:X O *D sky130_fd_sc_hd__o21a_1
*CAP
1 *1159:C 0
2 *1151:X 0.000180675
3 *116:10 0.000180675
4 *116:10 *245:75 1.19692e-05
5 *116:10 *309:19 0.000166513
6 *116:10 *311:10 2.54046e-05
7 *1151:B1 *116:10 8.19644e-06
8 *1323:B *116:10 0
*RES
1 *1151:X *116:10 41.3557 
2 *116:10 *1159:C 38 
*END

*D_NET *117 0.00128682
*CONN
*I *1153:D I *D sky130_fd_sc_hd__or4_1
*I *1154:A4 I *D sky130_fd_sc_hd__o41ai_1
*I *1152:X O *D sky130_fd_sc_hd__o211a_1
*CAP
1 *1153:D 0.000149395
2 *1154:A4 0
3 *1152:X 0.0001083
4 *117:10 0.000149395
5 *117:8 0.0001083
6 *1153:D *1153:A 0.00014196
7 *1153:D *1154:A1 0.000269775
8 *1153:D *1154:B1 9.84794e-05
9 *117:8 *260:18 0
10 *117:8 *289:8 8.62783e-05
11 *117:8 *289:30 8.9458e-05
12 *1153:C *1153:D 8.54813e-05
*RES
1 *1152:X *117:8 40.2579 
2 *117:8 *117:10 15 
3 *117:10 *1154:A4 23 
4 *117:10 *1153:D 27.93 
*END

*D_NET *118 0.00277862
*CONN
*I *1321:B1 I *D sky130_fd_sc_hd__o221a_1
*I *1153:X O *D sky130_fd_sc_hd__or4_1
*CAP
1 *1321:B1 0.000187801
2 *1153:X 0.000596506
3 *118:10 0.000784307
4 *1321:B1 *1156:A1 0.000348911
5 *118:10 *1156:A2 1.86055e-05
6 *118:10 *119:8 5.31757e-05
7 *118:10 *245:25 0
8 *1144:A *1321:B1 9.58714e-05
9 *1321:A2 *1321:B1 5.90675e-06
10 *88:30 *1321:B1 7.89128e-06
11 *96:40 *118:10 7.63302e-05
12 *101:34 *118:10 0.000481035
13 *109:8 *1321:B1 8.77809e-05
14 *115:16 *1321:B1 3.44953e-05
*RES
1 *1153:X *118:10 47.5493 
2 *118:10 *1321:B1 43.4064 
*END

*D_NET *119 0.00167844
*CONN
*I *1157:A1 I *D sky130_fd_sc_hd__a31o_1
*I *1154:Y O *D sky130_fd_sc_hd__o41ai_1
*CAP
1 *1157:A1 0
2 *1154:Y 0.000345851
3 *119:8 0.000345851
4 *119:8 *1153:A 4.95081e-05
5 *119:8 *1153:B 0.000355822
6 *119:8 *1157:A3 2.4754e-05
7 *1153:C *119:8 0.000399297
8 *101:34 *119:8 0.000104183
9 *118:10 *119:8 5.31757e-05
*RES
1 *1154:Y *119:8 33.1707 
2 *119:8 *1157:A1 23 
*END

*D_NET *120 0.000601777
*CONN
*I *1157:A2 I *D sky130_fd_sc_hd__a31o_1
*I *1155:Y O *D sky130_fd_sc_hd__o31ai_1
*CAP
1 *1157:A2 0
2 *1155:Y 0.000193873
3 *120:10 0.000193873
4 *108:25 *120:10 4.08641e-05
5 *108:40 *120:10 2.95125e-05
6 *112:19 *120:10 0.000143655
*RES
1 *1155:Y *120:10 41.48 
2 *120:10 *1157:A2 38 
*END

*D_NET *121 0.000680759
*CONN
*I *1157:A3 I *D sky130_fd_sc_hd__a31o_1
*I *1156:X O *D sky130_fd_sc_hd__a2111o_1
*CAP
1 *1157:A3 5.37626e-05
2 *1156:X 0.000135424
3 *121:8 0.000189187
4 *101:34 *1157:A3 0.00024214
5 *108:40 *121:8 3.54915e-05
6 *119:8 *1157:A3 2.4754e-05
*RES
1 *1156:X *121:8 39.9057 
2 *121:8 *1157:A3 40.0507 
*END

*D_NET *122 0.00294565
*CONN
*I *1158:B I *D sky130_fd_sc_hd__xor2_1
*I *1320:B I *D sky130_fd_sc_hd__nor2_1
*I *1157:X O *D sky130_fd_sc_hd__a31o_1
*CAP
1 *1158:B 0.000289698
2 *1320:B 0
3 *1157:X 0.000419771
4 *122:12 0.000289698
5 *122:10 0.000419771
6 *1158:B *1377:CLK 5.67058e-05
7 *1158:B *269:25 0.000404406
8 *1158:B *309:8 0.000145689
9 *122:10 *1148:A 0
10 *122:10 *245:31 7.66085e-05
11 *122:10 *269:38 0.000194318
12 *122:10 *269:53 0.000130433
13 *1148:B *122:10 5.3304e-05
14 *1377:D *1158:B 0.000170785
15 *96:32 *122:10 9.84794e-05
16 *96:40 *122:10 4.95081e-05
17 *97:10 *122:10 5.50106e-05
18 *101:34 *122:10 9.14693e-05
*RES
1 *1157:X *122:10 47.9843 
2 *122:10 *122:12 15 
3 *122:12 *1320:B 23 
4 *122:12 *1158:B 33.1707 
*END

*D_NET *123 0.000403668
*CONN
*I *1159:D I *D sky130_fd_sc_hd__and4bb_1
*I *1158:X O *D sky130_fd_sc_hd__xor2_1
*CAP
1 *1159:D 0
2 *1158:X 0.000117842
3 *123:10 0.000117842
4 *123:10 *245:75 8.16356e-05
5 *123:10 *269:25 1.94693e-05
6 *123:10 *309:19 6.68793e-05
*RES
1 *1158:X *123:10 40.8793 
2 *123:10 *1159:D 38 
*END

*D_NET *124 0.00203689
*CONN
*I *1393:A I *D sky130_fd_sc_hd__dlymetal6s2s_1
*I *1159:X O *D sky130_fd_sc_hd__and4bb_1
*CAP
1 *1393:A 0
2 *1159:X 0.000103455
3 *124:12 0.000554803
4 *124:8 0.000658258
5 *124:8 *1379:CLK 1.21972e-05
6 *124:8 *245:71 3.7122e-06
7 *124:8 *311:10 2.92911e-06
8 *124:12 *1336:CLK 0.000108682
9 *124:12 *245:75 0.000323665
10 *124:12 *250:14 6.7177e-06
11 *1323:B *124:12 0.000136486
12 *34:10 *124:12 8.76088e-05
13 *76:10 *124:12 3.83778e-05
*RES
1 *1159:X *124:8 39.0979 
2 *124:8 *124:12 28.1743 
3 *124:12 *1393:A 23 
*END

*D_NET *125 0.000723624
*CONN
*I *1163:B I *D sky130_fd_sc_hd__and3_1
*I *1161:Y O *D sky130_fd_sc_hd__nand2_1
*CAP
1 *1163:B 0
2 *1161:Y 0.000290878
3 *125:6 0.000290878
4 *125:6 *1161:A 5.12224e-05
5 *125:6 *1162:B 1.08287e-05
6 *125:6 *312:71 7.98176e-05
*RES
1 *1161:Y *125:6 27.4329 
2 *125:6 *1163:B 23 
*END

*D_NET *126 0.000249101
*CONN
*I *1163:C I *D sky130_fd_sc_hd__and3_1
*I *1162:X O *D sky130_fd_sc_hd__or2_1
*CAP
1 *1163:C 5.88672e-05
2 *1162:X 5.88672e-05
3 *1163:C *312:71 0.000131367
*RES
1 *1162:X *1163:C 47.4086 
*END

*D_NET *127 0.000903073
*CONN
*I *1166:B I *D sky130_fd_sc_hd__and3_1
*I *1164:Y O *D sky130_fd_sc_hd__nand3_1
*CAP
1 *1166:B 0
2 *1164:Y 0.000324816
3 *127:6 0.000324816
4 *127:6 *264:10 5.70419e-05
5 *127:6 *264:14 0.000196399
*RES
1 *1164:Y *127:6 27.9093 
2 *127:6 *1166:B 23 
*END

*D_NET *128 0.000263465
*CONN
*I *1166:C I *D sky130_fd_sc_hd__and3_1
*I *1165:X O *D sky130_fd_sc_hd__a21o_1
*CAP
1 *1166:C 0.000101027
2 *1165:X 0.000101027
3 *1166:C *264:10 3.8382e-05
4 *1166:C *264:14 2.30292e-05
*RES
1 *1165:X *1166:C 47.6571 
*END

*D_NET *129 0.00414144
*CONN
*I *1170:B I *D sky130_fd_sc_hd__nand2_1
*I *1171:B I *D sky130_fd_sc_hd__or2_1
*I *1173:C I *D sky130_fd_sc_hd__and3_2
*I *1174:A2 I *D sky130_fd_sc_hd__a21o_1
*I *1169:A_N I *D sky130_fd_sc_hd__and3b_1
*I *1167:X O *D sky130_fd_sc_hd__and4_1
*CAP
1 *1170:B 9.04084e-05
2 *1171:B 4.24511e-05
3 *1173:C 4.15529e-05
4 *1174:A2 0
5 *1169:A_N 0
6 *1167:X 0
7 *129:43 0.000345033
8 *129:25 0.000466093
9 *129:21 0.00119413
10 *129:12 0.000105696
11 *129:4 0.000663112
12 *1170:B *1171:A 0.000141052
13 *1173:C *1174:A1 0.000185434
14 *1173:C *1174:B1 0.000185731
15 *1173:C *323:36 1.4345e-05
16 *129:12 *244:10 0.000116314
17 *129:21 *265:57 3.7122e-06
18 *129:21 *265:67 0.0001042
19 *129:21 *321:10 0.000103378
20 *129:25 *132:10 5.91279e-05
21 *129:25 *265:67 0
22 *129:25 *322:48 0
23 *129:43 *132:10 0.000148412
24 *129:43 *244:163 1.7992e-05
25 *1333:D *129:12 3.22879e-05
26 *1333:D *129:21 8.09814e-05
*RES
1 *1167:X *129:4 23 
2 *129:4 *129:12 32.175 
3 *129:12 *1169:A_N 23 
4 *129:4 *129:21 23.7207 
5 *129:21 *129:25 21.8357 
6 *129:25 *1174:A2 23 
7 *129:25 *1173:C 25.5479 
8 *129:21 *129:43 19.7229 
9 *129:43 *1171:B 23.6214 
10 *129:43 *1170:B 25.0507 
*END

*D_NET *130 0.000957796
*CONN
*I *1169:B I *D sky130_fd_sc_hd__and3b_1
*I *1168:X O *D sky130_fd_sc_hd__a31o_1
*CAP
1 *1169:B 0
2 *1168:X 0.000213003
3 *130:10 0.000213003
4 *130:10 *1168:A2 5.25848e-05
5 *130:10 *244:10 4.98543e-05
6 *130:10 *264:77 0.000292865
7 *130:10 *312:60 0.000136486
*RES
1 *1168:X *130:10 43.1164 
2 *130:10 *1169:B 38 
*END

*D_NET *131 0.00104105
*CONN
*I *1172:B I *D sky130_fd_sc_hd__and3_1
*I *1170:Y O *D sky130_fd_sc_hd__nand2_1
*CAP
1 *1172:B 0.000113667
2 *1170:Y 0.000117163
3 *131:8 0.000230831
4 *1172:B *265:57 5.47927e-05
5 *131:8 *244:163 6.42902e-05
6 *131:8 *322:48 0.000296026
7 *31:8 *131:8 0.000164282
*RES
1 *1170:Y *131:8 42.0186 
2 *131:8 *1172:B 39.5743 
*END

*D_NET *132 0.00102409
*CONN
*I *1172:C I *D sky130_fd_sc_hd__and3_1
*I *1171:X O *D sky130_fd_sc_hd__or2_1
*CAP
1 *1172:C 5.50291e-06
2 *1171:X 0.000233735
3 *132:10 0.000239238
4 *1172:C *265:57 1.95448e-05
5 *1172:C *321:36 2.07921e-05
6 *132:10 *1171:A 5.3304e-05
7 *132:10 *244:163 0.000167443
8 *132:10 *322:48 0
9 *31:8 *132:10 7.69935e-05
10 *129:25 *132:10 5.91279e-05
11 *129:43 *132:10 0.000148412
*RES
1 *1171:X *132:10 44.0486 
2 *132:10 *1172:C 38.2279 
*END

*D_NET *133 0.0101705
*CONN
*I *1175:A_N I *D sky130_fd_sc_hd__and3b_1
*I *1190:D I *D sky130_fd_sc_hd__and4_1
*I *1185:B I *D sky130_fd_sc_hd__nand2_1
*I *1184:A2 I *D sky130_fd_sc_hd__a21o_1
*I *1187:A2 I *D sky130_fd_sc_hd__a21o_1
*I *1182:A3 I *D sky130_fd_sc_hd__a31o_1
*I *1176:B I *D sky130_fd_sc_hd__nand2_1
*I *1177:B I *D sky130_fd_sc_hd__or2_1
*I *1181:B I *D sky130_fd_sc_hd__nand2_1
*I *1188:C I *D sky130_fd_sc_hd__and3_1
*I *1173:X O *D sky130_fd_sc_hd__and3_2
*CAP
1 *1175:A_N 0.000121273
2 *1190:D 0
3 *1185:B 0
4 *1184:A2 0.000370026
5 *1187:A2 0
6 *1182:A3 0
7 *1176:B 0
8 *1177:B 0
9 *1181:B 0
10 *1188:C 0.000204223
11 *1173:X 0.000245128
12 *133:92 0.00049806
13 *133:69 0.000238601
14 *133:56 0.000697577
15 *133:48 0.000643306
16 *133:41 0.000534544
17 *133:35 0.00039033
18 *133:33 0.00073064
19 *133:18 0.000963887
20 *133:14 0.000601049
21 *133:8 0.000770278
22 *1184:A2 *1184:B1 9.27569e-05
23 *1184:A2 *140:10 7.88828e-05
24 *1188:C *143:10 8.50588e-05
25 *1188:C *314:10 5.21996e-05
26 *1188:C *314:23 0
27 *133:8 *134:8 0
28 *133:8 *323:10 0
29 *133:14 *1140:A 0.000228903
30 *133:14 *1140:B 2.30292e-05
31 *133:14 *144:8 8.7283e-06
32 *133:18 *314:23 0
33 *133:33 *1187:B1 0.000103647
34 *133:33 *1189:C 1.21972e-05
35 *133:33 *1192:A1 2.93845e-05
36 *133:33 *1192:A2 0.000132239
37 *133:56 *1138:D 2.22079e-05
38 *133:56 *139:8 4.08641e-05
39 *133:56 *265:20 0.000370275
40 *133:56 *324:14 0.000315857
41 *133:56 *326:8 0
42 *133:69 *135:12 0.000166532
43 *133:69 *265:20 1.32939e-05
44 *133:69 *324:8 4.75206e-05
45 *133:69 *324:14 8.6949e-05
46 *133:92 *260:18 0.000194309
47 *133:92 *270:8 0.000191157
48 *1181:A *133:41 5.25114e-05
49 *1181:A *133:48 0.00010018
50 *38:8 *1188:C 5.56306e-05
51 *102:10 *133:48 0.000260641
52 *103:6 *133:41 4.7312e-05
53 *103:10 *133:33 5.50106e-05
54 *103:10 *133:41 2.13733e-05
55 *103:10 *133:92 0.00018282
56 *106:10 *1175:A_N 9.00922e-05
*RES
1 *1173:X *133:8 42.3707 
2 *133:8 *133:14 21.5664 
3 *133:14 *133:18 18.3143 
4 *133:18 *1188:C 42.3707 
5 *133:18 *133:33 25.15 
6 *133:33 *133:35 0.849286 
7 *133:35 *133:41 6.85643 
8 *133:41 *1181:B 23 
9 *133:41 *133:48 4.90929 
10 *133:48 *133:56 40.0257 
11 *133:56 *1177:B 23 
12 *133:56 *133:69 35.2614 
13 *133:69 *1176:B 23 
14 *133:48 *1182:A3 23 
15 *133:35 *1187:A2 23 
16 *133:33 *133:92 34.6607 
17 *133:92 *1184:A2 30.6643 
18 *133:92 *1185:B 23 
19 *133:14 *1190:D 23 
20 *133:8 *1175:A_N 40.5271 
*END

*D_NET *134 0.000638338
*CONN
*I *1175:B I *D sky130_fd_sc_hd__and3b_1
*I *1174:X O *D sky130_fd_sc_hd__a21o_1
*CAP
1 *1175:B 7.18878e-05
2 *1174:X 0.000205141
3 *134:8 0.000277029
4 *134:8 *264:86 0
5 *32:10 *134:8 5.36457e-05
6 *106:10 *1175:B 3.06338e-05
7 *133:8 *134:8 0
*RES
1 *1174:X *134:8 42.0186 
2 *134:8 *1175:B 39.0979 
*END

*D_NET *135 0.00198245
*CONN
*I *1179:B I *D sky130_fd_sc_hd__xnor2_1
*I *1178:B I *D sky130_fd_sc_hd__and3_1
*I *1176:Y O *D sky130_fd_sc_hd__nand2_1
*CAP
1 *1179:B 0.000410103
2 *1178:B 0
3 *1176:Y 0
4 *135:12 0.000336755
5 *135:4 0.000746859
6 *1179:B *1176:A 5.50106e-05
7 *1179:B *325:10 0.000146233
8 *135:12 *136:8 4.13358e-05
9 *135:12 *265:85 2.29192e-05
10 *33:10 *135:12 5.67058e-05
11 *133:69 *135:12 0.000166532
*RES
1 *1176:Y *135:4 23 
2 *135:4 *135:12 36.4007 
3 *135:12 *1178:B 23 
4 *135:4 *1179:B 29.7114 
*END

*D_NET *136 0.000644996
*CONN
*I *1178:C I *D sky130_fd_sc_hd__and3_1
*I *1177:X O *D sky130_fd_sc_hd__or2_1
*CAP
1 *1178:C 0.00010114
2 *1177:X 0.000183419
3 *136:8 0.000284558
4 *136:8 *265:85 0
5 *33:10 *1178:C 3.45438e-05
6 *135:12 *136:8 4.13358e-05
*RES
1 *1177:X *136:8 41.3143 
2 *136:8 *1178:C 39.885 
*END

*D_NET *137 0.000866756
*CONN
*I *1180:B I *D sky130_fd_sc_hd__and2_1
*I *1179:Y O *D sky130_fd_sc_hd__xnor2_1
*CAP
1 *1180:B 0.000142421
2 *1179:Y 6.60799e-05
3 *137:8 0.000208501
4 *1180:B *265:98 0.000137651
5 *137:8 *245:75 0.000166513
6 *137:8 *265:98 0.000141879
7 *34:10 *1180:B 3.7122e-06
*RES
1 *1179:Y *137:8 40.2579 
2 *137:8 *1180:B 40.5271 
*END

*D_NET *138 0.000432052
*CONN
*I *1183:B I *D sky130_fd_sc_hd__and3_1
*I *1181:Y O *D sky130_fd_sc_hd__nand2_1
*CAP
1 *1183:B 0
2 *1181:Y 0.000146663
3 *138:8 0.000146663
4 *138:8 *139:8 0
5 *138:8 *245:41 0.000138727
6 *138:8 *270:8 0
*RES
1 *1181:Y *138:8 40.9621 
2 *138:8 *1183:B 38 
*END

*D_NET *139 0.00105646
*CONN
*I *1183:C I *D sky130_fd_sc_hd__and3_1
*I *1182:X O *D sky130_fd_sc_hd__a31o_1
*CAP
1 *1183:C 0.000250222
2 *1182:X 6.19464e-05
3 *139:8 0.000312168
4 *1183:C *265:20 0.000391257
5 *133:56 *139:8 4.08641e-05
6 *138:8 *139:8 0
*RES
1 *1182:X *139:8 39.2014 
2 *139:8 *1183:C 42.2982 
*END

*D_NET *140 0.000710176
*CONN
*I *1186:B I *D sky130_fd_sc_hd__and3_1
*I *1184:X O *D sky130_fd_sc_hd__a21o_1
*CAP
1 *1186:B 0
2 *1184:X 0.000199304
3 *140:10 0.000199304
4 *140:10 *141:8 8.62783e-05
5 *140:10 *245:37 2.04774e-05
6 *140:10 *245:41 5.26101e-05
7 *140:10 *270:8 6.31763e-05
8 *1184:A2 *140:10 7.88828e-05
9 *108:10 *140:10 1.01436e-05
*RES
1 *1184:X *140:10 42.5364 
2 *140:10 *1186:B 38 
*END

*D_NET *141 0.000388266
*CONN
*I *1186:C I *D sky130_fd_sc_hd__and3_1
*I *1185:Y O *D sky130_fd_sc_hd__nand2_1
*CAP
1 *1186:C 7.06907e-05
2 *1185:Y 3.5598e-05
3 *141:8 0.000106289
4 *141:8 *270:8 8.85189e-05
5 *108:10 *1186:C 8.91468e-07
6 *140:10 *141:8 8.62783e-05
*RES
1 *1185:Y *141:8 39.2014 
2 *141:8 *1186:C 38.7043 
*END

*D_NET *142 0.00029943
*CONN
*I *1189:C I *D sky130_fd_sc_hd__and3b_1
*I *1187:X O *D sky130_fd_sc_hd__a21o_1
*CAP
1 *1189:C 9.43738e-05
2 *1187:X 9.43738e-05
3 *1189:C *1187:B1 9.84851e-05
4 *133:33 *1189:C 1.21972e-05
*RES
1 *1187:X *1189:C 47.5743 
*END

*D_NET *143 0.00240388
*CONN
*I *1189:A_N I *D sky130_fd_sc_hd__and3b_1
*I *1192:A2 I *D sky130_fd_sc_hd__o211a_1
*I *1188:X O *D sky130_fd_sc_hd__and3_1
*CAP
1 *1189:A_N 0
2 *1192:A2 0.000398589
3 *1188:X 0.000339748
4 *143:12 0.000398589
5 *143:10 0.000339748
6 *1192:A2 *1192:A1 0.000271476
7 *1192:A2 *1192:B1 1.14154e-05
8 *1192:A2 *1192:C1 9.72057e-06
9 *143:10 *1188:A 0.000184527
10 *143:10 *314:10 9.40452e-05
11 *1188:B *143:10 0.000138727
12 *1188:C *143:10 8.50588e-05
13 *133:33 *1192:A2 0.000132239
*RES
1 *1188:X *143:10 43.8621 
2 *143:10 *143:12 15 
3 *143:12 *1192:A2 31.2857 
4 *143:12 *1189:A_N 23 
*END

*D_NET *144 0.00633973
*CONN
*I *1196:C I *D sky130_fd_sc_hd__and3_1
*I *1193:B I *D sky130_fd_sc_hd__nand2_1
*I *1194:B I *D sky130_fd_sc_hd__or2_1
*I *1197:A2 I *D sky130_fd_sc_hd__a21o_1
*I *1191:A I *D sky130_fd_sc_hd__inv_2
*I *1190:X O *D sky130_fd_sc_hd__and4_1
*CAP
1 *1196:C 0
2 *1193:B 2.1976e-05
3 *1194:B 0
4 *1197:A2 0
5 *1191:A 0.000108658
6 *1190:X 0.00031078
7 *144:44 0.000215085
8 *144:29 0.000413977
9 *144:23 0.0018538
10 *144:8 0.00205237
11 *1191:A *318:23 5.56306e-05
12 *1193:B *146:8 2.47127e-05
13 *144:8 *1140:A 2.65879e-05
14 *144:8 *1140:B 0.000128401
15 *144:23 *1140:B 3.3577e-05
16 *144:23 *1203:A 0.000126847
17 *144:23 *150:29 0.000247714
18 *144:23 *153:10 5.14746e-06
19 *144:23 *318:23 2.70366e-05
20 *144:29 *264:22 0
21 *144:29 *315:14 1.14452e-05
22 *144:29 *315:29 4.23817e-05
23 *144:44 *1141:B 0
24 *144:44 *146:8 0.000228909
25 *144:44 *315:14 0.000209748
26 *144:44 *315:29 1.19692e-05
27 *144:44 *315:45 0.00014196
28 *105:10 *144:8 3.22879e-05
29 *133:14 *144:8 8.7283e-06
*RES
1 *1190:X *144:8 42.9093 
2 *144:8 *1191:A 40.2579 
3 *144:8 *144:23 37.62 
4 *144:23 *144:29 18.3971 
5 *144:29 *1197:A2 38 
6 *144:29 *144:44 20.9864 
7 *144:44 *1194:B 23 
8 *144:44 *1193:B 23.6214 
9 *144:23 *1196:C 23 
*END

*D_NET *145 0.000294951
*CONN
*I *1192:B1 I *D sky130_fd_sc_hd__o211a_1
*I *1191:Y O *D sky130_fd_sc_hd__inv_2
*CAP
1 *1192:B1 0.000110294
2 *1191:Y 0.000110294
3 *1192:B1 *1192:C1 6.29487e-05
4 *1192:A2 *1192:B1 1.14154e-05
*RES
1 *1191:Y *1192:B1 48.5479 
*END

*D_NET *146 0.000785263
*CONN
*I *1195:B I *D sky130_fd_sc_hd__and3_1
*I *1193:Y O *D sky130_fd_sc_hd__nand2_1
*CAP
1 *1195:B 0
2 *1193:Y 0.000244077
3 *146:8 0.000244077
4 *146:8 *315:8 2.93747e-05
5 *146:8 *315:45 1.41129e-05
6 *1193:B *146:8 2.47127e-05
7 *144:44 *146:8 0.000228909
*RES
1 *1193:Y *146:8 27.93 
2 *146:8 *1195:B 23 
*END

*D_NET *147 0.000322192
*CONN
*I *1195:C I *D sky130_fd_sc_hd__and3_1
*I *1194:X O *D sky130_fd_sc_hd__or2_1
*CAP
1 *1195:C 9.48487e-05
2 *1194:X 9.48487e-05
3 *1195:C *1195:A 0.000107741
4 *1195:C *315:45 2.4754e-05
*RES
1 *1194:X *1195:C 47.6571 
*END

*D_NET *148 0.00227625
*CONN
*I *1200:B I *D sky130_fd_sc_hd__or2_1
*I *1199:B I *D sky130_fd_sc_hd__and2_1
*I *1198:A_N I *D sky130_fd_sc_hd__and3b_1
*I *1196:X O *D sky130_fd_sc_hd__and3_1
*CAP
1 *1200:B 0
2 *1199:B 0.000267619
3 *1198:A_N 0.00027166
4 *1196:X 0.00014798
5 *148:23 0.000411409
6 *148:8 0.000563429
7 *1198:A_N *149:10 0
8 *1198:A_N *264:22 0
9 *1199:B *1200:A 0.000180066
10 *1199:B *244:30 0.00010961
11 *148:8 *264:22 0
12 *148:8 *315:29 6.07611e-06
13 *148:8 *316:10 0
14 *148:23 *244:30 0.000318399
*RES
1 *1196:X *148:8 40.61 
2 *148:8 *1198:A_N 42.785 
3 *148:8 *148:23 18.48 
4 *148:23 *1199:B 27.9714 
5 *148:23 *1200:B 23 
*END

*D_NET *149 0.00123503
*CONN
*I *1198:B I *D sky130_fd_sc_hd__and3b_1
*I *1197:X O *D sky130_fd_sc_hd__a21o_1
*CAP
1 *1198:B 0
2 *1197:X 0.000505122
3 *149:10 0.000505122
4 *149:10 *264:22 0.000169164
5 *1198:A_N *149:10 0
6 *40:8 *149:10 5.56203e-05
*RES
1 *1197:X *149:10 48.1707 
2 *149:10 *1198:B 38 
*END

*D_NET *150 0.00274412
*CONN
*I *1202:B I *D sky130_fd_sc_hd__or2_1
*I *1203:B I *D sky130_fd_sc_hd__nand2_1
*I *1201:A_N I *D sky130_fd_sc_hd__and3b_1
*I *1199:X O *D sky130_fd_sc_hd__and2_1
*CAP
1 *1202:B 2.10401e-05
2 *1203:B 0
3 *1201:A_N 0
4 *1199:X 4.74176e-05
5 *150:29 0.000365607
6 *150:21 0.000430261
7 *150:14 0.000577116
8 *150:6 0.000668147
9 *1202:B *244:30 5.50106e-05
10 *150:6 *244:30 0.000100061
11 *150:14 *1141:A 0
12 *150:14 *151:8 0
13 *150:14 *264:100 0.00011908
14 *150:14 *317:10 0
15 *150:21 *244:30 9.67842e-05
16 *150:29 *1141:A 0
17 *150:29 *244:20 0
18 *150:29 *244:115 1.58805e-05
19 *144:23 *150:29 0.000247714
*RES
1 *1199:X *150:6 24.0979 
2 *150:6 *150:14 40.4607 
3 *150:14 *1201:A_N 23 
4 *150:6 *150:21 1.09786 
5 *150:21 *150:29 38.2236 
6 *150:29 *1203:B 23 
7 *150:21 *1202:B 23.6214 
*END

*D_NET *151 0.000841465
*CONN
*I *1201:B I *D sky130_fd_sc_hd__and3b_1
*I *1200:X O *D sky130_fd_sc_hd__or2_1
*CAP
1 *1201:B 0
2 *1200:X 0.000284515
3 *151:8 0.000284515
4 *151:8 *1141:A 5.15096e-05
5 *151:8 *317:10 0.000133316
6 *41:8 *151:8 8.76088e-05
7 *150:14 *151:8 0
*RES
1 *1200:X *151:8 43.4271 
2 *151:8 *1201:B 38 
*END

*D_NET *152 0.00107143
*CONN
*I *1204:B I *D sky130_fd_sc_hd__and3_1
*I *1202:X O *D sky130_fd_sc_hd__or2_1
*CAP
1 *1204:B 0
2 *1202:X 0.000338186
3 *152:10 0.000338186
4 *152:10 *1202:A 0.000141646
5 *152:10 *153:10 8.4047e-05
6 *152:10 *244:115 0
7 *152:10 *264:90 7.64851e-06
8 *152:10 *264:100 6.16039e-05
9 *1345:D *152:10 5.92579e-05
10 *42:8 *152:10 4.08537e-05
*RES
1 *1202:X *152:10 44.4421 
2 *152:10 *1204:B 38 
*END

*D_NET *153 0.00103418
*CONN
*I *1204:C I *D sky130_fd_sc_hd__and3_1
*I *1203:Y O *D sky130_fd_sc_hd__nand2_1
*CAP
1 *1204:C 5.60649e-05
2 *1203:Y 0.000238406
3 *153:10 0.000294471
4 *1204:C *1341:CLK 3.29127e-05
5 *153:10 *1203:A 1.94693e-05
6 *153:10 *244:20 0
7 *153:10 *264:88 0.000182863
8 *153:10 *264:90 0.000114083
9 *42:8 *153:10 6.7177e-06
10 *144:23 *153:10 5.14746e-06
11 *152:10 *153:10 8.4047e-05
*RES
1 *1203:Y *153:10 43.1164 
2 *153:10 *1204:C 38.7043 
*END

*D_NET *154 0.00301229
*CONN
*I *1279:A2 I *D sky130_fd_sc_hd__a31o_1
*I *1212:B I *D sky130_fd_sc_hd__or2_1
*I *1211:Y O *D sky130_fd_sc_hd__nand2b_1
*CAP
1 *1279:A2 0
2 *1212:B 0.000126814
3 *1211:Y 0.000174889
4 *154:10 0.000364091
5 *154:8 0.000412166
6 *1212:B *1401:A 0.000141052
7 *1212:B *337:60 7.91596e-05
8 *1212:B *337:73 1.58805e-05
9 *154:8 *341:37 0.000166981
10 *154:8 *341:39 0.000184527
11 *154:10 *1110:A 3.3746e-05
12 *154:10 *337:73 0.000252329
13 *154:10 *341:22 3.81486e-05
14 *154:10 *341:37 0.000185104
15 *1130:A1 *1212:B 8.60475e-05
16 *1130:A2 *1212:B 0.000191166
17 *1130:A2 *154:10 1.14452e-05
18 *1277:B *154:8 9.58714e-05
19 *1277:B *154:10 3.47781e-05
20 *94:8 *1212:B 5.3304e-05
21 *95:10 *154:10 0.000364788
*RES
1 *1211:Y *154:8 41.9564 
2 *154:8 *154:10 8.24429 
3 *154:10 *1212:B 42.1843 
4 *154:10 *1279:A2 38 
*END

*D_NET *155 0.00942544
*CONN
*I *1298:A_N I *D sky130_fd_sc_hd__and2b_1
*I *1305:B2 I *D sky130_fd_sc_hd__o32a_1
*I *1295:B1_N I *D sky130_fd_sc_hd__o21ba_1
*I *1213:A2 I *D sky130_fd_sc_hd__a21oi_1
*I *1212:X O *D sky130_fd_sc_hd__or2_1
*CAP
1 *1298:A_N 0
2 *1305:B2 0
3 *1295:B1_N 0
4 *1213:A2 0.000343821
5 *1212:X 0.00069977
6 *155:45 0.000767731
7 *155:35 0.000984611
8 *155:31 0.000216879
9 *155:16 0.000855777
10 *155:8 0.00121173
11 *1213:A2 *1115:A 0.00018282
12 *1213:A2 *156:8 0.000313255
13 *1213:A2 *216:16 7.91596e-05
14 *1213:A2 *222:10 0
15 *1213:A2 *255:10 5.29672e-05
16 *1213:A2 *330:73 0
17 *155:8 *250:35 0
18 *155:8 *250:48 0
19 *155:8 *269:90 0
20 *155:16 *1298:B 0
21 *155:16 *1326:A1 0.000347442
22 *155:16 *1326:B1 0.000182832
23 *155:16 *216:16 0.000105165
24 *155:16 *222:10 0
25 *155:16 *223:10 0
26 *155:16 *241:10 7.44161e-06
27 *155:16 *247:104 0.000439375
28 *155:16 *259:39 2.62931e-05
29 *155:35 *1305:A2 2.02517e-05
30 *155:35 *228:8 0.000195293
31 *155:45 *1296:A2 3.22879e-05
32 *155:45 *1296:B1 5.3304e-05
33 *155:45 *1305:A2 0.000111852
34 *155:45 *213:25 2.65879e-05
35 *155:45 *214:19 0.000563681
36 *155:45 *218:12 1.37349e-05
37 *155:45 *222:10 6.68793e-05
38 *1130:A2 *155:8 1.83667e-05
39 *1296:A1 *155:45 4.79544e-05
40 *81:20 *155:16 0
41 *84:8 *1213:A2 8.41115e-05
42 *87:64 *155:16 0.00137407
*RES
1 *1212:X *155:8 49.7657 
2 *155:8 *155:16 48.3529 
3 *155:16 *1213:A2 47.0521 
4 *155:16 *155:31 15 
5 *155:31 *155:35 4.45357 
6 *155:35 *155:45 42.4286 
7 *155:45 *1295:B1_N 23 
8 *155:35 *1305:B2 23 
9 *155:31 *1298:A_N 23 
*END

*D_NET *156 0.00372415
*CONN
*I *1217:B1 I *D sky130_fd_sc_hd__o211a_1
*I *1218:C1 I *D sky130_fd_sc_hd__o221a_1
*I *1213:Y O *D sky130_fd_sc_hd__a21oi_1
*CAP
1 *1217:B1 0.000148752
2 *1218:C1 2.91513e-05
3 *1213:Y 0.000411488
4 *156:10 0.000483119
5 *156:8 0.000716704
6 *1217:B1 *1214:A2 5.3304e-05
7 *1217:B1 *1217:A2 5.50049e-05
8 *1217:B1 *159:10 0.000194318
9 *1217:B1 *243:14 0
10 *1217:B1 *260:38 0.000243596
11 *1217:B1 *260:47 1.38978e-05
12 *1218:C1 *1218:B1 1.32314e-05
13 *1218:C1 *157:21 5.67058e-05
14 *1218:C1 *243:14 8.61037e-06
15 *156:8 *1115:A 2.4754e-05
16 *156:8 *1293:A1 0.000182832
17 *156:8 *255:10 5.68417e-05
18 *156:10 *1297:B 9.03054e-05
19 *156:10 *158:8 8.85189e-05
20 *156:10 *212:10 3.70187e-05
21 *156:10 *222:10 0.000105175
22 *156:10 *243:14 0.000168499
23 *156:10 *260:47 3.08146e-05
24 *156:10 *330:16 0.00014411
25 *1124:A *156:8 5.41385e-05
26 *1213:A2 *156:8 0.000313255
*RES
1 *1213:Y *156:8 46.7207 
2 *156:8 *156:10 8.7725 
3 *156:10 *1218:C1 38.9425 
4 *156:10 *1217:B1 42.7332 
*END

*D_NET *157 0.001596
*CONN
*I *1216:A2 I *D sky130_fd_sc_hd__o21ai_1
*I *1215:A2 I *D sky130_fd_sc_hd__o21a_1
*I *1218:A2 I *D sky130_fd_sc_hd__o221a_1
*I *1214:Y O *D sky130_fd_sc_hd__a21boi_1
*CAP
1 *1216:A2 0
2 *1215:A2 0
3 *1218:A2 0
4 *1214:Y 7.75157e-05
5 *157:27 0.000115552
6 *157:21 0.000272686
7 *157:12 0.000185034
8 *157:8 0.000105416
9 *157:8 *243:14 4.23714e-05
10 *157:8 *289:30 7.28526e-05
11 *157:21 *1218:B1 4.66047e-05
12 *157:21 *159:10 0.000136743
13 *157:21 *330:16 3.16784e-05
14 *157:21 *330:23 2.02517e-05
15 *157:27 *260:38 1.14452e-05
16 *157:27 *260:47 0.00019654
17 *157:27 *330:58 0
18 *1218:C1 *157:21 5.67058e-05
19 *49:10 *157:27 0
20 *88:67 *157:12 5.50106e-05
21 *88:67 *157:21 0.000169595
*RES
1 *1214:Y *157:8 39.9057 
2 *157:8 *157:12 15.6214 
3 *157:12 *1218:A2 23 
4 *157:12 *157:21 4.45357 
5 *157:21 *157:27 32.61 
6 *157:27 *1215:A2 23 
7 *157:21 *1216:A2 23 
*END

*D_NET *158 0.000484257
*CONN
*I *1218:B1 I *D sky130_fd_sc_hd__o221a_1
*I *1215:X O *D sky130_fd_sc_hd__o21a_1
*CAP
1 *1218:B1 9.68976e-05
2 *1215:X 5.06265e-05
3 *158:8 0.000147524
4 *1218:B1 *330:23 0
5 *158:8 *243:14 4.08537e-05
6 *1218:C1 *1218:B1 1.32314e-05
7 *88:67 *1218:B1 0
8 *156:10 *158:8 8.85189e-05
9 *157:21 *1218:B1 4.66047e-05
*RES
1 *1215:X *158:8 39.2014 
2 *158:8 *1218:B1 40.0921 
*END

*D_NET *159 0.000900629
*CONN
*I *1217:C1 I *D sky130_fd_sc_hd__o211a_1
*I *1216:Y O *D sky130_fd_sc_hd__o21ai_1
*CAP
1 *1217:C1 0
2 *1216:Y 0.000180978
3 *159:10 0.000180978
4 *159:10 *330:16 1.32939e-05
5 *1217:B1 *159:10 0.000194318
6 *88:67 *159:10 0.000194318
7 *157:21 *159:10 0.000136743
*RES
1 *1216:Y *159:10 42.6607 
2 *159:10 *1217:C1 38 
*END

*D_NET *160 0.000274715
*CONN
*I *1224:B1 I *D sky130_fd_sc_hd__a211o_1
*I *1219:X O *D sky130_fd_sc_hd__a22o_1
*CAP
1 *1224:B1 4.5928e-05
2 *1219:X 4.5928e-05
3 *1224:B1 *164:10 0.000105565
4 *1208:A *1224:B1 2.02517e-05
5 *80:72 *1224:B1 5.70419e-05
*RES
1 *1219:X *1224:B1 48.0921 
*END

*D_NET *161 0.000276423
*CONN
*I *1221:C1 I *D sky130_fd_sc_hd__a221o_1
*I *1220:Y O *D sky130_fd_sc_hd__o22ai_1
*CAP
1 *1221:C1 2.87263e-05
2 *1220:Y 2.87263e-05
3 *1221:C1 *1220:B2 8.80833e-05
4 *1221:C1 *1221:B2 5.50106e-05
5 *1220:A1 *1221:C1 2.63684e-05
6 *81:62 *1221:C1 4.95081e-05
*RES
1 *1220:Y *1221:C1 47.4604 
*END

*D_NET *162 0.0013551
*CONN
*I *1223:C1 I *D sky130_fd_sc_hd__a2111o_1
*I *1221:X O *D sky130_fd_sc_hd__a221o_1
*CAP
1 *1223:C1 0
2 *1221:X 0.000385501
3 *162:10 0.000385501
4 *162:10 *1223:B1 0.000128583
5 *162:10 *250:58 1.01436e-05
6 *85:8 *162:10 0
7 *86:12 *162:10 0.000445374
*RES
1 *1221:X *162:10 44.815 
2 *162:10 *1223:C1 38 
*END

*D_NET *163 0.000760301
*CONN
*I *1223:D1 I *D sky130_fd_sc_hd__a2111o_1
*I *1222:Y O *D sky130_fd_sc_hd__o22ai_1
*CAP
1 *1223:D1 0.000250291
2 *1222:Y 0.000250291
3 *1223:D1 *332:18 0.00014196
4 *82:40 *1223:D1 0.000117759
*RES
1 *1222:Y *1223:D1 49.9564 
*END

*D_NET *164 0.0012018
*CONN
*I *1224:C1 I *D sky130_fd_sc_hd__a211o_1
*I *1223:X O *D sky130_fd_sc_hd__a2111o_1
*CAP
1 *1224:C1 0
2 *1223:X 0.000234096
3 *164:10 0.000234096
4 *164:10 *1219:A2 2.28916e-05
5 *1224:B1 *164:10 0.000105565
6 *80:72 *164:10 0.000234989
7 *82:40 *164:10 0.000370167
*RES
1 *1223:X *164:10 29.8564 
2 *164:10 *1224:C1 23 
*END

*D_NET *165 0.0055862
*CONN
*I *1394:A I *D sky130_fd_sc_hd__buf_2
*I *1395:A I *D sky130_fd_sc_hd__clkbuf_2
*I *1224:X O *D sky130_fd_sc_hd__a211o_1
*CAP
1 *1394:A 0
2 *1395:A 0.000132925
3 *1224:X 0.000687922
4 *165:35 0.000421611
5 *165:18 0.00111768
6 *165:10 0.00125106
7 *1395:A *1369:CLK 3.31324e-05
8 *165:10 *247:70 0.00029223
9 *165:10 *298:12 9.84794e-05
10 *165:18 *1369:CLK 2.45549e-06
11 *165:18 *298:12 3.83778e-05
12 *165:35 *173:10 0.000462659
13 *165:35 *173:14 4.34008e-07
14 *165:35 *201:10 0
15 *165:35 *266:6 7.53384e-06
16 *165:35 *297:14 0
17 *1208:A *165:10 0.000619272
18 *1369:D *165:18 5.34647e-06
19 *3:11 *165:35 0
20 *46:6 *165:10 1.22822e-05
21 *80:72 *165:10 0.000402806
*RES
1 *1224:X *165:10 39.0329 
2 *165:10 *165:18 37.54 
3 *165:18 *1395:A 25.2993 
4 *165:18 *165:35 38.99 
5 *165:35 *1394:A 23 
*END

*D_NET *166 0.00894863
*CONN
*I *1240:A1 I *D sky130_fd_sc_hd__o21a_1
*I *1230:B I *D sky130_fd_sc_hd__and4_1
*I *1233:B I *D sky130_fd_sc_hd__and4_1
*I *1248:A3 I *D sky130_fd_sc_hd__a31o_1
*I *1243:B I *D sky130_fd_sc_hd__or2_1
*I *1242:B I *D sky130_fd_sc_hd__nand2_1
*I *1227:A I *D sky130_fd_sc_hd__nand2_1
*I *1253:C I *D sky130_fd_sc_hd__and4_1
*I *1254:A2 I *D sky130_fd_sc_hd__a31o_1
*I *1225:X O *D sky130_fd_sc_hd__and3_2
*CAP
1 *1240:A1 7.27821e-05
2 *1230:B 0
3 *1233:B 9.29152e-05
4 *1248:A3 0
5 *1243:B 0
6 *1242:B 8.70352e-05
7 *1227:A 0
8 *1253:C 0
9 *1254:A2 0.000127462
10 *1225:X 0.000110361
11 *166:101 0.000305861
12 *166:61 0.000374742
13 *166:57 0.000918426
14 *166:51 0.000723634
15 *166:49 0.000563988
16 *166:42 0.000477263
17 *166:18 0.000244948
18 *166:14 0.00072822
19 *166:8 0.000574741
20 *1233:B *167:33 0.000114092
21 *1233:B *268:33 0
22 *1240:A1 *1252:B1 4.5051e-05
23 *1240:A1 *268:108 5.50049e-05
24 *1242:B *180:8 0.00014411
25 *1242:B *182:8 0
26 *1242:B *183:8 0
27 *1242:B *301:8 6.07611e-06
28 *1242:B *301:23 8.51432e-05
29 *1242:B *301:36 6.07611e-06
30 *1254:A2 *1254:A1 0.000268579
31 *1254:A2 *1254:A3 0.000300823
32 *1254:A2 *304:31 1.14452e-05
33 *1254:A2 *306:37 1.47563e-05
34 *166:8 *1225:B 1.01436e-05
35 *166:8 *178:10 0
36 *166:8 *304:29 0
37 *166:14 *268:108 0.000111138
38 *166:14 *304:29 0
39 *166:18 *1254:A3 1.14452e-05
40 *166:18 *167:39 0.000340163
41 *166:18 *304:29 0.000275473
42 *166:18 *304:31 7.48331e-05
43 *166:42 *167:33 4.74322e-05
44 *166:42 *167:39 0.000233367
45 *166:49 *167:33 0.000663233
46 *166:57 *169:22 0
47 *166:57 *184:8 0
48 *166:57 *268:33 0
49 *166:57 *268:44 0.000125904
50 *166:57 *301:36 5.12254e-05
51 *166:61 *180:8 3.70094e-05
52 *166:61 *268:44 0
53 *166:61 *301:36 0.000197864
54 *166:101 *167:23 5.3304e-05
55 *166:101 *167:33 5.50106e-05
56 *166:101 *169:22 6.79006e-05
57 *166:101 *293:25 0.000139647
*RES
1 *1225:X *166:8 39.9057 
2 *166:8 *166:14 22.2707 
3 *166:14 *166:18 19.7229 
4 *166:18 *1254:A2 42.4329 
5 *166:18 *1253:C 38 
6 *166:14 *166:42 4.45357 
7 *166:42 *1227:A 23 
8 *166:42 *166:49 7.29143 
9 *166:49 *166:51 15 
10 *166:51 *166:57 26.6 
11 *166:57 *166:61 21.1314 
12 *166:61 *1242:B 40.61 
13 *166:61 *1243:B 38 
14 *166:57 *1248:A3 23 
15 *166:51 *1233:B 39.9057 
16 *166:49 *166:101 36.0071 
17 *166:101 *1230:B 23 
18 *166:8 *1240:A1 39.5743 
*END

*D_NET *167 0.00632743
*CONN
*I *1230:C I *D sky130_fd_sc_hd__and4_1
*I *1233:C I *D sky130_fd_sc_hd__and4_1
*I *1227:B I *D sky130_fd_sc_hd__nand2_1
*I *1253:D I *D sky130_fd_sc_hd__and4_1
*I *1254:A3 I *D sky130_fd_sc_hd__a31o_1
*I *1285:A1 I *D sky130_fd_sc_hd__a2111o_1
*I *1226:X O *D sky130_fd_sc_hd__and3_1
*CAP
1 *1230:C 0
2 *1233:C 0
3 *1227:B 0
4 *1253:D 0
5 *1254:A3 0.000259239
6 *1285:A1 0
7 *1226:X 0.000228384
8 *167:39 0.000565271
9 *167:33 0.0007958
10 *167:23 0.000638854
11 *167:21 0.000477921
12 *167:8 0.000557219
13 *1254:A3 *1255:A_N 3.22465e-05
14 *1254:A3 *306:37 2.72055e-05
15 *167:8 *1294:C1 0
16 *167:8 *1311:B1 0
17 *167:8 *184:8 0
18 *167:8 *246:20 5.56306e-05
19 *167:8 *302:41 0
20 *167:8 *303:12 0
21 *167:21 *170:24 0.00011726
22 *167:21 *246:20 0.000229945
23 *167:21 *266:60 0
24 *167:21 *293:10 6.88885e-05
25 *167:23 *1230:A 3.71251e-05
26 *167:23 *169:22 0.000141954
27 *167:23 *173:58 0.000194682
28 *167:23 *293:10 1.21972e-05
29 *167:33 *168:8 5.50049e-05
30 *167:33 *169:22 0
31 *167:33 *268:33 0
32 *167:33 *293:25 0
33 *167:39 *304:29 1.37349e-05
34 *1233:B *167:33 0.000114092
35 *1254:A2 *1254:A3 0.000300823
36 *166:18 *1254:A3 1.14452e-05
37 *166:18 *167:39 0.000340163
38 *166:42 *167:33 4.74322e-05
39 *166:42 *167:39 0.000233367
40 *166:49 *167:33 0.000663233
41 *166:101 *167:23 5.3304e-05
42 *166:101 *167:33 5.50106e-05
*RES
1 *1226:X *167:8 42.0186 
2 *167:8 *1285:A1 38 
3 *167:8 *167:21 23.1821 
4 *167:21 *167:23 3.95643 
5 *167:23 *167:33 41.1236 
6 *167:33 *167:39 22.6021 
7 *167:39 *1254:A3 43.4893 
8 *167:39 *1253:D 38 
9 *167:33 *1227:B 23 
10 *167:23 *1233:C 23 
11 *167:21 *1230:C 23 
*END

*D_NET *168 0.00271377
*CONN
*I *1251:B I *D sky130_fd_sc_hd__xor2_1
*I *1249:A I *D sky130_fd_sc_hd__nand2_1
*I *1227:Y O *D sky130_fd_sc_hd__nand2_1
*CAP
1 *1251:B 0.000471758
2 *1249:A 0.000344279
3 *1227:Y 4.25104e-05
4 *168:8 0.000858548
5 *1249:A *170:18 9.84851e-05
6 *1249:A *236:22 0.000319407
7 *1249:A *304:29 0
8 *1251:B *1360:CLK 3.85196e-05
9 *1251:B *186:10 0.000245614
10 *1251:B *246:53 0.000112827
11 *1251:B *246:57 6.96101e-05
12 *1251:B *304:27 0
13 *1251:B *304:29 0
14 *1360:D *1251:B 1.64354e-05
15 *57:8 *1251:B 4.07715e-05
16 *167:33 *168:8 5.50049e-05
*RES
1 *1227:Y *168:8 38.6214 
2 *168:8 *1249:A 45.4986 
3 *168:8 *1251:B 48.8543 
*END

*D_NET *169 0.00355961
*CONN
*I *1285:A2 I *D sky130_fd_sc_hd__a2111o_1
*I *1233:D I *D sky130_fd_sc_hd__and4_1
*I *1228:X O *D sky130_fd_sc_hd__and3_1
*CAP
1 *1285:A2 4.04494e-05
2 *1233:D 0
3 *1228:X 0.000657033
4 *169:22 0.000372489
5 *169:12 0.000412939
6 *169:10 0.000657033
7 *1285:A2 *170:18 9.5877e-05
8 *1285:A2 *170:31 8.6949e-05
9 *1285:A2 *236:22 0.000170388
10 *169:10 *246:20 0.000228001
11 *169:10 *266:60 5.94125e-05
12 *169:10 *268:44 0.000137651
13 *169:22 *170:18 0.000140259
14 *169:22 *184:8 1.01436e-05
15 *169:22 *236:22 0.000141954
16 *169:22 *266:60 0
17 *169:22 *293:25 6.36037e-05
18 *56:12 *169:10 7.55718e-05
19 *166:57 *169:22 0
20 *166:101 *169:22 6.79006e-05
21 *167:23 *169:22 0.000141954
22 *167:33 *169:22 0
*RES
1 *1228:X *169:10 47.6736 
2 *169:10 *169:12 15 
3 *169:12 *169:22 38.2236 
4 *169:22 *1233:D 23 
5 *169:12 *1285:A2 25.0507 
*END

*D_NET *170 0.00567994
*CONN
*I *1294:B1 I *D sky130_fd_sc_hd__o211a_1
*I *1311:B1 I *D sky130_fd_sc_hd__o211a_1
*I *1285:B1 I *D sky130_fd_sc_hd__a2111o_1
*I *1230:D I *D sky130_fd_sc_hd__and4_1
*I *1229:X O *D sky130_fd_sc_hd__and4_1
*CAP
1 *1294:B1 0
2 *1311:B1 0.000210909
3 *1285:B1 0
4 *1230:D 0
5 *1229:X 0.000422094
6 *170:42 0.000455979
7 *170:31 0.000304058
8 *170:24 0.000134053
9 *170:18 0.000561103
10 *170:14 0.000790156
11 *1311:B1 *1294:C1 6.07611e-06
12 *1311:B1 *1311:A1 4.12182e-05
13 *1311:B1 *1311:C1 9.90162e-05
14 *1311:B1 *219:10 0.000143655
15 *1311:B1 *302:41 6.16531e-05
16 *1311:B1 *303:32 9.5877e-05
17 *170:14 *1228:C 0.000100061
18 *170:14 *185:8 3.19211e-05
19 *170:14 *304:59 0
20 *170:14 *305:34 0
21 *170:14 *307:29 0
22 *170:18 *1249:B 0.000398503
23 *170:18 *236:22 5.60968e-05
24 *170:18 *293:25 9.58714e-05
25 *170:24 *266:60 0.000354778
26 *170:31 *236:22 6.68919e-05
27 *170:31 *293:25 0.000224605
28 *170:42 *1294:C1 9.03054e-05
29 *170:42 *1312:A1 9.67842e-05
30 *170:42 *236:22 8.83847e-05
31 *170:42 *293:25 9.84851e-05
32 *170:42 *293:36 0.000101129
33 *170:42 *302:41 1.14452e-05
34 *1249:A *170:18 9.84851e-05
35 *1285:A2 *170:18 9.5877e-05
36 *1285:A2 *170:31 8.6949e-05
37 *167:8 *1311:B1 0
38 *167:21 *170:24 0.00011726
39 *169:22 *170:18 0.000140259
*RES
1 *1229:X *170:14 44.0071 
2 *170:14 *170:18 24.1971 
3 *170:18 *170:24 34.7229 
4 *170:24 *1230:D 23 
5 *170:18 *170:31 2.52714 
6 *170:31 *1285:B1 23 
7 *170:31 *170:42 20.9657 
8 *170:42 *1311:B1 43.655 
9 *170:42 *1294:B1 38 
*END

*D_NET *171 0.00258354
*CONN
*I *1231:D I *D sky130_fd_sc_hd__and4_1
*I *1265:B I *D sky130_fd_sc_hd__xnor2_1
*I *1263:A I *D sky130_fd_sc_hd__or2_1
*I *1230:X O *D sky130_fd_sc_hd__and4_1
*CAP
1 *1231:D 0.000242778
2 *1265:B 4.07688e-05
3 *1263:A 5.145e-05
4 *1230:X 0.000240973
5 *171:19 0.000386084
6 *171:8 0.00039496
7 *1231:D *1231:C 2.93845e-05
8 *1231:D *172:8 2.76611e-06
9 *1231:D *209:10 0
10 *1231:D *266:50 3.81554e-05
11 *1231:D *267:25 0
12 *1231:D *295:40 1.01436e-05
13 *1231:D *296:39 9.20311e-06
14 *1265:B *173:18 1.94812e-05
15 *1265:B *173:20 1.59094e-05
16 *1265:B *268:10 9.84851e-05
17 *171:8 *173:42 0.000377181
18 *171:8 *173:58 0.000216721
19 *171:8 *194:10 2.84809e-05
20 *171:8 *246:12 5.08795e-05
21 *171:8 *266:50 0.000119761
22 *171:19 *173:42 0.000139647
23 *171:19 *209:10 0
24 *171:19 *266:50 7.03317e-05
*RES
1 *1230:X *171:8 45.8921 
2 *171:8 *1263:A 38.6214 
3 *171:8 *171:19 2.96214 
4 *171:19 *1265:B 39.0979 
5 *171:19 *1231:D 42.2879 
*END

*D_NET *172 0.00560754
*CONN
*I *1275:A2 I *D sky130_fd_sc_hd__a21oi_1
*I *1232:C I *D sky130_fd_sc_hd__nand3_2
*I *1274:A2 I *D sky130_fd_sc_hd__o21ba_1
*I *1271:A I *D sky130_fd_sc_hd__or2_1
*I *1231:X O *D sky130_fd_sc_hd__and4_1
*CAP
1 *1275:A2 0.000150706
2 *1232:C 2.0995e-05
3 *1274:A2 0
4 *1271:A 0.000454296
5 *1231:X 0.000301302
6 *172:38 0.000322527
7 *172:31 0.000270551
8 *172:12 0.000857592
9 *172:10 0.000283571
10 *172:8 0.000301302
11 *1232:C *297:14 1.14154e-05
12 *1232:C *298:16 0
13 *1271:A *1270:A 2.31397e-05
14 *1271:A *1271:B 1.88072e-05
15 *1271:A *1273:A2 0.000141052
16 *1271:A *267:14 5.3304e-05
17 *1271:A *268:20 2.49855e-05
18 *1271:A *296:27 0.000357631
19 *1275:A2 *1232:A 0
20 *1275:A2 *297:14 2.93747e-05
21 *1275:A2 *297:22 0.00039759
22 *1275:A2 *298:12 8.82787e-05
23 *1275:A2 *298:16 5.78192e-05
24 *172:8 *1284:B 0
25 *172:8 *173:14 0
26 *172:8 *209:10 8.85189e-05
27 *172:8 *267:25 0
28 *172:8 *295:40 0
29 *172:8 *296:39 0
30 *172:8 *298:24 0.000411299
31 *172:12 *1273:A2 8.52481e-05
32 *172:12 *267:14 0.000269781
33 *172:31 *200:8 0.000326983
34 *172:31 *267:25 3.47781e-05
35 *172:31 *296:27 0
36 *172:31 *297:42 5.7153e-05
37 *172:38 *297:14 8.1796e-05
38 *172:38 *298:16 3.17634e-05
39 *1231:D *172:8 2.76611e-06
40 *65:10 *172:31 0
41 *83:6 *1271:A 2.32004e-05
42 *83:6 *172:12 2.18409e-05
43 *83:6 *172:38 6.17437e-06
*RES
1 *1231:X *172:8 45.1879 
2 *172:8 *172:10 15 
3 *172:10 *172:12 3.48 
4 *172:12 *1271:A 33.44 
5 *172:12 *172:31 36.1314 
6 *172:31 *1274:A2 23 
7 *172:10 *172:38 3.00357 
8 *172:38 *1232:C 23.4971 
9 *172:38 *1275:A2 28.4064 
*END

*D_NET *173 0.0130099
*CONN
*I *1396:A I *D sky130_fd_sc_hd__buf_2
*I *1264:A1 I *D sky130_fd_sc_hd__a21oi_1
*I *1252:A1 I *D sky130_fd_sc_hd__a21oi_1
*I *1236:A2 I *D sky130_fd_sc_hd__a21oi_1
*I *1238:A1 I *D sky130_fd_sc_hd__a21oi_1
*I *1232:Y O *D sky130_fd_sc_hd__nand3_2
*CAP
1 *1396:A 7.8424e-05
2 *1264:A1 0
3 *1252:A1 0.000489096
4 *1236:A2 0.000294206
5 *1238:A1 0
6 *1232:Y 0.00025089
7 *173:58 0.00119039
8 *173:42 0.00089531
9 *173:20 0.00159282
10 *173:18 0.001828
11 *173:14 0.000672141
12 *173:10 0.000509236
13 *1236:A2 *1236:A1 0.000143655
14 *1236:A2 *1407:A 7.88926e-05
15 *1236:A2 *267:38 0.000156007
16 *1252:A1 *1252:A2 2.4754e-05
17 *1252:A1 *1252:B1 0.000101762
18 *1396:A *268:6 4.93341e-05
19 *173:10 *266:151 0
20 *173:10 *267:14 0
21 *173:10 *297:22 6.16531e-05
22 *173:10 *298:24 0
23 *173:14 *246:156 0.000216721
24 *173:14 *266:16 4.06408e-05
25 *173:14 *266:151 0.000129793
26 *173:14 *268:129 4.07715e-05
27 *173:14 *294:10 0.000164282
28 *173:14 *294:12 1.01436e-05
29 *173:18 *1265:A 0.000148688
30 *173:18 *268:6 2.81406e-06
31 *173:18 *268:10 9.24795e-06
32 *173:20 *267:27 0.00153655
33 *173:20 *267:38 2.25419e-05
34 *173:20 *268:10 5.53914e-05
35 *173:42 *194:10 0.000296026
36 *173:42 *209:10 6.88715e-05
37 *173:58 *1230:A 9.84794e-05
38 *173:58 *1233:A 5.70419e-05
39 *173:58 *1264:B1 6.17437e-06
40 *173:58 *266:50 3.3123e-05
41 *173:58 *266:60 8.26569e-05
42 *173:58 *293:10 0.000139352
43 *1265:B *173:18 1.94812e-05
44 *1265:B *173:20 1.59094e-05
45 *3:11 *173:14 0
46 *61:10 *173:58 7.30979e-06
47 *165:35 *173:10 0.000462659
48 *165:35 *173:14 4.34008e-07
49 *167:23 *173:58 0.000194682
50 *171:8 *173:42 0.000377181
51 *171:8 *173:58 0.000216721
52 *171:19 *173:42 0.000139647
53 *172:8 *173:14 0
*RES
1 *1232:Y *173:10 44.7425 
2 *173:10 *173:14 20.7896 
3 *173:14 *173:18 5.28214 
4 *173:18 *173:20 20.6314 
5 *173:20 *1238:A1 23 
6 *173:20 *1236:A2 29.8564 
7 *173:18 *173:42 36.8357 
8 *173:42 *173:58 44.0236 
9 *173:58 *1252:A1 29.3386 
10 *173:42 *1264:A1 23 
11 *173:14 *1396:A 24.5743 
*END

*D_NET *174 0.000791877
*CONN
*I *1234:C I *D sky130_fd_sc_hd__and3_1
*I *1262:B I *D sky130_fd_sc_hd__nor2_1
*I *1233:X O *D sky130_fd_sc_hd__and4_1
*CAP
1 *1234:C 0.00016576
2 *1262:B 6.80678e-05
3 *1233:X 0.000125837
4 *174:8 0.000359665
5 *1234:C *1234:B 0
6 *1234:C *193:8 2.54046e-05
7 *1234:C *246:47 4.71428e-05
8 *1234:C *304:27 0
9 *174:8 *1233:A 0
10 *174:8 *293:56 0
11 *174:8 *304:27 0
*RES
1 *1233:X *174:8 40.2579 
2 *174:8 *1262:B 39.0979 
3 *174:8 *1234:C 40.8689 
*END

*D_NET *175 0.00126231
*CONN
*I *1235:B I *D sky130_fd_sc_hd__and2_1
*I *1267:B I *D sky130_fd_sc_hd__nor2_1
*I *1234:X O *D sky130_fd_sc_hd__and3_1
*CAP
1 *1235:B 0.000203358
2 *1267:B 2.44744e-05
3 *1234:X 0.000241364
4 *175:8 0.000469197
5 *1235:B *176:14 0
6 *1235:B *267:25 7.38195e-05
7 *1235:B *295:10 0
8 *1235:B *295:21 2.93845e-05
9 *1267:B *267:27 9.84794e-05
10 *1267:B *268:10 5.41288e-05
11 *175:8 *193:8 5.86165e-05
12 *175:8 *266:50 0
13 *175:8 *267:25 9.48381e-06
14 *175:8 *268:33 0
15 *175:8 *295:10 0
*RES
1 *1234:X *175:8 42.7229 
2 *175:8 *1267:B 39.0979 
3 *175:8 *1235:B 41.9357 
*END

*D_NET *176 0.00245936
*CONN
*I *1273:A4 I *D sky130_fd_sc_hd__a41o_1
*I *1270:B I *D sky130_fd_sc_hd__nor2_1
*I *1268:A1 I *D sky130_fd_sc_hd__o21a_1
*I *1235:X O *D sky130_fd_sc_hd__and2_1
*CAP
1 *1273:A4 0
2 *1270:B 0.000110208
3 *1268:A1 0
4 *1235:X 4.04453e-05
5 *176:25 0.000424142
6 *176:14 0.000349805
7 *176:6 0.000704184
8 *1270:B *296:27 0.000272377
9 *176:6 *295:21 1.32939e-05
10 *176:14 *266:24 8.08139e-06
11 *176:14 *267:25 0
12 *176:14 *268:20 0
13 *176:14 *268:33 4.21594e-06
14 *176:14 *295:10 9.18526e-05
15 *176:14 *295:21 2.7237e-05
16 *176:25 *267:25 0
17 *176:25 *268:20 0
18 *176:25 *296:27 5.33597e-05
19 *176:25 *296:33 0.000360161
20 *1235:B *176:14 0
*RES
1 *1235:X *176:6 23.6214 
2 *176:6 *176:14 36.0693 
3 *176:14 *1268:A1 23 
4 *176:6 *176:25 37.54 
5 *176:25 *1270:B 26.0036 
6 *176:25 *1273:A4 23 
*END

*D_NET *177 0.000616461
*CONN
*I *1238:A2 I *D sky130_fd_sc_hd__a21oi_1
*I *1237:Y O *D sky130_fd_sc_hd__xnor2_1
*CAP
1 *1238:A2 0
2 *1237:Y 0.000211803
3 *177:10 0.000211803
4 *177:10 *1237:A 5.41288e-05
5 *177:10 *299:8 0.000138727
*RES
1 *1237:Y *177:10 41.48 
2 *177:10 *1238:A2 38 
*END

*D_NET *178 0.00092075
*CONN
*I *1240:A2 I *D sky130_fd_sc_hd__o21a_1
*I *1239:Y O *D sky130_fd_sc_hd__a21oi_1
*CAP
1 *1240:A2 0
2 *1239:Y 0.000290255
3 *178:10 0.000290255
4 *178:10 *1225:B 3.99192e-05
5 *178:10 *267:51 0
6 *178:10 *292:18 4.27804e-05
7 *178:10 *292:33 0.000105016
8 *178:10 *299:10 1.69668e-05
9 *178:10 *300:12 0.000135557
10 *53:8 *178:10 0
11 *166:8 *178:10 0
*RES
1 *1239:Y *178:10 44.0486 
2 *178:10 *1240:A2 38 
*END

*D_NET *179 0.000240688
*CONN
*I *1241:B I *D sky130_fd_sc_hd__nor2_1
*I *1240:X O *D sky130_fd_sc_hd__o21a_1
*CAP
1 *1241:B 4.85166e-05
2 *1240:X 4.85166e-05
3 *1241:B *1252:B1 0.000143655
*RES
1 *1240:X *1241:B 47.5743 
*END

*D_NET *180 0.00103746
*CONN
*I *1246:B I *D sky130_fd_sc_hd__xor2_1
*I *1244:A I *D sky130_fd_sc_hd__nand2_1
*I *1242:Y O *D sky130_fd_sc_hd__nand2_1
*CAP
1 *1246:B 3.65708e-05
2 *1244:A 0.000265253
3 *1242:Y 9.79913e-05
4 *180:10 0.000301824
5 *180:8 9.79913e-05
6 *1244:A *1244:B 5.67058e-05
7 *180:8 *183:8 0
8 *1242:B *180:8 0.00014411
9 *166:61 *180:8 3.70094e-05
*RES
1 *1242:Y *180:8 40.2579 
2 *180:8 *180:10 15 
3 *180:10 *1244:A 27.4536 
4 *180:10 *1246:B 23.6214 
*END

*D_NET *181 9.87992e-05
*CONN
*I *1244:B I *D sky130_fd_sc_hd__nand2_1
*I *1243:X O *D sky130_fd_sc_hd__or2_1
*CAP
1 *1244:B 2.10467e-05
2 *1243:X 2.10467e-05
3 *1244:A *1244:B 5.67058e-05
*RES
1 *1243:X *1244:B 46.6214 
*END

*D_NET *182 0.000287602
*CONN
*I *1245:A2 I *D sky130_fd_sc_hd__a21oi_1
*I *1244:Y O *D sky130_fd_sc_hd__nand2_1
*CAP
1 *1245:A2 0
2 *1244:Y 7.17459e-05
3 *182:8 7.17459e-05
4 *182:8 *268:48 0.00014411
5 *182:8 *301:23 0
6 *1242:B *182:8 0
*RES
1 *1244:Y *182:8 39.9057 
2 *182:8 *1245:A2 38 
*END

*D_NET *183 0.000810413
*CONN
*I *1247:A2 I *D sky130_fd_sc_hd__a21oi_1
*I *1246:X O *D sky130_fd_sc_hd__xor2_1
*CAP
1 *1247:A2 0.000106063
2 *1246:X 0.000162105
3 *183:8 0.000268167
4 *1247:A2 *1247:A1 0.000274078
5 *183:8 *244:178 0
6 *183:8 *301:8 0
7 *1242:B *183:8 0
8 *55:8 *183:8 0
9 *180:8 *183:8 0
*RES
1 *1246:X *183:8 40.9621 
2 *183:8 *1247:A2 41.0036 
*END

*D_NET *184 0.00164611
*CONN
*I *1249:B I *D sky130_fd_sc_hd__nand2_1
*I *1248:X O *D sky130_fd_sc_hd__a31o_1
*CAP
1 *1249:B 7.72576e-05
2 *1248:X 0.00034222
3 *184:8 0.000419478
4 *1249:B *236:22 0.000398503
5 *166:57 *184:8 0
6 *167:8 *184:8 0
7 *169:22 *184:8 1.01436e-05
8 *170:18 *1249:B 0.000398503
*RES
1 *1248:X *184:8 42.7229 
2 *184:8 *1249:B 42.4329 
*END

*D_NET *185 0.000298918
*CONN
*I *1250:A2 I *D sky130_fd_sc_hd__a21oi_1
*I *1249:Y O *D sky130_fd_sc_hd__nand2_1
*CAP
1 *1250:A2 0
2 *1249:Y 6.95435e-05
3 *185:8 6.95435e-05
4 *185:8 *266:60 8.68016e-06
5 *185:8 *266:62 6.07611e-06
6 *185:8 *268:33 0.000113153
7 *170:14 *185:8 3.19211e-05
*RES
1 *1249:Y *185:8 39.9057 
2 *185:8 *1250:A2 38 
*END

*D_NET *186 0.00119639
*CONN
*I *1252:A2 I *D sky130_fd_sc_hd__a21oi_1
*I *1251:X O *D sky130_fd_sc_hd__xor2_1
*CAP
1 *1252:A2 6.98728e-05
2 *1251:X 0.000274447
3 *186:10 0.00034432
4 *1252:A2 *1252:B1 0.000146195
5 *186:10 *304:29 0
6 *1251:B *186:10 0.000245614
7 *1252:A1 *1252:A2 2.4754e-05
8 *1360:D *186:10 4.9054e-06
9 *57:8 *186:10 8.62783e-05
*RES
1 *1251:X *186:10 42.785 
2 *186:10 *1252:A2 40.0507 
*END

*D_NET *187 0.00610562
*CONN
*I *1255:A_N I *D sky130_fd_sc_hd__nand2b_1
*I *1259:C I *D sky130_fd_sc_hd__and3_1
*I *1257:B I *D sky130_fd_sc_hd__xnor2_1
*I *1253:X O *D sky130_fd_sc_hd__and4_1
*CAP
1 *1255:A_N 0.000618949
2 *1259:C 3.92901e-05
3 *1257:B 0.00024531
4 *1253:X 0.000357909
5 *187:20 0.000667307
6 *187:10 0.00135956
7 *1255:A_N *1254:A1 9.06429e-06
8 *1255:A_N *188:10 0.00036696
9 *1255:A_N *266:111 9.84794e-05
10 *1255:A_N *305:34 8.1823e-05
11 *1257:B *1258:A2 5.67058e-05
12 *1257:B *1259:A 9.84851e-05
13 *1257:B *266:96 3.12121e-05
14 *1257:B *268:68 2.46906e-05
15 *1257:B *268:72 0.000331517
16 *1257:B *306:29 0.000709133
17 *1259:C *1259:A 1.37232e-05
18 *1259:C *266:96 4.78136e-05
19 *187:10 *1228:C 2.02872e-05
20 *187:10 *305:15 9.99383e-05
21 *187:10 *305:24 2.02872e-05
22 *187:10 *305:34 0.000139647
23 *187:10 *307:29 3.61397e-05
24 *187:20 *191:12 5.56356e-05
25 *187:20 *191:27 9.64943e-05
26 *187:20 *192:10 8.93193e-05
27 *187:20 *266:90 5.25435e-05
28 *187:20 *266:96 2.14613e-05
29 *187:20 *268:68 0.000135039
30 *187:20 *307:29 0.000148647
31 *1254:A3 *1255:A_N 3.22465e-05
*RES
1 *1253:X *187:10 43.9657 
2 *187:10 *187:20 23.9693 
3 *187:20 *1257:B 33.15 
4 *187:20 *1259:C 24.362 
5 *187:10 *1255:A_N 49.1443 
*END

*D_NET *188 0.00108722
*CONN
*I *1255:B I *D sky130_fd_sc_hd__nand2b_1
*I *1254:X O *D sky130_fd_sc_hd__a31o_1
*CAP
1 *1255:B 0
2 *1254:X 0.0001226
3 *188:10 0.0001226
4 *188:10 *1256:A1 0
5 *188:10 *236:16 0.000446501
6 *188:10 *266:111 2.8558e-05
7 *1255:A_N *188:10 0.00036696
*RES
1 *1254:X *188:10 29.033 
2 *188:10 *1255:B 23 
*END

*D_NET *189 0.000126903
*CONN
*I *1256:A2 I *D sky130_fd_sc_hd__a21oi_1
*I *1255:Y O *D sky130_fd_sc_hd__nand2b_1
*CAP
1 *1256:A2 6.74574e-06
2 *1255:Y 6.74574e-06
3 *1256:A2 *1256:A1 5.67058e-05
4 *1256:A2 *266:111 5.67058e-05
*RES
1 *1255:Y *1256:A2 46.6214 
*END

*D_NET *190 0.00017903
*CONN
*I *1258:A2 I *D sky130_fd_sc_hd__a21oi_1
*I *1257:Y O *D sky130_fd_sc_hd__xnor2_1
*CAP
1 *1258:A2 6.11622e-05
2 *1257:Y 6.11622e-05
3 *1258:A2 *266:96 0
4 *1258:A2 *306:29 0
5 *1257:B *1258:A2 5.67058e-05
*RES
1 *1257:Y *1258:A2 47.4707 
*END

*D_NET *191 0.0015597
*CONN
*I *1261:A2 I *D sky130_fd_sc_hd__o21a_1
*I *1260:A2 I *D sky130_fd_sc_hd__a21oi_1
*I *1259:X O *D sky130_fd_sc_hd__and3_1
*CAP
1 *1261:A2 0
2 *1260:A2 0
3 *1259:X 5.5195e-05
4 *191:27 0.000375606
5 *191:12 0.000389293
6 *191:8 6.8882e-05
7 *191:8 *306:37 0
8 *191:8 *307:29 2.45845e-05
9 *191:12 *266:96 3.22051e-05
10 *191:27 *1357:CLK 0.000101988
11 *191:27 *192:10 0.000171931
12 *191:27 *266:96 4.21062e-05
13 *191:27 *277:10 0
14 *191:27 *307:10 0.000109352
15 *191:27 *307:29 3.64246e-05
16 *187:20 *191:12 5.56356e-05
17 *187:20 *191:27 9.64943e-05
*RES
1 *1259:X *191:8 38.8493 
2 *191:8 *191:12 15.6214 
3 *191:12 *1260:A2 23 
4 *191:12 *191:27 37.8714 
5 *191:27 *1261:A2 23 
*END

*D_NET *192 0.00108537
*CONN
*I *1261:B1 I *D sky130_fd_sc_hd__o21a_1
*I *1260:Y O *D sky130_fd_sc_hd__a21oi_1
*CAP
1 *1261:B1 0
2 *1260:Y 0.000354514
3 *192:10 0.000354514
4 *192:10 *244:67 0
5 *192:10 *268:68 5.50049e-05
6 *192:10 *276:10 4.14137e-05
7 *192:10 *307:29 1.86721e-05
8 *187:20 *192:10 8.93193e-05
9 *191:27 *192:10 0.000171931
*RES
1 *1260:Y *192:10 45.105 
2 *192:10 *1261:B1 38 
*END

*D_NET *193 0.000996186
*CONN
*I *1263:B I *D sky130_fd_sc_hd__or2_1
*I *1262:Y O *D sky130_fd_sc_hd__nor2_1
*CAP
1 *1263:B 0.00013313
2 *1262:Y 0.000172884
3 *193:8 0.000306013
4 *193:8 *1234:B 0.000222113
5 *193:8 *266:50 7.80251e-05
6 *1234:C *193:8 2.54046e-05
7 *175:8 *193:8 5.86165e-05
*RES
1 *1262:Y *193:8 43.075 
2 *193:8 *1263:B 40.0507 
*END

*D_NET *194 0.000994304
*CONN
*I *1264:A2 I *D sky130_fd_sc_hd__a21oi_1
*I *1263:X O *D sky130_fd_sc_hd__or2_1
*CAP
1 *1264:A2 0
2 *1263:X 0.000179122
3 *194:10 0.000179122
4 *194:10 *209:10 3.47776e-05
5 *194:10 *246:8 8.24662e-05
6 *194:10 *246:10 0.000182863
7 *194:10 *246:12 1.14452e-05
8 *171:8 *194:10 2.84809e-05
9 *173:42 *194:10 0.000296026
*RES
1 *1263:X *194:10 43.3443 
2 *194:10 *1264:A2 38 
*END

*D_NET *195 0.000501306
*CONN
*I *1266:A2 I *D sky130_fd_sc_hd__a21oi_1
*I *1265:Y O *D sky130_fd_sc_hd__xnor2_1
*CAP
1 *1266:A2 4.24639e-05
2 *1265:Y 9.2426e-05
3 *195:8 0.00013489
4 *1266:A2 *1231:C 2.64616e-05
5 *195:8 *209:10 8.16253e-05
6 *195:8 *266:16 8.72173e-05
7 *195:8 *268:129 3.62219e-05
*RES
1 *1265:Y *195:8 40.2579 
2 *195:8 *1266:A2 38.6214 
*END

*D_NET *196 0.000369059
*CONN
*I *1268:A2 I *D sky130_fd_sc_hd__o21a_1
*I *1267:Y O *D sky130_fd_sc_hd__nor2_1
*CAP
1 *1268:A2 4.02921e-05
2 *1267:Y 4.02921e-05
3 *1268:A2 *267:27 0.00010655
4 *1268:A2 *268:10 0.000181925
*RES
1 *1267:Y *1268:A2 48.0507 
*END

*D_NET *197 0.000318618
*CONN
*I *1269:B I *D sky130_fd_sc_hd__nor2_1
*I *1268:X O *D sky130_fd_sc_hd__o21a_1
*CAP
1 *1269:B 6.20538e-05
2 *1268:X 6.20538e-05
3 *1269:B *267:27 0.000189669
4 *63:10 *1269:B 4.84129e-06
*RES
1 *1268:X *1269:B 48.0507 
*END

*D_NET *198 0.000195918
*CONN
*I *1271:B I *D sky130_fd_sc_hd__or2_1
*I *1270:Y O *D sky130_fd_sc_hd__nor2_1
*CAP
1 *1271:B 3.41177e-05
2 *1270:Y 3.41177e-05
3 *1271:B *1270:A 5.38706e-05
4 *1271:B *268:20 5.50049e-05
5 *1271:A *1271:B 1.88072e-05
*RES
1 *1270:Y *1271:B 47.0979 
*END

*D_NET *199 0.000525947
*CONN
*I *1272:A2 I *D sky130_fd_sc_hd__a21oi_1
*I *1271:X O *D sky130_fd_sc_hd__or2_1
*CAP
1 *1272:A2 0.000135925
2 *1271:X 0.000135925
3 *1272:A2 *266:41 0.000184407
4 *1272:A2 *268:20 6.969e-05
*RES
1 *1271:X *1272:A2 49.48 
*END

*D_NET *200 0.0011885
*CONN
*I *1274:B1_N I *D sky130_fd_sc_hd__o21ba_1
*I *1273:X O *D sky130_fd_sc_hd__a41o_1
*CAP
1 *1274:B1_N 0.000165206
2 *1273:X 0.000102062
3 *200:8 0.000267268
4 *200:8 *297:42 0.000326983
5 *172:31 *200:8 0.000326983
*RES
1 *1273:X *200:8 42.3707 
2 *200:8 *1274:B1_N 40.5479 
*END

*D_NET *201 0.00123767
*CONN
*I *1276:B I *D sky130_fd_sc_hd__nor2_1
*I *1275:Y O *D sky130_fd_sc_hd__a21oi_1
*CAP
1 *1276:B 0
2 *1275:Y 0.000426053
3 *201:10 0.000426053
4 *201:10 *267:73 0
5 *201:10 *297:14 0
6 *201:10 *298:12 0.000271476
7 *66:8 *201:10 0.000114092
8 *165:35 *201:10 0
*RES
1 *1275:Y *201:10 45.7264 
2 *201:10 *1276:B 38 
*END

*D_NET *202 0.00404976
*CONN
*I *1308:D I *D sky130_fd_sc_hd__or4_1
*I *1300:A_N I *D sky130_fd_sc_hd__and3b_1
*I *1281:B1 I *D sky130_fd_sc_hd__a221o_1
*I *1277:X O *D sky130_fd_sc_hd__or3_1
*CAP
1 *1308:D 0
2 *1300:A_N 0
3 *1281:B1 4.04223e-05
4 *1277:X 0.000359576
5 *202:44 3.07164e-05
6 *202:33 0.000259828
7 *202:25 0.000450098
8 *202:12 0.000559553
9 *1281:B1 *205:10 1.86869e-05
10 *1281:B1 *269:90 1.4471e-05
11 *1281:B1 *339:40 6.07611e-06
12 *202:12 *205:10 1.00765e-05
13 *202:12 *269:90 0.000260402
14 *202:25 *1127:B 5.3304e-05
15 *202:25 *247:84 0.000465196
16 *202:33 *1127:B 0.000125213
17 *202:33 *231:10 0
18 *202:33 *247:8 0.000185434
19 *202:33 *247:84 0.000267167
20 *202:33 *339:56 0.000314157
21 *202:33 *340:22 2.49733e-05
22 *202:44 *287:10 2.96051e-05
23 *202:44 *287:20 6.07611e-06
24 *1123:C *202:44 1.14452e-05
25 *1300:C *202:33 0.000111852
26 *80:18 *202:33 8.62876e-05
27 *81:49 *202:33 0
28 *90:10 *202:44 5.01986e-05
29 *91:10 *202:33 0
30 *93:10 *202:25 5.3304e-05
31 *93:61 *202:25 0.000255642
*RES
1 *1277:X *202:12 45.9543 
2 *202:12 *1281:B1 38.8493 
3 *202:12 *202:25 20.3857 
4 *202:25 *202:33 38.2236 
5 *202:33 *1300:A_N 23 
6 *202:25 *202:44 30.8493 
7 *202:44 *1308:D 23 
*END

*D_NET *203 0.00100434
*CONN
*I *1279:A3 I *D sky130_fd_sc_hd__a31o_1
*I *1278:Y O *D sky130_fd_sc_hd__xnor2_1
*CAP
1 *1279:A3 4.57098e-05
2 *1278:Y 0.000200969
3 *203:10 0.000246678
4 *1279:A3 *1279:B1 5.50106e-05
5 *1279:A3 *204:16 5.50106e-05
6 *1279:A3 *247:84 0.000139357
7 *203:10 *1128:A 7.53384e-06
8 *203:10 *269:90 0.000138727
9 *203:10 *337:34 2.44913e-05
10 *203:10 *337:60 5.31444e-05
11 *203:10 *337:73 1.12487e-05
12 *203:10 *339:32 2.64616e-05
*RES
1 *1278:Y *203:10 41.48 
2 *203:10 *1279:A3 39.5743 
*END

*D_NET *204 0.000715236
*CONN
*I *1281:B2 I *D sky130_fd_sc_hd__a221o_1
*I *1279:X O *D sky130_fd_sc_hd__a31o_1
*CAP
1 *1281:B2 0
2 *1279:X 0.000270895
3 *204:16 0.000270895
4 *204:16 *1279:B1 0
5 *204:16 *247:84 0.000103777
6 *204:16 *339:40 1.46586e-05
7 *1279:A3 *204:16 5.50106e-05
*RES
1 *1279:X *204:16 28.3236 
2 *204:16 *1281:B2 23 
*END

*D_NET *205 0.00156329
*CONN
*I *1281:C1 I *D sky130_fd_sc_hd__a221o_1
*I *1280:Y O *D sky130_fd_sc_hd__a21oi_1
*CAP
1 *1281:C1 0
2 *1280:Y 0.000402801
3 *205:10 0.000402801
4 *205:10 *1113:A 2.4754e-05
5 *205:10 *1122:B 0.000267173
6 *205:10 *287:10 0
7 *205:10 *337:77 8.52481e-05
8 *1129:B *205:10 7.88828e-05
9 *1280:B1 *205:10 0.000137651
10 *1281:B1 *205:10 1.86869e-05
11 *82:12 *205:10 0.000122931
12 *82:31 *205:10 1.22822e-05
13 *202:12 *205:10 1.00765e-05
*RES
1 *1280:Y *205:10 48.44 
2 *205:10 *1281:C1 38 
*END

*D_NET *206 0.00386139
*CONN
*I *1282:C I *D sky130_fd_sc_hd__or3_1
*I *1316:A3 I *D sky130_fd_sc_hd__o31a_1
*I *1281:X O *D sky130_fd_sc_hd__a221o_1
*CAP
1 *1282:C 0
2 *1316:A3 0.000108608
3 *1281:X 0.000210199
4 *206:12 0.000297268
5 *206:8 0.000398859
6 *1316:A3 *1316:A1 0.000108
7 *1316:A3 *1316:A2 1.94693e-05
8 *1316:A3 *259:6 0.000269775
9 *206:8 *247:84 0.000819318
10 *206:12 *1329:A2 0
11 *206:12 *247:88 0.000434093
12 *206:12 *247:123 5.01986e-05
13 *206:12 *328:34 9.168e-05
14 *93:61 *206:8 0.000778451
15 *93:61 *206:12 0.000275473
*RES
1 *1281:X *206:8 47.1971 
2 *206:8 *206:12 21.4836 
3 *206:12 *1316:A3 26.9979 
4 *206:12 *1282:C 23 
*END

*D_NET *207 0.0013586
*CONN
*I *1329:A2 I *D sky130_fd_sc_hd__o21a_1
*I *1283:B I *D sky130_fd_sc_hd__nor2_1
*I *1282:X O *D sky130_fd_sc_hd__or3_1
*CAP
1 *1329:A2 0.000406985
2 *1283:B 5.33273e-05
3 *1282:X 0
4 *207:6 0.000460312
5 *1283:B *1282:A 4.6318e-06
6 *1283:B *250:35 4.21594e-06
7 *1283:B *250:48 3.4932e-05
8 *1283:B *259:6 3.22879e-05
9 *1283:B *328:34 2.96909e-05
10 *1329:A2 *250:48 0.000152335
11 *1329:A2 *328:34 4.21594e-06
12 *1329:A2 *341:22 7.88926e-05
13 *93:61 *1329:A2 9.67719e-05
14 *206:12 *1329:A2 0
*RES
1 *1282:X *207:6 38 
2 *207:6 *1283:B 39.8229 
3 *207:6 *1329:A2 46.41 
*END

*D_NET *208 0.00570233
*CONN
*I *1303:B1 I *D sky130_fd_sc_hd__o21a_1
*I *1306:B I *D sky130_fd_sc_hd__and2b_1
*I *1315:A I *D sky130_fd_sc_hd__and3_1
*I *1283:Y O *D sky130_fd_sc_hd__nor2_1
*CAP
1 *1303:B1 2.34823e-05
2 *1306:B 0.000236444
3 *1315:A 7.5314e-05
4 *1283:Y 0.00119885
5 *208:10 0.000467495
6 *208:6 0.00137807
7 *1306:B *229:12 0.00021382
8 *1306:B *243:36 0
9 *1315:A *229:12 0.00014411
10 *1315:A *243:36 0
11 *208:6 *1303:A2 9.17998e-05
12 *208:6 *215:10 0.000221997
13 *208:6 *259:6 0.000699321
14 *208:6 *259:25 0.000203416
15 *208:6 *259:31 0.000441076
16 *67:8 *1306:B 3.56537e-05
17 *82:12 *208:6 0.000271476
*RES
1 *1283:Y *208:6 49.3486 
2 *208:6 *208:10 17.5271 
3 *208:10 *1315:A 39.9057 
4 *208:10 *1306:B 43.0129 
5 *208:6 *1303:B1 23.4971 
*END

*D_NET *209 0.00477101
*CONN
*I *1286:B I *D sky130_fd_sc_hd__or2_1
*I *1285:C1 I *D sky130_fd_sc_hd__a2111o_1
*I *1284:X O *D sky130_fd_sc_hd__or4_1
*CAP
1 *1286:B 0.00037398
2 *1285:C1 0.000162339
3 *1284:X 5.25911e-05
4 *209:10 0.00124819
5 *209:8 0.000764461
6 *1285:C1 *246:20 0.000332366
7 *1286:B *211:10 9.84851e-05
8 *1286:B *293:10 5.77264e-05
9 *1286:B *294:18 0.000619272
10 *209:8 *298:24 6.17437e-06
11 *209:10 *246:8 9.03784e-05
12 *209:10 *246:10 0.000194309
13 *209:10 *246:12 0.000246748
14 *209:10 *246:20 2.55642e-05
15 *209:10 *266:16 4.06408e-05
16 *209:10 *294:10 0
17 *209:10 *294:12 0
18 *209:10 *294:18 0
19 *1231:D *209:10 0
20 *1364:D *1286:B 1.74843e-05
21 *61:10 *209:10 0.000166504
22 *171:19 *209:10 0
23 *172:8 *209:10 8.85189e-05
24 *173:42 *209:10 6.88715e-05
25 *194:10 *209:10 3.47776e-05
26 *195:8 *209:10 8.16253e-05
*RES
1 *1284:X *209:8 38.6214 
2 *209:8 *209:10 16.6957 
3 *209:10 *1285:C1 42.3707 
4 *209:10 *1286:B 47.1971 
*END

*D_NET *210 0.00391585
*CONN
*I *1287:A3 I *D sky130_fd_sc_hd__a41o_1
*I *1285:X O *D sky130_fd_sc_hd__a2111o_1
*CAP
1 *1287:A3 0
2 *1285:X 0.000695915
3 *210:14 0.000560549
4 *210:8 0.00125646
5 *210:8 *225:22 2.80512e-05
6 *210:8 *231:22 9.84794e-05
7 *210:8 *236:22 0.00082713
8 *210:14 *1287:A4 9.84851e-05
9 *210:14 *213:31 6.28591e-05
10 *210:14 *214:8 0.000191157
11 *210:14 *219:10 0
12 *210:14 *221:12 0
13 *210:14 *229:12 9.67616e-05
14 *1287:A1 *210:14 0
15 *87:74 *210:14 0
*RES
1 *1285:X *210:8 49.1029 
2 *210:8 *210:14 27.2836 
3 *210:14 *1287:A3 23 
*END

*D_NET *211 0.00394772
*CONN
*I *1312:A2 I *D sky130_fd_sc_hd__o311a_1
*I *1295:A1 I *D sky130_fd_sc_hd__o21ba_1
*I *1287:A4 I *D sky130_fd_sc_hd__a41o_1
*I *1286:X O *D sky130_fd_sc_hd__or2_1
*CAP
1 *1312:A2 1.92156e-05
2 *1295:A1 0
3 *1287:A4 0.000516809
4 *1286:X 0.00037186
5 *211:16 0.000834328
6 *211:10 0.000708595
7 *1287:A4 *213:31 0
8 *1287:A4 *219:10 6.07611e-06
9 *1287:A4 *302:19 0
10 *1312:A2 *1312:A1 6.17437e-06
11 *1312:A2 *1314:B 5.50106e-05
12 *1312:A2 *236:22 1.5769e-05
13 *211:10 *294:18 4.95081e-05
14 *211:16 *219:10 0.000292032
15 *211:16 *234:10 6.33511e-05
16 *211:16 *301:66 7.76364e-06
17 *211:16 *302:19 0
18 *1286:B *211:10 9.84851e-05
19 *3:11 *211:10 0.00031776
20 *3:11 *211:16 0.000486495
21 *69:14 *211:10 0
22 *87:74 *211:16 0
23 *210:14 *1287:A4 9.84851e-05
*RES
1 *1286:X *211:10 45.3743 
2 *211:10 *211:16 9.715 
3 *211:16 *1287:A4 47.3007 
4 *211:16 *1295:A1 38 
5 *211:10 *1312:A2 38.6214 
*END

*D_NET *212 0.00363772
*CONN
*I *1293:A1 I *D sky130_fd_sc_hd__o21a_1
*I *1305:A2 I *D sky130_fd_sc_hd__o32a_1
*I *1324:C I *D sky130_fd_sc_hd__or4_1
*I *1307:B I *D sky130_fd_sc_hd__or3b_1
*I *1287:X O *D sky130_fd_sc_hd__a41o_1
*CAP
1 *1293:A1 7.67016e-05
2 *1305:A2 0.00014933
3 *1324:C 8.73947e-05
4 *1307:B 0
5 *1287:X 8.28514e-05
6 *212:18 0.000641877
7 *212:10 0.000781435
8 *212:6 0.000237176
9 *1293:A1 *1287:A2 4.5051e-05
10 *1293:A1 *218:8 6.17437e-06
11 *1293:A1 *255:10 7.73389e-05
12 *1305:A2 *218:12 0.000207498
13 *1305:A2 *222:10 3.39231e-05
14 *1305:A2 *228:8 6.17437e-06
15 *1324:C *1324:D 4.34745e-05
16 *1324:C *214:45 5.67058e-05
17 *212:6 *1287:A2 0.000102093
18 *212:6 *218:8 2.93747e-05
19 *212:10 *218:12 0.000114083
20 *212:10 *222:10 3.81554e-05
21 *212:10 *243:14 2.70469e-05
22 *212:18 *214:19 8.46575e-05
23 *212:18 *214:30 0.000157155
24 *212:18 *214:45 1.22822e-05
25 *212:18 *216:16 7.73389e-05
26 *212:18 *217:10 5.50106e-05
27 *1324:B *1324:C 2.93845e-05
28 *81:20 *1305:A2 2.60748e-05
29 *155:35 *1305:A2 2.02517e-05
30 *155:45 *1305:A2 0.000111852
31 *156:8 *1293:A1 0.000182832
32 *156:10 *212:10 3.70187e-05
*RES
1 *1287:X *212:6 25.0507 
2 *212:6 *212:10 17.2579 
3 *212:10 *212:18 24.8393 
4 *212:18 *1307:B 23 
5 *212:18 *1324:C 25.4236 
6 *212:10 *1305:A2 42.0807 
7 *212:6 *1293:A1 25.5271 
*END

*D_NET *213 0.00670627
*CONN
*I *1289:B I *D sky130_fd_sc_hd__or2_1
*I *1313:D I *D sky130_fd_sc_hd__or4_1
*I *1288:X O *D sky130_fd_sc_hd__or2_1
*CAP
1 *1289:B 0
2 *1313:D 0
3 *1288:X 9.27499e-05
4 *213:31 0.000124285
5 *213:25 0.00266383
6 *213:18 0.000465975
7 *213:10 0.00300552
8 *213:8 9.27499e-05
9 *213:8 *1258:A1 0
10 *213:8 *249:8 0
11 *213:8 *268:83 0
12 *213:18 *251:10 1.02387e-05
13 *213:18 *281:8 9.48318e-05
14 *213:18 *290:8 3.72639e-05
15 *213:25 *1296:A2 2.93747e-05
16 *1287:A4 *213:31 0
17 *1426:A *213:18 0
18 *18:17 *213:18 0
19 *22:17 *213:18 0
20 *155:45 *213:25 2.65879e-05
21 *210:14 *213:31 6.28591e-05
*RES
1 *1288:X *213:8 39.5536 
2 *213:8 *213:10 15 
3 *213:10 *213:18 39.0107 
4 *213:18 *1313:D 23 
5 *213:10 *213:25 40.6414 
6 *213:25 *213:31 32.61 
7 *213:31 *1289:B 23 
*END

*D_NET *214 0.00385913
*CONN
*I *1324:D I *D sky130_fd_sc_hd__or4_1
*I *1307:C_N I *D sky130_fd_sc_hd__or3b_1
*I *1304:D I *D sky130_fd_sc_hd__or4_1
*I *1292:B1 I *D sky130_fd_sc_hd__a21oi_1
*I *1296:B1 I *D sky130_fd_sc_hd__a21oi_1
*I *1289:X O *D sky130_fd_sc_hd__or2_1
*CAP
1 *1324:D 2.02597e-05
2 *1307:C_N 0
3 *1304:D 0
4 *1292:B1 0
5 *1296:B1 2.32701e-05
6 *1289:X 0.000117628
7 *214:45 6.24783e-05
8 *214:38 0.000128408
9 *214:30 0.000519565
10 *214:19 0.000635242
11 *214:10 0.000309573
12 *214:8 0.000117628
13 *214:8 *221:12 0
14 *214:30 *216:16 0.000139352
15 *214:38 *1304:C 5.3304e-05
16 *214:38 *330:88 5.3304e-05
17 *1287:A1 *214:8 0
18 *1296:A1 *1296:B1 5.3304e-05
19 *1296:A1 *214:19 0.000299117
20 *1324:C *1324:D 4.34745e-05
21 *1324:C *214:45 5.67058e-05
22 *91:10 *214:38 0.000164282
23 *155:45 *1296:B1 5.3304e-05
24 *155:45 *214:19 0.000563681
25 *210:14 *214:8 0.000191157
26 *212:18 *214:19 8.46575e-05
27 *212:18 *214:30 0.000157155
28 *212:18 *214:45 1.22822e-05
*RES
1 *1289:X *214:8 40.61 
2 *214:8 *214:10 15 
3 *214:10 *1296:B1 23.6214 
4 *214:10 *214:19 8.24429 
5 *214:19 *1292:B1 23 
6 *214:19 *214:30 6.98071 
7 *214:30 *214:38 32.8793 
8 *214:38 *1304:D 23 
9 *214:30 *214:45 1.09786 
10 *214:45 *1307:C_N 23 
11 *214:45 *1324:D 23.6214 
*END

*D_NET *215 0.0024087
*CONN
*I *1291:B I *D sky130_fd_sc_hd__nor2_1
*I *1302:A1 I *D sky130_fd_sc_hd__a31o_1
*I *1290:Y O *D sky130_fd_sc_hd__nor2_1
*CAP
1 *1291:B 0
2 *1302:A1 0
3 *1290:Y 0.000262094
4 *215:22 0.000562862
5 *215:10 0.000824956
6 *215:10 *259:31 0
7 *215:10 *287:20 2.3529e-05
8 *215:22 *1326:B1 3.92407e-05
9 *215:22 *216:16 0
10 *215:22 *221:23 0.000181991
11 *215:22 *225:8 2.05503e-05
12 *215:22 *226:8 7.28526e-05
13 *215:22 *232:8 4.26048e-06
14 *215:22 *259:31 0
15 *215:22 *259:39 0
16 *215:22 *287:20 6.07611e-06
17 *1301:A1_N *215:22 2.24054e-06
18 *91:10 *215:10 0.000135547
19 *91:10 *215:22 5.05059e-05
20 *208:6 *215:10 0.000221997
*RES
1 *1290:Y *215:10 42.4329 
2 *215:10 *215:22 35.374 
3 *215:22 *1302:A1 23 
4 *215:10 *1291:B 38 
*END

*D_NET *216 0.00270126
*CONN
*I *1301:A2_N I *D sky130_fd_sc_hd__a2bb2o_1
*I *1292:A2 I *D sky130_fd_sc_hd__a21oi_1
*I *1291:Y O *D sky130_fd_sc_hd__nor2_1
*CAP
1 *1301:A2_N 0
2 *1292:A2 0
3 *1291:Y 0.000154318
4 *216:16 0.000514282
5 *216:8 0.0006686
6 *216:8 *1301:B1 4.75206e-05
7 *216:8 *287:20 0.000137651
8 *216:16 *1326:B1 0
9 *216:16 *223:10 0
10 *216:16 *230:8 0.000136814
11 *216:16 *259:31 0.000242573
12 *216:16 *259:39 0.000161121
13 *216:16 *287:20 4.21594e-06
14 *216:16 *330:73 6.68793e-05
15 *1213:A2 *216:16 7.91596e-05
16 *1301:A1_N *216:8 2.64616e-05
17 *1301:A1_N *216:16 3.14861e-05
18 *1309:A3 *216:16 8.51432e-05
19 *93:27 *216:8 2.31797e-05
20 *155:16 *216:16 0.000105165
21 *212:18 *216:16 7.73389e-05
22 *214:30 *216:16 0.000139352
23 *215:22 *216:16 0
*RES
1 *1291:Y *216:8 26.5007 
2 *216:8 *216:16 42.9879 
3 *216:16 *1292:A2 23 
4 *216:8 *1301:A2_N 23 
*END

*D_NET *217 0.000343729
*CONN
*I *1293:A2 I *D sky130_fd_sc_hd__o21a_1
*I *1292:Y O *D sky130_fd_sc_hd__a21oi_1
*CAP
1 *1293:A2 0
2 *1292:Y 8.73975e-05
3 *217:10 8.73975e-05
4 *217:10 *222:10 8.85189e-05
5 *84:8 *217:10 2.54046e-05
6 *212:18 *217:10 5.50106e-05
*RES
1 *1292:Y *217:10 39.8229 
2 *217:10 *1293:A2 38 
*END

*D_NET *218 0.00312562
*CONN
*I *1303:A1 I *D sky130_fd_sc_hd__o21a_1
*I *1293:X O *D sky130_fd_sc_hd__o21a_1
*CAP
1 *1303:A1 0
2 *1293:X 5.25871e-05
3 *218:12 0.000510233
4 *218:8 0.00056282
5 *218:12 *1298:B 0
6 *218:12 *237:31 8.62783e-05
7 *218:12 *243:14 0.000404038
8 *218:12 *243:36 0.000789407
9 *1293:A1 *218:8 6.17437e-06
10 *1305:A2 *218:12 0.000207498
11 *81:20 *218:12 0.000349395
12 *155:45 *218:12 1.37349e-05
13 *212:6 *218:8 2.93747e-05
14 *212:10 *218:12 0.000114083
*RES
1 *1293:X *218:8 38.6214 
2 *218:8 *218:12 30.9914 
3 *218:12 *1303:A1 23 
*END

*D_NET *219 0.00143531
*CONN
*I *1295:A2 I *D sky130_fd_sc_hd__o21ba_1
*I *1294:X O *D sky130_fd_sc_hd__o211a_1
*CAP
1 *1295:A2 0
2 *1294:X 0.000485642
3 *219:10 0.000485642
4 *219:10 *1311:A1 2.13733e-05
5 *219:10 *234:10 8.91468e-07
6 *1287:A4 *219:10 6.07611e-06
7 *1311:B1 *219:10 0.000143655
8 *210:14 *219:10 0
9 *211:16 *219:10 0.000292032
*RES
1 *1294:X *219:10 46.6793 
2 *219:10 *1295:A2 38 
*END

*D_NET *220 9.27681e-05
*CONN
*I *1296:A2 I *D sky130_fd_sc_hd__a21oi_1
*I *1295:X O *D sky130_fd_sc_hd__o21ba_1
*CAP
1 *1296:A2 1.55527e-05
2 *1295:X 1.55527e-05
3 *155:45 *1296:A2 3.22879e-05
4 *213:25 *1296:A2 2.93747e-05
*RES
1 *1295:X *1296:A2 46.6214 
*END

*D_NET *221 0.00474909
*CONN
*I *1302:A2 I *D sky130_fd_sc_hd__a31o_1
*I *1326:B1 I *D sky130_fd_sc_hd__o211ai_1
*I *1310:A1 I *D sky130_fd_sc_hd__o21ai_1
*I *1296:Y O *D sky130_fd_sc_hd__a21oi_1
*CAP
1 *1302:A2 0
2 *1326:B1 0.000246127
3 *1310:A1 0
4 *1296:Y 0.000136258
5 *221:23 0.00063424
6 *221:12 0.000924015
7 *221:8 0.00067216
8 *1326:B1 *1326:C1 0.000313255
9 *1326:B1 *223:10 1.19692e-05
10 *1326:B1 *223:23 5.68423e-05
11 *1326:B1 *225:22 4.6318e-06
12 *1326:B1 *259:39 2.4754e-05
13 *221:12 *224:10 8.85189e-05
14 *221:12 *229:12 0.000289716
15 *221:12 *243:36 0
16 *221:23 *1310:B1 0.000435854
17 *221:23 *1315:B 5.41385e-05
18 *221:23 *225:8 1.6873e-05
19 *221:23 *225:22 7.80354e-05
20 *221:23 *227:8 1.4471e-05
21 *1287:A1 *221:12 1.97329e-05
22 *1296:A1 *221:8 0.000121021
23 *87:64 *1326:B1 9.74625e-05
24 *87:83 *221:12 0.000104945
25 *155:16 *1326:B1 0.000182832
26 *210:14 *221:12 0
27 *214:8 *221:12 0
28 *215:22 *1326:B1 3.92407e-05
29 *215:22 *221:23 0.000181991
30 *216:16 *1326:B1 0
*RES
1 *1296:Y *221:8 40.5271 
2 *221:8 *221:12 27.1179 
3 *221:12 *1310:A1 23 
4 *221:12 *221:23 24.3007 
5 *221:23 *1326:B1 45.2707 
6 *221:23 *1302:A2 38 
*END

*D_NET *222 0.00197931
*CONN
*I *1298:B I *D sky130_fd_sc_hd__and2b_1
*I *1305:B1 I *D sky130_fd_sc_hd__o32a_1
*I *1297:Y O *D sky130_fd_sc_hd__nor2_1
*CAP
1 *1298:B 8.33957e-05
2 *1305:B1 0
3 *1297:Y 0.000578609
4 *222:10 0.000662005
5 *1298:B *223:10 5.50106e-05
6 *1298:B *228:8 9.84851e-05
7 *222:10 *1297:B 0.000164518
8 *222:10 *330:58 0
9 *222:10 *330:73 0
10 *1213:A2 *222:10 0
11 *1305:A2 *222:10 3.39231e-05
12 *81:20 *1298:B 4.6318e-06
13 *84:8 *222:10 0
14 *155:16 *1298:B 0
15 *155:16 *222:10 0
16 *155:45 *222:10 6.68793e-05
17 *156:10 *222:10 0.000105175
18 *212:10 *222:10 3.81554e-05
19 *217:10 *222:10 8.85189e-05
20 *218:12 *1298:B 0
*RES
1 *1297:Y *222:10 49.3721 
2 *222:10 *1305:B1 38 
3 *222:10 *1298:B 39.9471 
*END

*D_NET *223 0.00271694
*CONN
*I *1302:A3 I *D sky130_fd_sc_hd__a31o_1
*I *1299:A I *D sky130_fd_sc_hd__inv_2
*I *1326:C1 I *D sky130_fd_sc_hd__o211ai_1
*I *1298:X O *D sky130_fd_sc_hd__and2b_1
*CAP
1 *1302:A3 2.69482e-05
2 *1299:A 9.43553e-05
3 *1326:C1 0.000181277
4 *1298:X 0.000166734
5 *223:23 0.000216793
6 *223:10 0.000443501
7 *1299:A *225:22 0.000261945
8 *1299:A *231:22 0.000134443
9 *1299:A *237:31 9.41704e-05
10 *1302:A3 *225:22 5.50106e-05
11 *1302:A3 *237:31 8.60475e-05
12 *1326:C1 *259:39 9.75779e-05
13 *223:10 *228:8 2.32004e-05
14 *1298:B *223:10 5.50106e-05
15 *1326:B1 *1326:C1 0.000313255
16 *1326:B1 *223:10 1.19692e-05
17 *1326:B1 *223:23 5.68423e-05
18 *81:20 *223:10 0.000168744
19 *81:20 *223:23 0.000179693
20 *87:64 *1326:C1 4.94192e-05
21 *155:16 *223:10 0
22 *216:16 *223:10 0
*RES
1 *1298:X *223:10 41.3557 
2 *223:10 *1326:C1 42.9093 
3 *223:10 *223:23 17.61 
4 *223:23 *1299:A 26.0036 
5 *223:23 *1302:A3 24.0979 
*END

*D_NET *224 0.000431402
*CONN
*I *1310:A2 I *D sky130_fd_sc_hd__o21ai_1
*I *1299:Y O *D sky130_fd_sc_hd__inv_2
*CAP
1 *1310:A2 0
2 *1299:Y 0.000121351
3 *224:10 0.000121351
4 *224:10 *237:31 0.00010018
5 *224:10 *243:36 0
6 *221:12 *224:10 8.85189e-05
*RES
1 *1299:Y *224:10 40.2993 
2 *224:10 *1310:A2 38 
*END

*D_NET *225 0.00426106
*CONN
*I *1301:B1 I *D sky130_fd_sc_hd__a2bb2o_1
*I *1312:B1 I *D sky130_fd_sc_hd__o311a_1
*I *1300:X O *D sky130_fd_sc_hd__and3b_1
*CAP
1 *1301:B1 0.000222218
2 *1312:B1 0
3 *1300:X 0.000279479
4 *225:22 0.000528167
5 *225:10 0.000750386
6 *225:8 0.000279479
7 *1301:B1 *1310:B1 9.67842e-05
8 *225:8 *227:8 0
9 *225:8 *232:8 1.17256e-05
10 *225:8 *259:31 6.96227e-05
11 *225:22 *1310:B1 0.000178517
12 *225:22 *1314:B 8.1796e-05
13 *225:22 *227:8 0.000116314
14 *225:22 *231:22 0.00026338
15 *225:22 *236:22 8.28854e-05
16 *225:22 *237:6 0.00010018
17 *225:22 *237:31 0.000466097
18 *1299:A *225:22 0.000261945
19 *1301:A1_N *1301:B1 9.5877e-05
20 *1302:A3 *225:22 5.50106e-05
21 *1326:B1 *225:22 4.6318e-06
22 *81:20 *225:8 0
23 *81:20 *225:22 2.70469e-05
24 *91:10 *225:8 0
25 *93:27 *1301:B1 9.84851e-05
26 *210:8 *225:22 2.80512e-05
27 *215:22 *225:8 2.05503e-05
28 *216:8 *1301:B1 4.75206e-05
29 *221:23 *225:8 1.6873e-05
30 *221:23 *225:22 7.80354e-05
*RES
1 *1300:X *225:8 43.4271 
2 *225:8 *225:10 15 
3 *225:10 *225:22 45.9086 
4 *225:22 *1312:B1 23 
5 *225:10 *1301:B1 27.4536 
*END

*D_NET *226 0.000379574
*CONN
*I *1302:B1 I *D sky130_fd_sc_hd__a31o_1
*I *1301:X O *D sky130_fd_sc_hd__a2bb2o_1
*CAP
1 *1302:B1 2.70317e-05
2 *1301:X 5.24023e-05
3 *226:8 7.9434e-05
4 *1302:B1 *237:31 3.22879e-05
5 *226:8 *232:8 8.85189e-05
6 *226:8 *259:31 2.70469e-05
7 *215:22 *226:8 7.28526e-05
*RES
1 *1301:X *226:8 39.9057 
2 *226:8 *1302:B1 38.6214 
*END

*D_NET *227 0.00119933
*CONN
*I *1303:A2 I *D sky130_fd_sc_hd__o21a_1
*I *1302:X O *D sky130_fd_sc_hd__a31o_1
*CAP
1 *1303:A2 0.000118258
2 *1302:X 0.000181986
3 *227:8 0.000300244
4 *81:20 *227:8 0.000376261
5 *208:6 *1303:A2 9.17998e-05
6 *221:23 *227:8 1.4471e-05
7 *225:8 *227:8 0
8 *225:22 *227:8 0.000116314
*RES
1 *1302:X *227:8 43.075 
2 *227:8 *1303:A2 40.0507 
*END

*D_NET *228 0.000931292
*CONN
*I *1305:A3 I *D sky130_fd_sc_hd__o32a_1
*I *1304:X O *D sky130_fd_sc_hd__or4_1
*CAP
1 *1305:A3 0
2 *1304:X 0.000275717
3 *228:8 0.000275717
4 *228:8 *254:27 0
5 *1298:B *228:8 9.84851e-05
6 *1305:A2 *228:8 6.17437e-06
7 *81:20 *228:8 5.67058e-05
8 *155:35 *228:8 0.000195293
9 *223:10 *228:8 2.32004e-05
*RES
1 *1304:X *228:8 29.3593 
2 *228:8 *1305:A3 23 
*END

*D_NET *229 0.00245469
*CONN
*I *1306:A_N I *D sky130_fd_sc_hd__and2b_1
*I *1305:X O *D sky130_fd_sc_hd__o32a_1
*CAP
1 *1306:A_N 0
2 *1305:X 0.000240483
3 *229:12 0.000477205
4 *229:8 0.000717688
5 *229:8 *243:10 5.50106e-05
6 *229:12 *237:14 0.000219891
7 *229:12 *243:36 0
8 *1306:B *229:12 0.00021382
9 *1315:A *229:12 0.00014411
10 *67:8 *229:12 0
11 *69:14 *229:12 0
12 *87:74 *229:12 0
13 *210:14 *229:12 9.67616e-05
14 *221:12 *229:12 0.000289716
*RES
1 *1305:X *229:8 41.0036 
2 *229:8 *229:12 28.1743 
3 *229:12 *1306:A_N 23 
*END

*D_NET *230 0.00124706
*CONN
*I *1309:B1 I *D sky130_fd_sc_hd__o311a_1
*I *1307:X O *D sky130_fd_sc_hd__or3b_1
*CAP
1 *1309:B1 0
2 *1307:X 0.000362516
3 *230:8 0.000362516
4 *230:8 *259:45 0.000165583
5 *230:8 *330:73 8.62783e-05
6 *1309:A3 *230:8 1.14452e-05
7 *91:10 *230:8 0.000121912
8 *216:16 *230:8 0.000136814
*RES
1 *1307:X *230:8 45.54 
2 *230:8 *1309:B1 38 
*END

*D_NET *231 0.00565687
*CONN
*I *1309:C1 I *D sky130_fd_sc_hd__o311a_1
*I *1314:A I *D sky130_fd_sc_hd__or3_1
*I *1308:X O *D sky130_fd_sc_hd__or4_1
*CAP
1 *1309:C1 6.09911e-05
2 *1314:A 0
3 *1308:X 0.000466566
4 *231:22 0.00105249
5 *231:10 0.00158005
6 *1309:C1 *1309:A2 9.58714e-05
7 *1309:C1 *237:31 0.000136738
8 *231:10 *1291:A 0.000222113
9 *231:10 *254:27 2.46345e-05
10 *231:10 *287:20 0.000134268
11 *231:22 *236:22 1.79127e-05
12 *231:22 *237:31 0.000816704
13 *231:22 *254:27 5.94125e-05
14 *1127:A *231:10 5.50049e-05
15 *1299:A *231:22 0.000134443
16 *1325:B1 *231:10 0
17 *81:49 *231:10 0.00021673
18 *91:10 *231:10 0.000221077
19 *93:10 *231:10 0
20 *202:33 *231:10 0
21 *210:8 *231:22 9.84794e-05
22 *225:22 *231:22 0.00026338
*RES
1 *1308:X *231:10 49.3307 
2 *231:10 *231:22 33.3321 
3 *231:22 *1314:A 23 
4 *231:10 *1309:C1 39.5743 
*END

*D_NET *232 0.00171134
*CONN
*I *1310:B1 I *D sky130_fd_sc_hd__o21ai_1
*I *1309:X O *D sky130_fd_sc_hd__o311a_1
*CAP
1 *1310:B1 0.000309486
2 *1309:X 7.07839e-05
3 *232:8 0.00038027
4 *232:8 *259:31 0.000135143
5 *1301:B1 *1310:B1 9.67842e-05
6 *215:22 *232:8 4.26048e-06
7 *221:23 *1310:B1 0.000435854
8 *225:8 *232:8 1.17256e-05
9 *225:22 *1310:B1 0.000178517
10 *226:8 *232:8 8.85189e-05
*RES
1 *1309:X *232:8 39.9057 
2 *232:8 *1310:B1 44.815 
*END

*D_NET *233 0.000446712
*CONN
*I *1315:B I *D sky130_fd_sc_hd__and3_1
*I *1310:Y O *D sky130_fd_sc_hd__o21ai_1
*CAP
1 *1315:B 0.000194431
2 *1310:Y 0.000194431
3 *1315:B *237:14 3.7122e-06
4 *221:23 *1315:B 5.41385e-05
*RES
1 *1310:Y *1315:B 49.0243 
*END

*D_NET *234 0.000389625
*CONN
*I *1312:A3 I *D sky130_fd_sc_hd__o311a_1
*I *1311:X O *D sky130_fd_sc_hd__o211a_1
*CAP
1 *1312:A3 0
2 *1311:X 0.000162691
3 *234:10 0.000162691
4 *87:74 *234:10 0
5 *211:16 *234:10 6.33511e-05
6 *219:10 *234:10 8.91468e-07
*RES
1 *1311:X *234:10 40.5271 
2 *234:10 *1312:A3 38 
*END

*D_NET *235 0.000728657
*CONN
*I *1314:B I *D sky130_fd_sc_hd__or3_1
*I *1312:X O *D sky130_fd_sc_hd__o311a_1
*CAP
1 *1314:B 0.000273284
2 *1312:X 0.000273284
3 *1314:B *1312:A1 2.79543e-05
4 *1314:B *236:22 1.73274e-05
5 *1312:A2 *1314:B 5.50106e-05
6 *225:22 *1314:B 8.1796e-05
*RES
1 *1312:X *1314:B 49.9564 
*END

*D_NET *236 0.00830564
*CONN
*I *1314:C I *D sky130_fd_sc_hd__or3_1
*I *1313:X O *D sky130_fd_sc_hd__or4_1
*CAP
1 *1314:C 0
2 *1313:X 6.07532e-05
3 *236:22 0.00106503
4 *236:16 0.00167525
5 *236:8 0.000670979
6 *236:8 *251:10 5.56306e-05
7 *236:8 *268:108 0
8 *236:16 *1254:A1 2.95125e-05
9 *236:16 *1256:A1 0.000185428
10 *236:16 *266:111 4.55625e-05
11 *236:16 *268:108 0
12 *236:16 *304:29 1.22803e-05
13 *236:16 *304:31 3.72639e-05
14 *236:16 *306:37 0.000194327
15 *236:22 *1312:A1 0.000613267
16 *236:22 *266:60 0.000567191
17 *236:22 *304:59 0.000400679
18 *1249:A *236:22 0.000319407
19 *1249:B *236:22 0.000398503
20 *1285:A2 *236:22 0.000170388
21 *1312:A2 *236:22 1.5769e-05
22 *1314:B *236:22 1.73274e-05
23 *58:8 *236:8 4.334e-05
24 *169:22 *236:22 0.000141954
25 *170:18 *236:22 5.60968e-05
26 *170:31 *236:22 6.68919e-05
27 *170:42 *236:22 8.83847e-05
28 *188:10 *236:16 0.000446501
29 *210:8 *236:22 0.00082713
30 *225:22 *236:22 8.28854e-05
31 *231:22 *236:22 1.79127e-05
*RES
1 *1313:X *236:8 39.5536 
2 *236:8 *236:16 43.92 
3 *236:16 *236:22 46.61 
4 *236:22 *1314:C 23 
*END

*D_NET *237 0.00432043
*CONN
*I *1327:C1 I *D sky130_fd_sc_hd__o211ai_1
*I *1315:C I *D sky130_fd_sc_hd__and3_1
*I *1314:X O *D sky130_fd_sc_hd__or3_1
*CAP
1 *1327:C1 0
2 *1315:C 0
3 *1314:X 4.74077e-05
4 *237:31 0.000735551
5 *237:14 0.000173415
6 *237:6 0.000956374
7 *237:31 *1309:A1 5.3304e-05
8 *237:31 *1309:A2 9.45591e-05
9 *237:31 *242:10 1.32314e-05
10 *237:31 *254:55 2.02517e-05
11 *1299:A *237:31 9.41704e-05
12 *1302:A3 *237:31 8.60475e-05
13 *1302:B1 *237:31 3.22879e-05
14 *1309:C1 *237:31 0.000136738
15 *1315:B *237:14 3.7122e-06
16 *81:20 *237:31 8.4047e-05
17 *218:12 *237:31 8.62783e-05
18 *224:10 *237:31 0.00010018
19 *225:22 *237:6 0.00010018
20 *225:22 *237:31 0.000466097
21 *229:12 *237:14 0.000219891
22 *231:22 *237:31 0.000816704
*RES
1 *1314:X *237:6 24.0979 
2 *237:6 *237:14 33.19 
3 *237:14 *1315:C 23 
4 *237:6 *237:31 49.14 
5 *237:31 *1327:C1 23 
*END

*D_NET *238 0.00194252
*CONN
*I *1322:C I *D sky130_fd_sc_hd__nor3_1
*I *1321:X O *D sky130_fd_sc_hd__o221a_1
*CAP
1 *1322:C 0
2 *1321:X 0
3 *238:12 0.00084313
4 *238:6 0.00084313
5 *238:12 *245:127 9.84794e-05
6 *238:12 *269:53 0
7 *1150:B *238:12 0
8 *1319:A2 *238:12 0
9 *75:12 *238:12 9.84794e-05
10 *96:20 *238:12 5.93017e-05
11 *100:21 *238:12 0
12 *101:10 *238:12 0
13 *101:16 *238:12 0
14 *111:10 *238:12 0
*RES
1 *1321:X *238:6 38 
2 *238:6 *238:12 30.3286 
3 *238:12 *1322:C 23 
*END

*D_NET *239 0.00214658
*CONN
*I *1325:B2 I *D sky130_fd_sc_hd__a2bb2o_1
*I *1324:X O *D sky130_fd_sc_hd__or4_1
*CAP
1 *1325:B2 0.000217575
2 *1324:X 0.000349203
3 *239:10 0.000566778
4 *1325:B2 *242:10 9.67842e-05
5 *1325:B2 *254:55 5.50106e-05
6 *239:10 *242:10 0.000246458
7 *239:10 *254:55 0.000400895
8 *239:10 *330:88 0
9 *1325:B1 *1325:B2 0.000213872
*RES
1 *1324:X *239:10 46.2857 
2 *239:10 *1325:B2 42.9093 
*END

*D_NET *240 0.000348981
*CONN
*I *1327:A2 I *D sky130_fd_sc_hd__o211ai_1
*I *1325:X O *D sky130_fd_sc_hd__a2bb2o_1
*CAP
1 *1327:A2 8.0926e-05
2 *1325:X 8.0926e-05
3 *1325:B1 *1327:A2 0.000187129
*RES
1 *1325:X *1327:A2 48.0507 
*END

*D_NET *241 0.00166038
*CONN
*I *1327:B1 I *D sky130_fd_sc_hd__o211ai_1
*I *1326:Y O *D sky130_fd_sc_hd__o211ai_1
*CAP
1 *1327:B1 0
2 *1326:Y 0.000577404
3 *241:10 0.000577404
4 *241:10 *1326:A1 0.00024615
5 *241:10 *254:55 0.000110922
6 *241:10 *259:39 0.000141052
7 *241:10 *337:21 0
8 *155:16 *241:10 7.44161e-06
*RES
1 *1326:Y *241:10 46.7207 
2 *241:10 *1327:B1 38 
*END

*D_NET *242 0.00168427
*CONN
*I *1328:A2 I *D sky130_fd_sc_hd__a21o_1
*I *1327:Y O *D sky130_fd_sc_hd__o211ai_1
*CAP
1 *1328:A2 3.77894e-05
2 *1327:Y 0.000519274
3 *242:10 0.000557064
4 *242:10 *247:104 0.000193379
5 *242:10 *254:55 2.02872e-05
6 *242:10 *269:90 0
7 *242:10 *330:88 0
8 *242:10 *337:10 0
9 *242:10 *337:21 0
10 *1325:B2 *242:10 9.67842e-05
11 *77:8 *242:10 0
12 *237:31 *242:10 1.32314e-05
13 *239:10 *242:10 0.000246458
*RES
1 *1327:Y *242:10 48.0671 
2 *242:10 *1328:A2 38.6214 
*END

*D_NET *243 0.00955608
*CONN
*I *1387:A I *D sky130_fd_sc_hd__clkbuf_16
*I *1388:A I *D sky130_fd_sc_hd__clkbuf_16
*I *1386:A I *D sky130_fd_sc_hd__clkbuf_16
*I *1385:A I *D sky130_fd_sc_hd__clkbuf_16
*I *1384:X O *D sky130_fd_sc_hd__clkbuf_16
*CAP
1 *1387:A 0.000746602
2 *1388:A 0
3 *1386:A 0.000114001
4 *1385:A 0.000650084
5 *1384:X 0.000110233
6 *243:36 0.00147346
7 *243:14 0.00157217
8 *243:10 0.00164517
9 *1385:A *1389:A 9.84794e-05
10 *1385:A *322:10 5.38249e-05
11 *1386:A *1389:A 0.000221992
12 *1387:A *1371:CLK 5.67058e-05
13 *1387:A *247:8 5.50106e-05
14 *1387:A *339:8 2.64616e-05
15 *243:14 *1297:A 0.000166522
16 *243:14 *270:38 0.000192087
17 *243:14 *278:10 0.000141869
18 *243:14 *289:30 0
19 *243:36 *1391:A 0.000166522
20 *243:36 *339:12 0
21 *243:36 *339:56 0
22 *1217:B1 *243:14 0
23 *1218:C1 *243:14 8.61037e-06
24 *1287:A1 *243:14 7.41334e-05
25 *1306:B *243:36 0
26 *1315:A *243:36 0
27 *1334:D *1385:A 0.000177678
28 *1371:D *1387:A 1.64354e-05
29 *67:8 *243:36 0
30 *81:20 *243:10 1.64402e-05
31 *81:20 *243:36 5.08899e-05
32 *87:83 *243:14 7.73198e-05
33 *87:83 *243:36 2.68708e-05
34 *88:67 *243:14 8.92841e-05
35 *156:10 *243:14 0.000168499
36 *157:8 *243:14 4.23714e-05
37 *158:8 *243:14 4.08537e-05
38 *212:10 *243:14 2.70469e-05
39 *218:12 *243:14 0.000404038
40 *218:12 *243:36 0.000789407
41 *221:12 *243:36 0
42 *224:10 *243:36 0
43 *229:8 *243:10 5.50106e-05
44 *229:12 *243:36 0
*RES
1 *1384:X *243:10 40.0714 
2 *243:10 *243:14 35.2171 
3 *243:14 *1385:A 35.6979 
4 *243:14 *1386:A 25.5271 
5 *243:10 *243:36 30.9914 
6 *243:36 *1388:A 23 
7 *243:36 *1387:A 36.195 
*END

*D_NET *244 0.0192671
*CONN
*I *1334:CLK I *D sky130_fd_sc_hd__dfxtp_1
*I *1358:CLK I *D sky130_fd_sc_hd__dfxtp_1
*I *1353:CLK I *D sky130_fd_sc_hd__dfxtp_1
*I *1333:CLK I *D sky130_fd_sc_hd__dfxtp_1
*I *1335:CLK I *D sky130_fd_sc_hd__dfxtp_1
*I *1332:CLK I *D sky130_fd_sc_hd__dfxtp_1
*I *1345:CLK I *D sky130_fd_sc_hd__dfxtp_1
*I *1341:CLK I *D sky130_fd_sc_hd__dfxtp_1
*I *1344:CLK I *D sky130_fd_sc_hd__dfxtp_1
*I *1343:CLK I *D sky130_fd_sc_hd__dfxtp_1
*I *1330:CLK I *D sky130_fd_sc_hd__dfxtp_1
*I *1331:CLK I *D sky130_fd_sc_hd__dfxtp_1
*I *1357:CLK I *D sky130_fd_sc_hd__dfxtp_1
*I *1363:CLK I *D sky130_fd_sc_hd__dfxtp_1
*I *1362:CLK I *D sky130_fd_sc_hd__dfxtp_1
*I *1342:CLK I *D sky130_fd_sc_hd__dfxtp_1
*I *1385:X O *D sky130_fd_sc_hd__clkbuf_16
*CAP
1 *1334:CLK 0.000167163
2 *1358:CLK 0
3 *1353:CLK 0.000145008
4 *1333:CLK 2.53239e-05
5 *1335:CLK 0.000223066
6 *1332:CLK 0
7 *1345:CLK 0
8 *1341:CLK 0.000532648
9 *1344:CLK 0
10 *1343:CLK 0
11 *1330:CLK 0
12 *1331:CLK 0
13 *1357:CLK 0.000441664
14 *1363:CLK 0
15 *1362:CLK 0.000140391
16 *1342:CLK 0
17 *1385:X 0
18 *244:178 0.000534355
19 *244:163 0.000928285
20 *244:159 0.000785374
21 *244:136 0.000260855
22 *244:115 0.000694377
23 *244:82 0.000114375
24 *244:69 0.000363334
25 *244:67 0.000857448
26 *244:61 0.00102754
27 *244:49 0.00143978
28 *244:36 0.00132603
29 *244:30 0.00148825
30 *244:22 0.00112984
31 *244:20 0.000593452
32 *244:12 0.000969131
33 *244:10 0.000847121
34 *244:4 0.000766761
35 *1333:CLK *321:10 0.00014196
36 *1357:CLK *277:10 6.17437e-06
37 *244:10 *264:77 0
38 *244:12 *264:77 0
39 *244:12 *264:86 0
40 *244:12 *312:60 5.20305e-05
41 *244:12 *320:44 0.000192087
42 *244:12 *321:20 0.000114092
43 *244:20 *264:86 0
44 *244:20 *264:88 0
45 *244:22 *1202:A 0.000143655
46 *244:30 *1200:A 0.000131763
47 *244:30 *316:10 8.82055e-05
48 *244:69 *277:10 2.93747e-05
49 *244:82 *277:10 4.83778e-05
50 *244:163 *322:48 1.34354e-05
51 *244:178 *1246:A 0.000146619
52 *244:178 *302:6 1.40958e-05
53 *1199:B *244:30 0.00010961
54 *1202:B *244:30 5.50106e-05
55 *1204:C *1341:CLK 3.29127e-05
56 *1333:D *1333:CLK 0.00014196
57 *1334:D *1334:CLK 0.000267167
58 *1343:D *244:30 0.000102732
59 *1358:D *244:178 0.000233156
60 *1410:A *1357:CLK 5.73288e-05
61 *27:8 *244:61 0
62 *29:8 *244:12 3.5664e-05
63 *31:8 *244:163 3.70187e-05
64 *42:8 *244:115 0
65 *55:8 *244:178 0.000222113
66 *59:8 *244:67 0
67 *59:8 *244:82 0
68 *129:12 *244:10 0.000116314
69 *129:43 *244:163 1.7992e-05
70 *130:10 *244:10 4.98543e-05
71 *131:8 *244:163 6.42902e-05
72 *132:10 *244:163 0.000167443
73 *148:23 *244:30 0.000318399
74 *150:6 *244:30 0.000100061
75 *150:21 *244:30 9.67842e-05
76 *150:29 *244:20 0
77 *150:29 *244:115 1.58805e-05
78 *152:10 *244:115 0
79 *153:10 *244:20 0
80 *183:8 *244:178 0
81 *191:27 *1357:CLK 0.000101988
82 *192:10 *244:67 0
*RES
1 *1385:X *244:4 23 
2 *244:4 *244:10 22.8714 
3 *244:10 *244:12 8.24429 
4 *244:12 *244:20 24.3629 
5 *244:20 *244:22 2.05071 
6 *244:22 *244:30 19.3886 
7 *244:30 *244:36 26.6 
8 *244:36 *1342:CLK 38 
9 *244:36 *244:49 28.5886 
10 *244:49 *244:61 43.2779 
11 *244:61 *244:67 35.7793 
12 *244:67 *244:69 2.05071 
13 *244:69 *1362:CLK 25.5271 
14 *244:69 *244:82 32.61 
15 *244:82 *1363:CLK 23 
16 *244:67 *1357:CLK 31.2443 
17 *244:61 *1331:CLK 23 
18 *244:49 *1330:CLK 23 
19 *244:30 *1343:CLK 23 
20 *244:22 *244:115 32.9621 
21 *244:115 *1344:CLK 23 
22 *244:115 *1341:CLK 32.6736 
23 *244:20 *1345:CLK 23 
24 *244:12 *244:136 15.6214 
25 *244:136 *1332:CLK 23 
26 *244:136 *1335:CLK 26.9564 
27 *244:10 *1333:CLK 39.5743 
28 *244:4 *244:159 6.33857 
29 *244:159 *244:163 20.7793 
30 *244:163 *1353:CLK 40.5271 
31 *244:163 *244:178 28.0293 
32 *244:178 *1358:CLK 23 
33 *244:159 *1334:CLK 26.48 
*END

*D_NET *245 0.0186142
*CONN
*I *1376:CLK I *D sky130_fd_sc_hd__dfxtp_1
*I *1346:CLK I *D sky130_fd_sc_hd__dfxtp_1
*I *1378:CLK I *D sky130_fd_sc_hd__dfxtp_1
*I *1352:CLK I *D sky130_fd_sc_hd__dfxtp_1
*I *1379:CLK I *D sky130_fd_sc_hd__dfxtp_1
*I *1337:CLK I *D sky130_fd_sc_hd__dfxtp_1
*I *1336:CLK I *D sky130_fd_sc_hd__dfxtp_1
*I *1377:CLK I *D sky130_fd_sc_hd__dfxtp_1
*I *1339:CLK I *D sky130_fd_sc_hd__dfxtp_1
*I *1338:CLK I *D sky130_fd_sc_hd__dfxtp_1
*I *1340:CLK I *D sky130_fd_sc_hd__dfxtp_1
*I *1389:A I *D sky130_fd_sc_hd__clkinvlp_4
*I *1386:X O *D sky130_fd_sc_hd__clkbuf_16
*CAP
1 *1376:CLK 8.42855e-05
2 *1346:CLK 0
3 *1378:CLK 2.0995e-05
4 *1352:CLK 0.00017242
5 *1379:CLK 3.02106e-05
6 *1337:CLK 3.2539e-05
7 *1336:CLK 0.000197662
8 *1377:CLK 8.28613e-05
9 *1339:CLK 0
10 *1338:CLK 5.75637e-05
11 *1340:CLK 0.000144632
12 *1389:A 0.000682783
13 *1386:X 0
14 *245:142 0.000543549
15 *245:127 0.00132944
16 *245:119 0.00106274
17 *245:106 0.000605708
18 *245:75 0.000615677
19 *245:71 0.00106312
20 *245:41 0.000744821
21 *245:37 0.0012577
22 *245:31 0.000980679
23 *245:25 0.00145722
24 *245:19 0.000846777
25 *245:4 0.000682783
26 *1336:CLK *265:8 3.71369e-05
27 *1336:CLK *265:10 3.71251e-05
28 *1336:CLK *265:98 0.000111158
29 *1337:CLK *325:8 2.93845e-05
30 *1338:CLK *265:20 0.000182826
31 *1340:CLK *265:20 5.50049e-05
32 *1340:CLK *265:33 0.000141164
33 *1352:CLK *330:6 0.00030262
34 *1352:CLK *330:8 0.000187129
35 *1352:CLK *330:23 2.02517e-05
36 *1377:CLK *1320:A 1.76557e-05
37 *1379:CLK *311:10 2.64616e-05
38 *245:25 *1148:A 1.12487e-05
39 *245:25 *1156:A2 0.000116652
40 *245:25 *255:32 2.84912e-05
41 *245:31 *1148:A 0
42 *245:31 *327:32 0
43 *245:41 *270:8 0
44 *245:71 *1159:A_N 0.000837551
45 *245:71 *311:10 6.17437e-06
46 *245:75 *265:98 2.34364e-05
47 *245:75 *309:19 0
48 *245:106 *255:32 0.000210934
49 *245:119 *330:6 0.000182832
50 *245:127 *255:30 0
51 *245:127 *255:32 0
52 *245:127 *269:57 0
53 *245:127 *269:66 0
54 *245:142 *1136:A 4.21594e-06
55 *245:142 *250:27 8.51432e-05
56 *1155:B1 *245:25 0.000267167
57 *1156:D1 *245:25 1.37136e-05
58 *1158:B *1377:CLK 5.67058e-05
59 *1159:B_N *245:71 5.41288e-05
60 *1205:A2 *245:142 0.000217539
61 *1322:B *245:127 1.32939e-05
62 *1322:B *245:142 1.27757e-05
63 *1323:B *245:75 0.000218943
64 *1338:D *1338:CLK 5.67058e-05
65 *1352:D *1352:CLK 8.90341e-05
66 *1377:D *1377:CLK 2.4754e-05
67 *1385:A *1389:A 9.84794e-05
68 *1386:A *1389:A 0.000221992
69 *49:10 *245:106 0
70 *75:12 *1378:CLK 1.14154e-05
71 *75:12 *245:127 2.32101e-05
72 *75:12 *245:142 0.00010795
73 *88:51 *245:25 0
74 *96:40 *245:25 0
75 *97:10 *245:31 3.47781e-05
76 *98:29 *1389:A 1.59094e-05
77 *98:29 *245:25 0.000110913
78 *99:25 *245:142 0
79 *102:23 *245:41 0
80 *102:36 *245:37 0
81 *102:36 *245:41 0
82 *103:75 *245:41 0
83 *108:10 *245:37 0
84 *108:25 *245:25 0.000136486
85 *108:40 *245:25 0.000136086
86 *112:19 *245:25 0.000246167
87 *116:10 *245:75 1.19692e-05
88 *118:10 *245:25 0
89 *122:10 *245:31 7.66085e-05
90 *123:10 *245:75 8.16356e-05
91 *124:8 *1379:CLK 1.21972e-05
92 *124:8 *245:71 3.7122e-06
93 *124:12 *1336:CLK 0.000108682
94 *124:12 *245:75 0.000323665
95 *137:8 *245:75 0.000166513
96 *138:8 *245:41 0.000138727
97 *140:10 *245:37 2.04774e-05
98 *140:10 *245:41 5.26101e-05
99 *238:12 *245:127 9.84794e-05
*RES
1 *1386:X *245:4 23 
2 *245:4 *1389:A 35.5943 
3 *245:4 *245:19 15 
4 *245:19 *245:25 27.7807 
5 *245:25 *245:31 33.3143 
6 *245:31 *245:37 27.76 
7 *245:37 *245:41 23.5964 
8 *245:41 *1340:CLK 26.48 
9 *245:41 *1338:CLK 25.0507 
10 *245:37 *1339:CLK 38 
11 *245:31 *1377:CLK 25.0507 
12 *245:25 *245:71 14.9143 
13 *245:71 *245:75 26.4136 
14 *245:75 *1336:CLK 43.0129 
15 *245:75 *1337:CLK 38.6214 
16 *245:71 *1379:CLK 23.6214 
17 *245:19 *245:106 20.4271 
18 *245:106 *1352:CLK 28.8829 
19 *245:106 *245:119 4.45357 
20 *245:119 *245:127 42.47 
21 *245:127 *1378:CLK 23.4971 
22 *245:127 *245:142 40.9786 
23 *245:142 *1346:CLK 23 
24 *245:119 *1376:CLK 24.5743 
*END

*D_NET *246 0.0196482
*CONN
*I *1365:CLK I *D sky130_fd_sc_hd__dfxtp_1
*I *1369:CLK I *D sky130_fd_sc_hd__dfxtp_1
*I *1368:CLK I *D sky130_fd_sc_hd__dfxtp_1
*I *1367:CLK I *D sky130_fd_sc_hd__dfxtp_1
*I *1366:CLK I *D sky130_fd_sc_hd__dfxtp_1
*I *1355:CLK I *D sky130_fd_sc_hd__dfxtp_1
*I *1360:CLK I *D sky130_fd_sc_hd__dfxtp_1
*I *1354:CLK I *D sky130_fd_sc_hd__dfxtp_1
*I *1356:CLK I *D sky130_fd_sc_hd__dfxtp_1
*I *1361:CLK I *D sky130_fd_sc_hd__dfxtp_1
*I *1390:A I *D sky130_fd_sc_hd__bufinv_16
*I *1364:CLK I *D sky130_fd_sc_hd__dfxtp_1
*I *1359:CLK I *D sky130_fd_sc_hd__dfxtp_1
*I *1387:X O *D sky130_fd_sc_hd__clkbuf_16
*CAP
1 *1365:CLK 0
2 *1369:CLK 0.000671868
3 *1368:CLK 0
4 *1367:CLK 0.000382357
5 *1366:CLK 3.62665e-05
6 *1355:CLK 4.25088e-05
7 *1360:CLK 3.16304e-05
8 *1354:CLK 0.000541578
9 *1356:CLK 0
10 *1361:CLK 0
11 *1390:A 0
12 *1364:CLK 3.40472e-05
13 *1359:CLK 0
14 *1387:X 0
15 *246:156 0.000650864
16 *246:132 0.00123697
17 *246:117 0.0014447
18 *246:99 7.87753e-05
19 *246:97 0.000929311
20 *246:67 0.000763048
21 *246:59 0.000822811
22 *246:57 0.00175357
23 *246:53 0.00140867
24 *246:47 0.00136213
25 *246:20 0.000571499
26 *246:12 0.000730526
27 *246:10 0.000188031
28 *246:8 0.000788693
29 *246:4 0.000671258
30 *1354:CLK *267:51 0
31 *1364:CLK *293:10 2.16297e-05
32 *1369:CLK *267:14 9.87533e-05
33 *246:12 *266:60 0
34 *246:20 *1294:C1 0
35 *246:20 *266:60 0
36 *246:20 *293:36 0
37 *246:47 *1234:A 0.000303724
38 *246:47 *1234:B 3.16665e-05
39 *246:47 *304:27 0.000289702
40 *246:57 *1225:A 5.3304e-05
41 *246:57 *1225:B 5.26733e-06
42 *246:59 *267:51 0
43 *246:67 *267:51 0
44 *246:67 *281:8 9.86857e-05
45 *246:97 *1269:A 8.02307e-05
46 *246:97 *266:41 3.44147e-05
47 *246:117 *266:41 0.000315996
48 *246:132 *296:10 0.000103596
49 *246:156 *1234:A 6.93232e-05
50 *246:156 *294:12 0.000170806
51 *1234:C *246:47 4.71428e-05
52 *1251:B *1360:CLK 3.85196e-05
53 *1251:B *246:53 0.000112827
54 *1251:B *246:57 6.96101e-05
55 *1285:C1 *246:20 0.000332366
56 *1356:D *246:57 0.000151109
57 *1367:D *1367:CLK 6.40123e-06
58 *1368:D *1369:CLK 8.90341e-05
59 *1395:A *1369:CLK 3.31324e-05
60 *3:11 *246:156 0
61 *9:13 *246:67 0.000208735
62 *51:8 *1354:CLK 0
63 *56:12 *246:20 0.00012365
64 *165:18 *1369:CLK 2.45549e-06
65 *167:8 *246:20 5.56306e-05
66 *167:21 *246:20 0.000229945
67 *169:10 *246:20 0.000228001
68 *171:8 *246:12 5.08795e-05
69 *173:14 *246:156 0.000216721
70 *194:10 *246:8 8.24662e-05
71 *194:10 *246:10 0.000182863
72 *194:10 *246:12 1.14452e-05
73 *209:10 *246:8 9.03784e-05
74 *209:10 *246:10 0.000194309
75 *209:10 *246:12 0.000246748
76 *209:10 *246:20 2.55642e-05
*RES
1 *1387:X *246:4 23 
2 *246:4 *246:8 16.2014 
3 *246:8 *246:10 2.61 
4 *246:10 *246:12 3.31429 
5 *246:12 *246:20 29.2514 
6 *246:20 *1359:CLK 23 
7 *246:12 *1364:CLK 38.6214 
8 *246:10 *1390:A 38 
9 *246:8 *246:47 44.9143 
10 *246:47 *246:53 18.48 
11 *246:53 *246:57 30.3907 
12 *246:57 *246:59 1.20143 
13 *246:59 *246:67 29.6864 
14 *246:67 *1361:CLK 23 
15 *246:59 *1356:CLK 38 
16 *246:57 *1354:CLK 48.3571 
17 *246:53 *1360:CLK 23.8493 
18 *246:47 *246:97 8.59643 
19 *246:97 *246:99 15 
20 *246:99 *1355:CLK 23.6214 
21 *246:99 *1366:CLK 23.6214 
22 *246:97 *246:117 25.7093 
23 *246:117 *1367:CLK 27.8057 
24 *246:117 *246:132 10.1914 
25 *246:132 *1368:CLK 23 
26 *246:132 *1369:CLK 34.4964 
27 *246:4 *246:156 41.4964 
28 *246:156 *1365:CLK 23 
*END

*D_NET *247 0.0198676
*CONN
*I *1373:CLK I *D sky130_fd_sc_hd__dfxtp_1
*I *1348:CLK I *D sky130_fd_sc_hd__dfxtp_1
*I *1347:CLK I *D sky130_fd_sc_hd__dfxtp_1
*I *1351:CLK I *D sky130_fd_sc_hd__dfxtp_1
*I *1381:CLK I *D sky130_fd_sc_hd__dfxtp_1
*I *1375:CLK I *D sky130_fd_sc_hd__dfxtp_1
*I *1374:CLK I *D sky130_fd_sc_hd__dfxtp_1
*I *1380:CLK I *D sky130_fd_sc_hd__dfxtp_2
*I *1370:CLK I *D sky130_fd_sc_hd__dfxtp_1
*I *1350:CLK I *D sky130_fd_sc_hd__dfxtp_1
*I *1349:CLK I *D sky130_fd_sc_hd__dfxtp_1
*I *1372:CLK I *D sky130_fd_sc_hd__dfxtp_1
*I *1371:CLK I *D sky130_fd_sc_hd__dfxtp_1
*I *1391:A I *D sky130_fd_sc_hd__clkinv_2
*I *1388:X O *D sky130_fd_sc_hd__clkbuf_16
*CAP
1 *1373:CLK 0
2 *1348:CLK 0
3 *1347:CLK 8.85208e-05
4 *1351:CLK 0
5 *1381:CLK 0.000290638
6 *1375:CLK 0
7 *1374:CLK 0
8 *1380:CLK 0
9 *1370:CLK 0
10 *1350:CLK 0
11 *1349:CLK 0
12 *1372:CLK 0
13 *1371:CLK 0.000264854
14 *1391:A 0.000147953
15 *1388:X 0
16 *247:166 0.000255581
17 *247:151 0.000714497
18 *247:138 0.000676626
19 *247:123 0.000895547
20 *247:104 0.000276266
21 *247:96 0.000710451
22 *247:88 0.000859
23 *247:86 0.000723492
24 *247:84 0.000722064
25 *247:70 0.000473566
26 *247:55 0.000906387
27 *247:44 0.000554863
28 *247:31 0.000673905
29 *247:27 0.000626404
30 *247:8 0.000775478
31 *247:4 0.00101019
32 *1347:CLK *332:10 0.000109908
33 *1381:CLK *250:48 0
34 *1381:CLK *341:12 6.17437e-06
35 *1391:A *339:56 0
36 *247:8 *1308:A 0.000267167
37 *247:8 *339:8 8.2832e-05
38 *247:8 *339:56 0.000234159
39 *247:8 *340:14 0.000270682
40 *247:27 *339:56 0
41 *247:27 *340:14 0
42 *247:55 *282:8 3.47781e-05
43 *247:70 *1275:B1 5.3304e-05
44 *247:70 *298:12 6.17437e-06
45 *247:84 *1279:B1 6.53382e-05
46 *247:84 *1308:A 0.000128723
47 *247:84 *339:40 1.46586e-05
48 *247:88 *250:27 0.000151909
49 *247:88 *261:12 0
50 *247:88 *328:34 0.000201994
51 *247:96 *1402:A 4.17736e-05
52 *247:96 *250:27 8.16253e-05
53 *247:96 *328:8 5.50106e-05
54 *247:96 *328:10 1.58805e-05
55 *247:96 *328:34 7.03766e-05
56 *247:104 *1326:A1 0.000140259
57 *247:104 *269:90 0
58 *247:104 *337:10 3.884e-05
59 *247:123 *250:48 0
60 *247:123 *341:12 0.000164282
61 *247:138 *250:48 0
62 *247:151 *250:48 0
63 *247:151 *332:10 5.12328e-05
64 *247:166 *269:107 0
65 *1127:A *247:84 0.000113302
66 *1210:B *247:138 0
67 *1279:A3 *247:84 0.000139357
68 *1347:D *1347:CLK 0.000129006
69 *1350:D *247:70 5.50106e-05
70 *1370:D *247:27 8.38361e-05
71 *1374:D *247:96 0.000577442
72 *1381:D *1381:CLK 5.92579e-05
73 *1387:A *1371:CLK 5.67058e-05
74 *1387:A *247:8 5.50106e-05
75 *3:11 *1371:CLK 0
76 *3:11 *247:44 0
77 *3:11 *247:55 0
78 *44:8 *247:151 0
79 *45:8 *247:166 0
80 *46:6 *247:70 0.000539178
81 *47:8 *247:70 0
82 *48:10 *247:138 3.81391e-05
83 *67:8 *1391:A 7.55832e-05
84 *67:8 *247:27 0.000126793
85 *69:14 *1371:CLK 0.000149011
86 *69:14 *247:44 7.66188e-05
87 *69:14 *247:55 1.44546e-05
88 *70:10 *247:88 7.28526e-05
89 *78:8 *247:123 0
90 *80:72 *247:70 0
91 *86:8 *247:151 0
92 *87:12 *247:123 0
93 *87:12 *247:138 0
94 *87:25 *247:88 0
95 *87:25 *247:123 0
96 *87:64 *247:96 3.45353e-05
97 *87:64 *247:104 2.4754e-05
98 *93:61 *247:84 8.54813e-05
99 *93:61 *247:123 1.12487e-05
100 *155:16 *247:104 0.000439375
101 *165:10 *247:70 0.00029223
102 *202:25 *247:84 0.000465196
103 *202:33 *247:8 0.000185434
104 *202:33 *247:84 0.000267167
105 *204:16 *247:84 0.000103777
106 *206:8 *247:84 0.000819318
107 *206:12 *247:88 0.000434093
108 *206:12 *247:123 5.01986e-05
109 *242:10 *247:104 0.000193379
110 *243:36 *1391:A 0.000166522
*RES
1 *1388:X *247:4 23 
2 *247:4 *247:8 24.6736 
3 *247:8 *1391:A 41.5836 
4 *247:8 *247:27 22.6229 
5 *247:27 *247:31 19.9093 
6 *247:31 *1371:CLK 44.4007 
7 *247:31 *247:44 2.96214 
8 *247:44 *1372:CLK 38 
9 *247:44 *247:55 23.5964 
10 *247:55 *1349:CLK 23 
11 *247:55 *247:70 42.7807 
12 *247:70 *1350:CLK 23 
13 *247:27 *1370:CLK 23 
14 *247:4 *247:84 20.1757 
15 *247:84 *247:86 15 
16 *247:86 *247:88 11.4136 
17 *247:88 *247:96 25.875 
18 *247:96 *247:104 37.9957 
19 *247:104 *1380:CLK 23 
20 *247:96 *1374:CLK 23 
21 *247:88 *1375:CLK 38 
22 *247:86 *247:123 5.60321 
23 *247:123 *1381:CLK 43.3754 
24 *247:123 *247:138 6.3075 
25 *247:138 *1351:CLK 38 
26 *247:138 *247:151 22.0014 
27 *247:151 *1347:CLK 26.0036 
28 *247:151 *247:166 34.5364 
29 *247:166 *1348:CLK 23 
30 *247:84 *1373:CLK 23 
*END

*D_NET *248 0.000447781
*CONN
*I *1288:A I *D sky130_fd_sc_hd__or2_1
*I *1413:X O *D sky130_fd_sc_hd__clkbuf_1
*CAP
1 *1288:A 0
2 *1413:X 0.000166849
3 *248:10 0.000166849
4 *248:10 *306:8 0.000114083
*RES
1 *1413:X *248:10 40.6514 
2 *248:10 *1288:A 38 
*END

*D_NET *249 0.000247977
*CONN
*I *1288:B I *D sky130_fd_sc_hd__or2_1
*I *1414:X O *D sky130_fd_sc_hd__clkbuf_1
*CAP
1 *1288:B 0
2 *1414:X 0.000118266
3 *249:8 0.000118266
4 *249:8 *306:8 1.14452e-05
5 *213:8 *249:8 0
*RES
1 *1414:X *249:8 40.2579 
2 *249:8 *1288:B 38 
*END

*D_NET *250 0.0158289
*CONN
*I *1223:B1 I *D sky130_fd_sc_hd__a2111o_1
*I *1209:B I *D sky130_fd_sc_hd__nor2_1
*I *1208:B I *D sky130_fd_sc_hd__nor2_1
*I *1283:A I *D sky130_fd_sc_hd__nor2_1
*I *1397:A I *D sky130_fd_sc_hd__buf_2
*I *1415:X O *D sky130_fd_sc_hd__clkbuf_2
*CAP
1 *1223:B1 7.73951e-05
2 *1209:B 0
3 *1208:B 7.21097e-06
4 *1283:A 0
5 *1397:A 0
6 *1415:X 0.000460165
7 *250:66 0.000312752
8 *250:58 0.00158001
9 *250:50 0.00135186
10 *250:48 0.00141586
11 *250:35 0.00192869
12 *250:27 0.00215452
13 *250:14 0.00210186
14 *1208:B *334:10 2.4754e-05
15 *1223:B1 *333:8 3.70187e-05
16 *250:14 *269:8 0.000267267
17 *250:14 *269:12 5.50049e-05
18 *250:27 *1136:A 0
19 *250:27 *1136:B 0
20 *250:27 *255:62 0
21 *250:27 *258:10 0
22 *250:27 *261:12 2.22079e-05
23 *250:27 *310:10 0
24 *250:27 *311:23 0.000229266
25 *250:27 *311:36 0.000211157
26 *250:27 *311:45 8.62783e-05
27 *250:27 *311:68 7.04458e-05
28 *250:27 *328:10 0
29 *250:35 *1282:A 0
30 *250:35 *1412:A 7.56391e-05
31 *250:48 *269:107 7.76364e-06
32 *250:48 *283:8 0
33 *250:48 *341:12 0
34 *250:66 *1221:A1 3.83778e-05
35 *250:66 *334:10 0.0002263
36 *250:66 *334:16 0
37 *250:66 *341:56 0
38 *1130:A2 *250:48 0
39 *1205:B1 *250:27 0.000273789
40 *1208:A *1208:B 5.67058e-05
41 *1208:A *250:66 0.000120403
42 *1283:B *250:35 4.21594e-06
43 *1283:B *250:48 3.4932e-05
44 *1323:B *250:14 6.72536e-05
45 *1329:A2 *250:48 0.000152335
46 *1381:CLK *250:48 0
47 *11:11 *250:27 0
48 *43:10 *250:27 0.000114083
49 *44:8 *250:48 0.000222183
50 *71:8 *250:27 0.000166513
51 *76:10 *250:14 0.000111852
52 *78:8 *250:48 5.80963e-05
53 *79:21 *1223:B1 0
54 *79:21 *250:58 0
55 *80:55 *250:66 7.90999e-05
56 *86:12 *250:48 0.000610665
57 *87:31 *250:27 0.000349187
58 *87:33 *250:27 0.00015822
59 *99:25 *250:27 0
60 *110:10 *250:14 2.76611e-06
61 *110:10 *250:27 4.06408e-05
62 *124:12 *250:14 6.7177e-06
63 *155:8 *250:35 0
64 *155:8 *250:48 0
65 *162:10 *1223:B1 0.000128583
66 *162:10 *250:58 1.01436e-05
67 *245:142 *250:27 8.51432e-05
68 *247:88 *250:27 0.000151909
69 *247:96 *250:27 8.16253e-05
70 *247:123 *250:48 0
71 *247:138 *250:48 0
72 *247:151 *250:48 0
*RES
1 *1415:X *250:14 48.15 
2 *250:14 *1397:A 38 
3 *250:14 *250:27 35.4214 
4 *250:27 *250:35 36.815 
5 *250:35 *1283:A 38 
6 *250:35 *250:48 42.7364 
7 *250:48 *250:50 15 
8 *250:50 *250:58 46.9236 
9 *250:58 *250:66 22.395 
10 *250:66 *1208:B 23.6214 
11 *250:66 *1209:B 23 
12 *250:50 *1223:B1 39.9057 
*END

*D_NET *251 0.000514999
*CONN
*I *1313:A I *D sky130_fd_sc_hd__or4_1
*I *1416:X O *D sky130_fd_sc_hd__clkbuf_1
*CAP
1 *1313:A 0
2 *1416:X 0.000145132
3 *251:10 0.000145132
4 *251:10 *281:8 1.47563e-05
5 *251:10 *290:8 0.00014411
6 *58:8 *251:10 0
7 *213:18 *251:10 1.02387e-05
8 *236:8 *251:10 5.56306e-05
*RES
1 *1416:X *251:10 41.7079 
2 *251:10 *1313:A 38 
*END

*D_NET *252 0.00166577
*CONN
*I *1318:A2 I *D sky130_fd_sc_hd__o21a_1
*I *1417:X O *D sky130_fd_sc_hd__clkbuf_1
*CAP
1 *1318:A2 7.69181e-05
2 *1417:X 0.000354287
3 *252:8 0.000431205
4 *1318:A2 *254:12 3.06338e-05
5 *252:8 *262:8 0
6 *252:8 *279:10 0.000509837
7 *1420:A *252:8 7.20154e-05
8 *1427:A *252:8 2.74987e-05
9 *23:11 *252:8 0.000163378
10 *87:31 *252:8 0
*RES
1 *1417:X *252:8 47.6529 
2 *252:8 *1318:A2 39.0979 
*END

*D_NET *253 0.00480168
*CONN
*I *1146:A I *D sky130_fd_sc_hd__nand2_1
*I *1156:A1 I *D sky130_fd_sc_hd__a2111o_1
*I *1418:X O *D sky130_fd_sc_hd__buf_1
*CAP
1 *1146:A 6.34891e-05
2 *1156:A1 0.000373608
3 *1418:X 0.00149977
4 *253:14 0.000437098
5 *253:12 0.00149977
6 *1146:A *269:53 3.94619e-05
7 *1156:A1 *269:53 0.000155786
8 *1144:B *1156:A1 0.000139357
9 *1144:C *1156:A1 4.91513e-05
10 *1150:B *1156:A1 2.76611e-06
11 *1321:B1 *1156:A1 0.000348911
12 *1418:A *253:12 1.05658e-05
13 *88:51 *253:12 6.54229e-05
14 *104:14 *1156:A1 3.32545e-05
15 *111:8 *1146:A 2.64616e-05
16 *111:10 *1146:A 1.28274e-05
17 *111:10 *1156:A1 4.39843e-05
*RES
1 *1418:X *253:12 49.8117 
2 *253:12 *253:14 8 
3 *253:14 *1156:A1 46.7932 
4 *253:14 *1146:A 39.2946 
*END

*D_NET *254 0.00683849
*CONN
*I *1327:A1 I *D sky130_fd_sc_hd__o211ai_1
*I *1291:A I *D sky130_fd_sc_hd__nor2_1
*I *1309:A2 I *D sky130_fd_sc_hd__o311a_1
*I *1304:C I *D sky130_fd_sc_hd__or4_1
*I *1419:X O *D sky130_fd_sc_hd__buf_1
*CAP
1 *1327:A1 0
2 *1291:A 6.48606e-05
3 *1309:A2 0.000143359
4 *1304:C 6.93484e-05
5 *1419:X 0.00118518
6 *254:55 0.000189044
7 *254:27 0.000454965
8 *254:14 0.000507756
9 *254:12 0.00156589
10 *1304:C *330:88 4.79544e-05
11 *254:12 *337:10 0.00017262
12 *254:14 *330:88 0.000144067
13 *254:27 *1304:A 0
14 *1309:C1 *1309:A2 9.58714e-05
15 *1318:A2 *254:12 3.06338e-05
16 *1318:B1 *254:12 0.000271476
17 *1325:B1 *254:55 0.00010018
18 *1325:B2 *254:55 5.50106e-05
19 *1380:D *254:12 0.000102732
20 *91:10 *1291:A 0.00021197
21 *91:10 *254:27 0.000419189
22 *91:10 *254:55 0
23 *214:38 *1304:C 5.3304e-05
24 *228:8 *254:27 0
25 *231:10 *1291:A 0.000222113
26 *231:10 *254:27 2.46345e-05
27 *231:22 *254:27 5.94125e-05
28 *237:31 *1309:A2 9.45591e-05
29 *237:31 *254:55 2.02517e-05
30 *239:10 *254:55 0.000400895
31 *241:10 *254:55 0.000110922
32 *242:10 *254:55 2.02872e-05
*RES
1 *1419:X *254:12 45.2471 
2 *254:12 *254:14 4.43286 
3 *254:14 *1304:C 24.5743 
4 *254:14 *254:27 21.2764 
5 *254:27 *1309:A2 41.0036 
6 *254:27 *1291:A 40.9621 
7 *254:12 *254:55 37.0221 
8 *254:55 *1327:A1 23 
*END

*D_NET *255 0.0080865
*CONN
*I *1383:A I *D sky130_fd_sc_hd__clkbuf_1
*I *1428:A I *D sky130_fd_sc_hd__buf_2
*I *1146:B I *D sky130_fd_sc_hd__nand2_1
*I *1156:A2 I *D sky130_fd_sc_hd__a2111o_1
*I *1293:B1 I *D sky130_fd_sc_hd__o21a_1
*I *1287:A2 I *D sky130_fd_sc_hd__a41o_1
*I *1124:Y O *D sky130_fd_sc_hd__inv_2
*CAP
1 *1383:A 0
2 *1428:A 0
3 *1146:B 0.000203788
4 *1156:A2 0.000159583
5 *1293:B1 2.34823e-05
6 *1287:A2 0.000286851
7 *1124:Y 0
8 *255:62 0.00031123
9 *255:54 0.00125177
10 *255:32 0.000731482
11 *255:30 0.0015854
12 *255:10 0.000820892
13 *255:4 0.000787313
14 *255:10 *1115:A 0.000218641
15 *255:10 *1213:B1 9.84794e-05
16 *255:30 *330:58 0
17 *255:32 *269:53 0
18 *255:32 *330:58 0
19 *255:54 *288:8 0.000713877
20 unlock_enable *255:62 0
21 *1124:A *255:10 4.95081e-05
22 *1213:A2 *255:10 5.29672e-05
23 *1287:A1 *1287:A2 5.41385e-05
24 *1293:A1 *1287:A2 4.5051e-05
25 *1293:A1 *255:10 7.73389e-05
26 *73:8 *255:32 0
27 *96:40 *1156:A2 0
28 *96:40 *255:32 0
29 *98:29 *1146:B 8.10857e-05
30 *118:10 *1156:A2 1.86055e-05
31 *156:8 *255:10 5.68417e-05
32 *212:6 *1287:A2 0.000102093
33 *245:25 *1156:A2 0.000116652
34 *245:25 *255:32 2.84912e-05
35 *245:106 *255:32 0.000210934
36 *245:127 *255:30 0
37 *245:127 *255:32 0
38 *250:27 *255:62 0
*RES
1 *1124:Y *255:4 23 
2 *255:4 *255:10 9.83929 
3 *255:10 *1287:A2 28.4064 
4 *255:10 *1293:B1 23.4971 
5 *255:4 *255:30 20.075 
6 *255:30 *255:32 8.24429 
7 *255:32 *1156:A2 41.3143 
8 *255:32 *1146:B 41.48 
9 *255:30 *255:54 35.6314 
10 *255:54 *255:62 35.6136 
11 *255:62 *1428:A 23 
12 *255:54 *1383:A 23 
*END

*D_NET *256 0.00159072
*CONN
*I *1429:A I *D sky130_fd_sc_hd__buf_2
*I *1405:A I *D sky130_fd_sc_hd__dlygate4sd3_1
*I *1373:Q O *D sky130_fd_sc_hd__dfxtp_1
*CAP
1 *1429:A 0.000290878
2 *1405:A 8.18961e-05
3 *1373:Q 0.000189236
4 *256:10 0.00056201
5 *8:10 *1429:A 7.82385e-05
6 *20:10 *1429:A 0.000222501
7 *20:10 *256:10 0.000165964
*RES
1 *1373:Q *256:10 41.3557 
2 *256:10 *1405:A 39.0979 
3 *256:10 *1429:A 43.7586 
*END

*D_NET *257 0.000654482
*CONN
*I *1430:A I *D sky130_fd_sc_hd__buf_2
*I *1398:A I *D sky130_fd_sc_hd__dlygate4sd3_1
*I *1346:Q O *D sky130_fd_sc_hd__dfxtp_1
*CAP
1 *1430:A 0.00011659
2 *1398:A 0.000194475
3 *1346:Q 0
4 *257:6 0.000311065
5 group_error *1430:A 3.23515e-05
*RES
1 *1346:Q *257:6 38 
2 *257:6 *1398:A 41.6664 
3 *257:6 *1430:A 40.2579 
*END

*D_NET *258 0.000437905
*CONN
*I *1431:A I *D sky130_fd_sc_hd__buf_2
*I *1126:Y O *D sky130_fd_sc_hd__inv_2
*CAP
1 *1431:A 0
2 *1126:Y 0.000201333
3 *258:10 0.000201333
4 group_suspended *258:10 3.52397e-05
5 *250:27 *258:10 0
*RES
1 *1126:Y *258:10 41.0036 
2 *258:10 *1431:A 38 
*END

*D_NET *259 0.00857752
*CONN
*I *1290:B I *D sky130_fd_sc_hd__nor2_1
*I *1309:A1 I *D sky130_fd_sc_hd__o311a_1
*I *1326:A2 I *D sky130_fd_sc_hd__o211ai_1
*I *1304:B I *D sky130_fd_sc_hd__or4_1
*I *1325:A2_N I *D sky130_fd_sc_hd__a2bb2o_1
*I *1420:X O *D sky130_fd_sc_hd__buf_1
*CAP
1 *1290:B 0
2 *1309:A1 3.6708e-05
3 *1326:A2 0
4 *1304:B 0
5 *1325:A2_N 0.000125555
6 *1420:X 0.00107633
7 *259:45 8.18462e-05
8 *259:39 0.000311909
9 *259:31 0.000677418
10 *259:25 0.000792829
11 *259:8 0.000507737
12 *259:6 0.00107633
13 *1325:A2_N *269:90 0.000192671
14 *1325:A2_N *337:21 1.14452e-05
15 *1325:A2_N *337:34 0.000384805
16 *259:6 *1316:A1 1.41077e-05
17 *259:6 *1316:A2 2.76237e-05
18 *259:25 *269:90 4.18957e-05
19 *259:25 *337:34 7.80035e-05
20 *259:31 *287:20 0
21 *1283:B *259:6 3.22879e-05
22 *1316:A3 *259:6 0.000269775
23 *1326:B1 *259:39 2.4754e-05
24 *1326:C1 *259:39 9.75779e-05
25 *82:12 *259:25 0.000269769
26 *91:10 *259:31 0
27 *91:10 *259:45 8.05936e-05
28 *155:16 *259:39 2.62931e-05
29 *208:6 *259:6 0.000699321
30 *208:6 *259:25 0.000203416
31 *208:6 *259:31 0.000441076
32 *215:10 *259:31 0
33 *215:22 *259:31 0
34 *215:22 *259:39 0
35 *216:16 *259:31 0.000242573
36 *216:16 *259:39 0.000161121
37 *225:8 *259:31 6.96227e-05
38 *226:8 *259:31 2.70469e-05
39 *230:8 *259:45 0.000165583
40 *232:8 *259:31 0.000135143
41 *237:31 *1309:A1 5.3304e-05
42 *241:10 *259:39 0.000141052
*RES
1 *1420:X *259:6 38.8671 
2 *259:6 *259:8 15 
3 *259:8 *1325:A2_N 43.075 
4 *259:8 *259:25 23.99 
5 *259:25 *259:31 25.6886 
6 *259:31 *259:39 20.2821 
7 *259:39 *259:45 32.2579 
8 *259:45 *1304:B 23 
9 *259:39 *1326:A2 23 
10 *259:31 *1309:A1 38.6214 
11 *259:25 *1290:B 23 
*END

*D_NET *260 0.00741122
*CONN
*I *1297:B I *D sky130_fd_sc_hd__nor2_1
*I *1215:A1 I *D sky130_fd_sc_hd__o21a_1
*I *1216:A1 I *D sky130_fd_sc_hd__o21ai_1
*I *1154:B1 I *D sky130_fd_sc_hd__o41ai_1
*I *1432:A I *D sky130_fd_sc_hd__buf_2
*I *1120:Y O *D sky130_fd_sc_hd__inv_2
*CAP
1 *1297:B 0.000352159
2 *1215:A1 5.39989e-05
3 *1216:A1 0
4 *1154:B1 2.01797e-05
5 *1432:A 0
6 *1120:Y 0
7 *260:47 0.000475853
8 *260:38 0.00064905
9 *260:18 0.00122464
10 *260:10 0.00139163
11 *260:4 0.000726166
12 *1215:A1 *288:8 5.41385e-05
13 *1297:B *330:58 0
14 *260:10 *270:8 4.6318e-06
15 *260:10 *270:19 2.24973e-05
16 *260:10 *270:38 3.92578e-05
17 *260:10 *289:30 0
18 *260:18 *270:8 0.000612962
19 *260:18 *289:8 0
20 *260:38 *270:38 2.76611e-06
21 *260:38 *330:31 6.70914e-05
22 *260:47 *330:16 0.000141879
23 *260:47 *330:58 0
24 *1153:C *1154:B1 9.84794e-05
25 *1153:D *1154:B1 9.84794e-05
26 *1187:A1 *260:18 0
27 *1217:B1 *260:38 0.000243596
28 *1217:B1 *260:47 1.38978e-05
29 *1421:A *260:18 2.93845e-05
30 *1425:A *260:18 2.93845e-05
31 *49:10 *260:38 0
32 *88:67 *260:38 0.000136739
33 *103:25 *260:18 0
34 *104:14 *260:10 5.3304e-05
35 *104:14 *260:38 0.000181125
36 *117:8 *260:18 0
37 *133:92 *260:18 0.000194309
38 *156:10 *1297:B 9.03054e-05
39 *156:10 *260:47 3.08146e-05
40 *157:27 *260:38 1.14452e-05
41 *157:27 *260:47 0.00019654
42 *222:10 *1297:B 0.000164518
*RES
1 *1120:Y *260:4 23 
2 *260:4 *260:10 17.5271 
3 *260:10 *260:18 40.7479 
4 *260:18 *1432:A 23 
5 *260:10 *1154:B1 39.0979 
6 *260:4 *260:38 26.7036 
7 *260:38 *1216:A1 38 
8 *260:38 *260:47 2.96214 
9 *260:47 *1215:A1 39.0979 
10 *260:47 *1297:B 45.0636 
*END

*D_NET *261 0.00294388
*CONN
*I *1433:A I *D sky130_fd_sc_hd__buf_2
*I *1382:A I *D sky130_fd_sc_hd__clkbuf_1
*I *1130:Y O *D sky130_fd_sc_hd__o21ai_1
*CAP
1 *1433:A 0
2 *1382:A 0
3 *1130:Y 0.000211352
4 *261:27 0.000586462
5 *261:12 0.00024397
6 *261:6 0.00104178
7 *261:27 *1434:A 0.0002263
8 *261:27 *272:8 0
9 *261:27 *273:8 3.56537e-05
10 *261:27 *341:106 0
11 security_breach *261:27 4.21594e-06
12 *8:10 *261:27 6.02252e-05
13 *20:10 *261:27 0
14 *70:10 *261:12 4.58924e-05
15 *87:12 *261:27 0
16 *87:25 *261:12 0.000266259
17 *87:25 *261:27 0
18 *87:31 *261:12 0.000193379
19 *93:61 *261:6 6.17437e-06
20 *247:88 *261:12 0
21 *250:27 *261:12 2.22079e-05
*RES
1 *1130:Y *261:6 26.0036 
2 *261:6 *261:12 36.1314 
3 *261:12 *1382:A 23 
4 *261:6 *261:27 41.5171 
5 *261:27 *1433:A 23 
*END

*D_NET *262 0.00133114
*CONN
*I *1434:A I *D sky130_fd_sc_hd__buf_2
*I *1382:X O *D sky130_fd_sc_hd__clkbuf_1
*CAP
1 *1434:A 0.000100091
2 *1382:X 0.00015816
3 *262:8 0.000258251
4 *262:8 *272:8 0.000195248
5 *1420:A *262:8 0
6 *87:25 *262:8 0.00025214
7 *87:31 *262:8 0.000140949
8 *252:8 *262:8 0
9 *261:27 *1434:A 0.0002263
*RES
1 *1382:X *262:8 43.075 
2 *262:8 *1434:A 40.5271 
*END

*D_NET *263 0.000328134
*CONN
*I *1435:A I *D sky130_fd_sc_hd__buf_2
*I *1383:X O *D sky130_fd_sc_hd__clkbuf_1
*CAP
1 *1435:A 0.000147923
2 *1383:X 0.000147923
3 *1435:A *288:8 3.22879e-05
*RES
1 *1383:X *1435:A 49.045 
*END

*D_NET *264 0.0140277
*CONN
*I *1175:C I *D sky130_fd_sc_hd__and3b_1
*I *1192:C1 I *D sky130_fd_sc_hd__o211a_1
*I *1204:A I *D sky130_fd_sc_hd__and3_1
*I *1201:C I *D sky130_fd_sc_hd__and3b_1
*I *1169:C I *D sky130_fd_sc_hd__and3b_1
*I *1166:A I *D sky130_fd_sc_hd__and3_1
*I *1163:A I *D sky130_fd_sc_hd__and3_1
*I *1160:B I *D sky130_fd_sc_hd__and2b_1
*I *1195:A I *D sky130_fd_sc_hd__and3_1
*I *1198:C I *D sky130_fd_sc_hd__and3b_1
*I *1392:X O *D sky130_fd_sc_hd__clkbuf_2
*CAP
1 *1175:C 0.000177031
2 *1192:C1 0.000329666
3 *1204:A 0
4 *1201:C 0
5 *1169:C 0
6 *1166:A 3.52208e-05
7 *1163:A 0.000390066
8 *1160:B 0.000108468
9 *1195:A 6.54429e-05
10 *1198:C 0
11 *1392:X 0.000113511
12 *264:100 0.000907567
13 *264:90 0.000987727
14 *264:88 0.000684191
15 *264:86 0.000824151
16 *264:77 0.000440465
17 *264:38 0.000813457
18 *264:22 0.00069718
19 *264:16 0.000921524
20 *264:14 0.00100439
21 *264:10 0.000612792
22 *264:8 0.000807921
23 *264:6 0.00080672
24 *1163:A *312:10 0
25 *1163:A *312:71 0.000228909
26 *1166:A *320:19 1.11037e-05
27 *1192:C1 *1202:A 0.00026422
28 *1192:C1 *318:23 3.53115e-05
29 *1195:A *315:8 0.000183733
30 *1195:A *315:45 5.50106e-05
31 *264:14 *1164:B 0.00014291
32 *264:14 *1165:A1 1.16778e-05
33 *264:14 *312:29 0.000233367
34 *264:14 *320:19 7.40718e-05
35 *264:16 *315:51 0
36 *264:22 *315:14 0
37 *264:22 *315:29 0
38 *264:38 *312:10 0
39 *264:77 *312:60 3.97399e-05
40 *264:77 *319:10 1.19796e-05
41 *264:77 *319:12 5.29611e-05
42 *264:77 *319:16 4.3407e-05
43 *264:86 *265:67 0
44 *264:88 *318:23 0
45 *1166:C *264:10 3.8382e-05
46 *1166:C *264:14 2.30292e-05
47 *1192:A2 *1192:C1 9.72057e-06
48 *1192:B1 *1192:C1 6.29487e-05
49 *1195:C *1195:A 0.000107741
50 *1198:A_N *264:22 0
51 *27:8 *1163:A 0
52 *30:8 *264:77 0.000141888
53 *32:10 *264:86 0
54 *39:10 *1195:A 5.50106e-05
55 *106:10 *1175:C 0.000272383
56 *127:6 *264:10 5.70419e-05
57 *127:6 *264:14 0.000196399
58 *130:10 *264:77 0.000292865
59 *134:8 *264:86 0
60 *144:29 *264:22 0
61 *148:8 *264:22 0
62 *149:10 *264:22 0.000169164
63 *150:14 *264:100 0.00011908
64 *152:10 *264:90 7.64851e-06
65 *152:10 *264:100 6.16039e-05
66 *153:10 *264:88 0.000182863
67 *153:10 *264:90 0.000114083
68 *244:10 *264:77 0
69 *244:12 *264:77 0
70 *244:12 *264:86 0
71 *244:20 *264:86 0
72 *244:20 *264:88 0
*RES
1 *1392:X *264:6 25.0507 
2 *264:6 *264:8 5.38571 
3 *264:8 *264:10 1.57429 
4 *264:10 *264:14 27.5321 
5 *264:14 *264:16 2.61 
6 *264:16 *264:22 27.6357 
7 *264:22 *1198:C 23 
8 *264:16 *1195:A 40.5271 
9 *264:14 *264:38 5.95536 
10 *264:38 *1160:B 40.0404 
11 *264:38 *1163:A 45.5711 
12 *264:10 *1166:A 23.8493 
13 *264:8 *264:77 39.57 
14 *264:77 *1169:C 23 
15 *264:6 *264:86 21.8357 
16 *264:86 *264:88 5.42714 
17 *264:88 *264:90 1.90571 
18 *264:90 *264:100 31.3643 
19 *264:100 *1201:C 23 
20 *264:90 *1204:A 38 
21 *264:88 *1192:C1 45.3121 
22 *264:86 *1175:C 41.0036 
*END

*D_NET *265 0.0148656
*CONN
*I *1180:A I *D sky130_fd_sc_hd__and2_1
*I *1178:A I *D sky130_fd_sc_hd__and3_1
*I *1172:A I *D sky130_fd_sc_hd__and3_1
*I *1392:A I *D sky130_fd_sc_hd__clkbuf_2
*I *1186:A I *D sky130_fd_sc_hd__and3_1
*I *1189:B I *D sky130_fd_sc_hd__and3b_1
*I *1183:A I *D sky130_fd_sc_hd__and3_1
*I *1393:X O *D sky130_fd_sc_hd__dlymetal6s2s_1
*CAP
1 *1180:A 0
2 *1178:A 0
3 *1172:A 2.14194e-05
4 *1392:A 0
5 *1186:A 0.000371189
6 *1189:B 0
7 *1183:A 0
8 *1393:X 0.000283629
9 *265:98 0.000422824
10 *265:85 0.000117222
11 *265:67 0.000436558
12 *265:57 0.00133246
13 *265:42 0.00137158
14 *265:33 0.000805207
15 *265:20 0.00165103
16 *265:10 0.00148893
17 *265:8 0.00110643
18 *1172:A *321:10 5.90675e-06
19 *265:20 *324:8 0.000141052
20 *265:20 *324:14 0.000158902
21 *265:33 *313:19 0.000143994
22 *265:33 *313:30 8.02348e-05
23 *265:42 *313:30 0.000169674
24 *265:42 *313:41 0.000154147
25 *265:57 *1152:B1 0.000420388
26 *265:57 *289:30 0
27 *265:57 *313:41 3.70187e-05
28 *265:57 *321:36 0.000325804
29 *265:57 *322:10 9.63918e-05
30 *265:57 *322:14 0.000114656
31 *265:67 *321:10 0.000185434
32 *265:67 *321:36 4.6595e-05
33 *1139:B1 *265:57 6.7177e-06
34 *1142:A *265:57 0.000169674
35 *1172:B *265:57 5.47927e-05
36 *1172:C *265:57 1.95448e-05
37 *1180:B *265:98 0.000137651
38 *1183:C *265:20 0.000391257
39 *1188:B *265:33 7.55832e-05
40 *1188:B *265:42 3.89103e-05
41 *1336:CLK *265:8 3.71369e-05
42 *1336:CLK *265:10 3.71251e-05
43 *1336:CLK *265:98 0.000111158
44 *1336:D *265:10 0.000109487
45 *1338:CLK *265:20 0.000182826
46 *1338:D *265:20 0.00010795
47 *1340:CLK *265:20 5.50049e-05
48 *1340:CLK *265:33 0.000141164
49 *1340:D *265:33 0.000274034
50 *33:10 *265:85 0.000111852
51 *103:51 *265:57 5.51015e-05
52 *104:8 *265:57 5.80963e-05
53 *105:10 *265:42 0.000188926
54 *105:10 *265:57 0.000107101
55 *107:8 *265:57 0.000103009
56 *108:10 *1186:A 0.000123148
57 *129:21 *265:57 3.7122e-06
58 *129:21 *265:67 0.0001042
59 *129:25 *265:67 0
60 *133:56 *265:20 0.000370275
61 *133:69 *265:20 1.32939e-05
62 *135:12 *265:85 2.29192e-05
63 *136:8 *265:85 0
64 *137:8 *265:98 0.000141879
65 *245:75 *265:98 2.34364e-05
66 *264:86 *265:67 0
*RES
1 *1393:X *265:8 27.3293 
2 *265:8 *265:10 5.86214 
3 *265:10 *265:20 20.7143 
4 *265:20 *1183:A 23 
5 *265:20 *265:33 26.7036 
6 *265:33 *1189:B 38 
7 *265:33 *265:42 4.37071 
8 *265:42 *1186:A 44.3386 
9 *265:42 *265:57 37.8686 
10 *265:57 *265:67 39.4043 
11 *265:67 *1392:A 23 
12 *265:57 *1172:A 23.4971 
13 *265:10 *265:85 32.61 
14 *265:85 *1178:A 23 
15 *265:8 *265:98 38.5343 
16 *265:98 *1180:A 23 
*END

*D_NET *266 0.0195316
*CONN
*I *1266:B1 I *D sky130_fd_sc_hd__a21oi_1
*I *1264:B1 I *D sky130_fd_sc_hd__a21oi_1
*I *1250:B1 I *D sky130_fd_sc_hd__a21oi_1
*I *1260:B1 I *D sky130_fd_sc_hd__a21oi_1
*I *1256:B1 I *D sky130_fd_sc_hd__a21oi_1
*I *1258:B1 I *D sky130_fd_sc_hd__a21oi_1
*I *1245:B1 I *D sky130_fd_sc_hd__a21oi_1
*I *1247:B1 I *D sky130_fd_sc_hd__a21oi_1
*I *1272:B1 I *D sky130_fd_sc_hd__a21oi_1
*I *1269:A I *D sky130_fd_sc_hd__nor2_1
*I *1394:X O *D sky130_fd_sc_hd__buf_2
*CAP
1 *1266:B1 0
2 *1264:B1 7.31139e-05
3 *1250:B1 2.50057e-05
4 *1260:B1 0
5 *1256:B1 0
6 *1258:B1 0
7 *1245:B1 0
8 *1247:B1 0.000616916
9 *1272:B1 0
10 *1269:A 9.96929e-05
11 *1394:X 4.33526e-05
12 *266:151 0.000178674
13 *266:111 0.000526992
14 *266:96 0.00115727
15 *266:90 0.00092248
16 *266:66 0.000728544
17 *266:62 0.000802942
18 *266:60 0.00122949
19 *266:50 0.00124928
20 *266:41 0.000463486
21 *266:24 0.00143411
22 *266:16 0.00187884
23 *266:6 0.000859141
24 *1247:B1 *1247:A1 0.00101308
25 *1250:B1 *268:44 5.50106e-05
26 *1269:A *267:27 5.79559e-05
27 *266:16 *1231:C 0.000175155
28 *266:16 *1235:A 1.94812e-05
29 *266:16 *268:129 8.72173e-05
30 *266:16 *295:32 5.14746e-06
31 *266:24 *1235:A 3.3577e-05
32 *266:24 *295:21 0.000264258
33 *266:41 *268:20 0.00022884
34 *266:50 *1234:B 0.000263098
35 *266:50 *267:25 9.39159e-05
36 *266:60 *1234:B 1.14452e-05
37 *266:60 *268:33 0.000110922
38 *266:60 *268:44 1.58805e-05
39 *266:60 *293:25 0.000432772
40 *266:60 *293:56 0.000194309
41 *266:62 *268:44 0.000296618
42 *266:62 *268:48 6.01596e-05
43 *266:66 *268:48 8.51329e-05
44 *266:90 *268:68 0.000105524
45 *266:96 *1259:A 4.95081e-05
46 *266:96 *306:29 0.000198032
47 *266:111 *1256:A1 7.42621e-05
48 *266:111 *1258:A1 6.7177e-06
49 *266:111 *268:83 0.000104536
50 *266:111 *306:29 5.3304e-05
51 *266:111 *306:37 0
52 *266:151 *294:6 2.79662e-05
53 *1231:D *266:50 3.81554e-05
54 *1255:A_N *266:111 9.84794e-05
55 *1256:A2 *266:111 5.67058e-05
56 *1257:B *266:96 3.12121e-05
57 *1258:A2 *266:96 0
58 *1259:C *266:96 4.78136e-05
59 *1272:A2 *266:41 0.000184407
60 *1366:D *266:24 4.9054e-06
61 *3:11 *266:151 0
62 *56:12 *1250:B1 1.32314e-05
63 *59:8 *266:111 8.62876e-05
64 *61:10 *1264:B1 3.7122e-06
65 *62:12 *266:151 0.000109222
66 *63:10 *1269:A 2.81963e-05
67 *63:10 *266:24 2.21614e-05
68 *63:10 *266:41 4.07253e-05
69 *165:35 *266:6 7.53384e-06
70 *167:21 *266:60 0
71 *169:10 *266:60 5.94125e-05
72 *169:22 *266:60 0
73 *170:24 *266:60 0.000354778
74 *171:8 *266:50 0.000119761
75 *171:19 *266:50 7.03317e-05
76 *173:10 *266:151 0
77 *173:14 *266:16 4.06408e-05
78 *173:14 *266:151 0.000129793
79 *173:58 *1264:B1 6.17437e-06
80 *173:58 *266:50 3.3123e-05
81 *173:58 *266:60 8.26569e-05
82 *175:8 *266:50 0
83 *176:14 *266:24 8.08139e-06
84 *185:8 *266:60 8.68016e-06
85 *185:8 *266:62 6.07611e-06
86 *187:20 *266:90 5.25435e-05
87 *187:20 *266:96 2.14613e-05
88 *188:10 *266:111 2.8558e-05
89 *191:12 *266:96 3.22051e-05
90 *191:27 *266:96 4.21062e-05
91 *193:8 *266:50 7.80251e-05
92 *195:8 *266:16 8.72173e-05
93 *209:10 *266:16 4.06408e-05
94 *236:16 *266:111 4.55625e-05
95 *236:22 *266:60 0.000567191
96 *246:12 *266:60 0
97 *246:20 *266:60 0
98 *246:97 *1269:A 8.02307e-05
99 *246:97 *266:41 3.44147e-05
100 *246:117 *266:41 0.000315996
*RES
1 *1394:X *266:6 23.6214 
2 *266:6 *266:16 39.9221 
3 *266:16 *266:24 26.5689 
4 *266:24 *1269:A 40.7032 
5 *266:24 *266:41 27.6046 
6 *266:41 *1272:B1 23 
7 *266:16 *266:50 25.3571 
8 *266:50 *266:60 47.8971 
9 *266:60 *266:62 9.30071 
10 *266:62 *266:66 17.2579 
11 *266:66 *1247:B1 37.5207 
12 *266:66 *1245:B1 23 
13 *266:62 *266:90 20.3857 
14 *266:90 *266:96 10.1914 
15 *266:96 *1258:B1 23 
16 *266:96 *266:111 41.31 
17 *266:111 *1256:B1 23 
18 *266:90 *1260:B1 23 
19 *266:60 *1250:B1 38.6214 
20 *266:50 *1264:B1 39.0979 
21 *266:6 *266:151 33.77 
22 *266:151 *1266:B1 23 
*END

*D_NET *267 0.0113695
*CONN
*I *1276:A I *D sky130_fd_sc_hd__nor2_1
*I *1241:A I *D sky130_fd_sc_hd__nor2_1
*I *1252:B1 I *D sky130_fd_sc_hd__a21oi_1
*I *1236:B1 I *D sky130_fd_sc_hd__a21oi_1
*I *1238:B1 I *D sky130_fd_sc_hd__a21oi_1
*I *1273:B1 I *D sky130_fd_sc_hd__a41o_1
*I *1395:X O *D sky130_fd_sc_hd__clkbuf_2
*CAP
1 *1276:A 0
2 *1241:A 0
3 *1252:B1 0.000708794
4 *1236:B1 0
5 *1238:B1 0
6 *1273:B1 0
7 *1395:X 0
8 *267:73 0.000318602
9 *267:51 0.00132994
10 *267:38 0.00111374
11 *267:27 0.000890726
12 *267:25 0.000924196
13 *267:14 0.00093252
14 *267:4 0.000725059
15 *1252:B1 *268:108 0.000185428
16 *267:14 *297:14 0
17 *267:14 *297:42 0
18 *267:14 *298:24 4.6318e-06
19 *267:25 *1284:B 0.000100283
20 *267:25 *296:27 0
21 *267:25 *296:33 0
22 *267:25 *296:39 9.63815e-05
23 *267:25 *297:42 3.95159e-06
24 *267:27 *268:10 8.7854e-05
25 *267:27 *268:20 1.94693e-05
26 *267:38 *1236:A1 1.32939e-05
27 *267:38 *1407:A 0.00014196
28 *267:51 *292:10 0
29 *267:51 *292:18 0
30 *267:51 *300:12 0
31 *267:73 *297:14 5.91383e-05
32 *267:73 *297:38 7.03766e-05
33 *1231:D *267:25 0
34 *1235:B *267:25 7.38195e-05
35 *1236:A2 *267:38 0.000156007
36 *1240:A1 *1252:B1 4.5051e-05
37 *1241:B *1252:B1 0.000143655
38 *1252:A1 *1252:B1 0.000101762
39 *1252:A2 *1252:B1 0.000146195
40 *1267:B *267:27 9.84794e-05
41 *1268:A2 *267:27 0.00010655
42 *1269:A *267:27 5.79559e-05
43 *1269:B *267:27 0.000189669
44 *1271:A *267:14 5.3304e-05
45 *1354:CLK *267:51 0
46 *1369:CLK *267:14 9.87533e-05
47 *53:8 *267:51 8.51329e-05
48 *63:10 *267:27 1.08287e-05
49 *66:8 *267:73 0
50 *83:6 *267:14 0.000308946
51 *172:8 *267:25 0
52 *172:12 *267:14 0.000269781
53 *172:31 *267:25 3.47781e-05
54 *173:10 *267:14 0
55 *173:20 *267:27 0.00153655
56 *173:20 *267:38 2.25419e-05
57 *175:8 *267:25 9.48381e-06
58 *176:14 *267:25 0
59 *176:25 *267:25 0
60 *178:10 *267:51 0
61 *201:10 *267:73 0
62 *246:59 *267:51 0
63 *246:67 *267:51 0
64 *266:50 *267:25 9.39159e-05
*RES
1 *1395:X *267:4 23 
2 *267:4 *267:14 39.0936 
3 *267:14 *1273:B1 23 
4 *267:14 *267:25 41.7657 
5 *267:25 *267:27 16.82 
6 *267:27 *1238:B1 23 
7 *267:27 *267:38 10.295 
8 *267:38 *1236:B1 23 
9 *267:38 *267:51 42.035 
10 *267:51 *1252:B1 36.9821 
11 *267:51 *1241:A 23 
12 *267:4 *267:73 36.3179 
13 *267:73 *1276:A 23 
*END

*D_NET *268 0.0179919
*CONN
*I *1266:A1 I *D sky130_fd_sc_hd__a21oi_1
*I *1268:B1 I *D sky130_fd_sc_hd__o21a_1
*I *1259:B I *D sky130_fd_sc_hd__and3_1
*I *1240:B1 I *D sky130_fd_sc_hd__o21a_1
*I *1256:A1 I *D sky130_fd_sc_hd__a21oi_1
*I *1258:A1 I *D sky130_fd_sc_hd__a21oi_1
*I *1245:A1 I *D sky130_fd_sc_hd__a21oi_1
*I *1247:A1 I *D sky130_fd_sc_hd__a21oi_1
*I *1250:A1 I *D sky130_fd_sc_hd__a21oi_1
*I *1272:A1 I *D sky130_fd_sc_hd__a21oi_1
*I *1396:X O *D sky130_fd_sc_hd__buf_2
*CAP
1 *1266:A1 0
2 *1268:B1 0
3 *1259:B 0
4 *1240:B1 0
5 *1256:A1 0.000102688
6 *1258:A1 6.17895e-05
7 *1245:A1 0
8 *1247:A1 0.000278697
9 *1250:A1 0
10 *1272:A1 0
11 *1396:X 0.000269625
12 *268:129 8.2607e-05
13 *268:108 0.000676135
14 *268:83 0.00104791
15 *268:72 0.000812884
16 *268:68 0.00113192
17 *268:48 0.000399266
18 *268:44 0.00113535
19 *268:33 0.00141699
20 *268:27 0.00109225
21 *268:20 0.00103167
22 *268:10 0.00170281
23 *268:6 0.000983259
24 *1247:A1 *301:23 0.000103637
25 *1258:A1 *306:29 6.16439e-05
26 *268:6 *1265:A 1.40958e-05
27 *268:10 *1265:A 0.000126847
28 *268:33 *1233:A 0.000116314
29 *268:33 *304:27 0.000213811
30 *268:44 *301:36 0
31 *268:48 *301:23 0
32 *268:48 *301:36 0
33 *268:72 *306:29 5.3304e-05
34 *268:108 *304:29 0
35 *268:129 *294:10 8.62876e-05
36 *1233:B *268:33 0
37 *1240:A1 *268:108 5.50049e-05
38 *1247:A2 *1247:A1 0.000274078
39 *1247:B1 *1247:A1 0.00101308
40 *1250:B1 *268:44 5.50106e-05
41 *1252:B1 *268:108 0.000185428
42 *1256:A2 *1256:A1 5.67058e-05
43 *1257:B *268:68 2.46906e-05
44 *1257:B *268:72 0.000331517
45 *1265:B *268:10 9.84851e-05
46 *1267:B *268:10 5.41288e-05
47 *1268:A2 *268:10 0.000181925
48 *1271:A *268:20 2.49855e-05
49 *1271:B *268:20 5.50049e-05
50 *1272:A2 *268:20 6.969e-05
51 *1396:A *268:6 4.93341e-05
52 *1426:A *268:83 0
53 *56:12 *268:44 2.18409e-05
54 *58:8 *268:108 0
55 *166:14 *268:108 0.000111138
56 *166:57 *268:33 0
57 *166:57 *268:44 0.000125904
58 *166:61 *268:44 0
59 *167:33 *268:33 0
60 *169:10 *268:44 0.000137651
61 *173:14 *268:129 4.07715e-05
62 *173:18 *268:6 2.81406e-06
63 *173:18 *268:10 9.24795e-06
64 *173:20 *268:10 5.53914e-05
65 *175:8 *268:33 0
66 *176:14 *268:20 0
67 *176:14 *268:33 4.21594e-06
68 *176:25 *268:20 0
69 *182:8 *268:48 0.00014411
70 *185:8 *268:33 0.000113153
71 *187:20 *268:68 0.000135039
72 *188:10 *1256:A1 0
73 *192:10 *268:68 5.50049e-05
74 *195:8 *268:129 3.62219e-05
75 *213:8 *1258:A1 0
76 *213:8 *268:83 0
77 *236:8 *268:108 0
78 *236:16 *1256:A1 0.000185428
79 *236:16 *268:108 0
80 *266:16 *268:129 8.72173e-05
81 *266:41 *268:20 0.00022884
82 *266:60 *268:33 0.000110922
83 *266:60 *268:44 1.58805e-05
84 *266:62 *268:44 0.000296618
85 *266:62 *268:48 6.01596e-05
86 *266:66 *268:48 8.51329e-05
87 *266:90 *268:68 0.000105524
88 *266:111 *1256:A1 7.42621e-05
89 *266:111 *1258:A1 6.7177e-06
90 *266:111 *268:83 0.000104536
91 *267:27 *268:10 8.7854e-05
92 *267:27 *268:20 1.94693e-05
*RES
1 *1396:X *268:6 26.48 
2 *268:6 *268:10 12.5529 
3 *268:10 *268:20 46.965 
4 *268:20 *1272:A1 23 
5 *268:10 *268:27 0.849286 
6 *268:27 *268:33 49.1607 
7 *268:33 *1250:A1 23 
8 *268:33 *268:44 24.8186 
9 *268:44 *268:48 18.6664 
10 *268:48 *1247:A1 34.6207 
11 *268:48 *1245:A1 23 
12 *268:44 *268:68 24.1971 
13 *268:68 *268:72 22.2914 
14 *268:72 *1258:A1 39.2014 
15 *268:72 *268:83 5.25107 
16 *268:83 *1256:A1 41.4904 
17 *268:83 *268:108 29.6554 
18 *268:108 *1240:B1 23 
19 *268:68 *1259:B 23 
20 *268:27 *1268:B1 23 
21 *268:6 *268:129 32.2579 
22 *268:129 *1266:A1 23 
*END

*D_NET *269 0.0188651
*CONN
*I *1319:B1 I *D sky130_fd_sc_hd__a31o_1
*I *1118:A I *D sky130_fd_sc_hd__inv_2
*I *1207:B I *D sky130_fd_sc_hd__nor2_1
*I *1206:B I *D sky130_fd_sc_hd__or2_1
*I *1328:B1 I *D sky130_fd_sc_hd__a21o_1
*I *1213:B1 I *D sky130_fd_sc_hd__a21oi_1
*I *1322:A I *D sky130_fd_sc_hd__nor3_1
*I *1159:A_N I *D sky130_fd_sc_hd__and4bb_1
*I *1320:A I *D sky130_fd_sc_hd__nor2_1
*I *1323:A I *D sky130_fd_sc_hd__nor2_1
*I *1397:X O *D sky130_fd_sc_hd__buf_2
*CAP
1 *1319:B1 8.54452e-05
2 *1118:A 0.00057948
3 *1207:B 0
4 *1206:B 0
5 *1328:B1 0
6 *1213:B1 0.000378169
7 *1322:A 0
8 *1159:A_N 0.000371128
9 *1320:A 0.0001458
10 *1323:A 0
11 *1397:X 0.000214658
12 *269:107 0.000319991
13 *269:101 0.000998922
14 *269:94 0.000283725
15 *269:90 0.00155029
16 *269:79 0.00151242
17 *269:66 0.000619551
18 *269:57 0.00038886
19 *269:53 0.00104216
20 *269:38 0.00114531
21 *269:25 0.00124417
22 *269:12 0.00103261
23 *269:8 0.00026025
24 *1118:A *341:106 2.93845e-05
25 *269:25 *309:8 9.24795e-06
26 *269:25 *309:19 7.88828e-05
27 *269:53 *1148:A 0
28 *269:90 *1110:A 4.38375e-05
29 *269:90 *337:10 4.30723e-05
30 *269:90 *337:21 5.86535e-05
31 *269:90 *337:34 3.78747e-05
32 *269:90 *337:60 1.94418e-05
33 *269:90 *337:73 0.000167444
34 *269:90 *339:40 0.000185755
35 *269:90 *340:43 3.72639e-05
36 *269:94 *1110:A 9.5877e-05
37 *269:94 *1277:C 9.84851e-05
38 *269:94 *341:37 3.75074e-05
39 *269:107 *332:18 0
40 *269:107 *333:8 0
41 *1124:A *1213:B1 0.000143655
42 *1130:A2 *269:90 0
43 *1146:A *269:53 3.94619e-05
44 *1149:B *269:53 0.00017099
45 *1150:B *269:53 0
46 *1150:C *269:53 2.03327e-05
47 *1156:A1 *269:53 0.000155786
48 *1158:B *269:25 0.000404406
49 *1277:B *269:107 0
50 *1281:B1 *269:90 1.4471e-05
51 *1319:A2 *269:53 0
52 *1319:A3 *269:53 0.00014196
53 *1323:B *269:25 3.27248e-05
54 *1325:A2_N *269:90 0.000192671
55 *1328:A1 *269:90 5.3304e-05
56 *1377:CLK *1320:A 1.76557e-05
57 *1377:D *1320:A 9.75779e-05
58 *1377:D *269:25 0.000115774
59 *1415:A *269:8 0
60 *44:8 *269:107 0.000542095
61 *48:10 *1118:A 5.67058e-05
62 *73:8 *269:57 5.61311e-05
63 *76:10 *269:25 5.67058e-05
64 *77:8 *269:90 0.000114083
65 *79:21 *269:107 0
66 *87:8 *1118:A 4.79498e-05
67 *98:10 *1319:B1 2.47815e-05
68 *98:10 *269:53 9.88574e-06
69 *100:6 *269:90 9.84851e-05
70 *100:21 *269:57 0.000623269
71 *100:21 *269:66 0.000166522
72 *100:21 *269:79 0.000250839
73 *111:10 *269:53 0
74 *112:19 *269:53 0
75 *115:16 *269:53 4.98765e-05
76 *122:10 *269:38 0.000194318
77 *122:10 *269:53 0.000130433
78 *123:10 *269:25 1.94693e-05
79 *155:8 *269:90 0
80 *202:12 *269:90 0.000260402
81 *203:10 *269:90 0.000138727
82 *238:12 *269:53 0
83 *242:10 *269:90 0
84 *245:71 *1159:A_N 0.000837551
85 *245:127 *269:57 0
86 *245:127 *269:66 0
87 *247:104 *269:90 0
88 *247:166 *269:107 0
89 *250:14 *269:8 0.000267267
90 *250:14 *269:12 5.50049e-05
91 *250:48 *269:107 7.76364e-06
92 *255:10 *1213:B1 9.84794e-05
93 *255:32 *269:53 0
94 *259:25 *269:90 4.18957e-05
*RES
1 *1397:X *269:8 42.7229 
2 *269:8 *269:12 16.0979 
3 *269:12 *1323:A 23 
4 *269:12 *269:25 16.0536 
5 *269:25 *1320:A 25.4236 
6 *269:25 *269:38 17.61 
7 *269:38 *1159:A_N 47.1971 
8 *269:38 *269:53 28.4643 
9 *269:53 *269:57 23.2443 
10 *269:57 *1322:A 38 
11 *269:57 *269:66 2.25786 
12 *269:66 *1213:B1 45.2914 
13 *269:66 *269:79 18.6664 
14 *269:79 *1328:B1 23 
15 *269:79 *269:90 45.2429 
16 *269:90 *269:94 18.48 
17 *269:94 *1206:B 23 
18 *269:94 *269:101 1.57429 
19 *269:101 *269:107 37.8921 
20 *269:107 *1207:B 23 
21 *269:101 *1118:A 33.1707 
22 *269:53 *1319:B1 24.595 
*END

*D_NET *270 0.00670055
*CONN
*I *1217:A2 I *D sky130_fd_sc_hd__o211a_1
*I *1214:B1_N I *D sky130_fd_sc_hd__a21boi_1
*I *1154:A1 I *D sky130_fd_sc_hd__o41ai_1
*I *1153:A I *D sky130_fd_sc_hd__or4_1
*I *1421:X O *D sky130_fd_sc_hd__buf_1
*CAP
1 *1217:A2 0.00017274
2 *1214:B1_N 5.38748e-05
3 *1154:A1 0.000366681
4 *1153:A 7.62357e-05
5 *1421:X 0
6 *270:38 0.000585077
7 *270:19 0.000773418
8 *270:8 0.000819587
9 *270:6 0.000695077
10 *1154:A1 *1139:A1 0
11 *1214:B1_N *1214:A2 9.58714e-05
12 *1217:A2 *1214:A2 9.5343e-05
13 *270:38 *289:30 0
14 *1153:C *1153:A 0.000185434
15 *1153:C *1154:A1 1.21972e-05
16 *1153:D *1153:A 0.00014196
17 *1153:D *1154:A1 0.000269775
18 *1217:B1 *1217:A2 5.50049e-05
19 *88:67 *270:38 0.000431843
20 *103:75 *270:8 0.000166522
21 *107:12 *1154:A1 5.47808e-05
22 *108:10 *270:8 0.000382564
23 *119:8 *1153:A 4.95081e-05
24 *133:92 *270:8 0.000191157
25 *138:8 *270:8 0
26 *140:10 *270:8 6.31763e-05
27 *141:8 *270:8 8.85189e-05
28 *243:14 *270:38 0.000192087
29 *245:41 *270:8 0
30 *260:10 *270:8 4.6318e-06
31 *260:10 *270:19 2.24973e-05
32 *260:10 *270:38 3.92578e-05
33 *260:18 *270:8 0.000612962
34 *260:38 *270:38 2.76611e-06
*RES
1 *1421:X *270:6 38 
2 *270:6 *270:8 19.1607 
3 *270:8 *1153:A 41.0036 
4 *270:8 *270:19 0.849286 
5 *270:19 *1154:A1 43.7586 
6 *270:19 *270:38 23.3064 
7 *270:38 *1214:B1_N 24.0979 
8 *270:38 *1217:A2 26.5214 
*END

*D_NET *271 6.69045e-05
*CONN
*I *1205:A1 I *D sky130_fd_sc_hd__o21a_1
*I *1398:X O *D sky130_fd_sc_hd__dlygate4sd3_1
*CAP
1 *1205:A1 3.34522e-05
2 *1398:X 3.34522e-05
*RES
1 *1398:X *1205:A1 46.6214 
*END

*D_NET *272 0.00137924
*CONN
*I *1316:A2 I *D sky130_fd_sc_hd__o31a_1
*I *1405:X O *D sky130_fd_sc_hd__dlygate4sd3_1
*CAP
1 *1316:A2 0.000144148
2 *1405:X 0.000281847
3 *272:8 0.000425995
4 *272:8 *273:8 0.000114083
5 security_breach *272:8 0
6 *1316:A3 *1316:A2 1.94693e-05
7 *87:25 *272:8 0.000170827
8 *259:6 *1316:A2 2.76237e-05
9 *261:27 *272:8 0
10 *262:8 *272:8 0.000195248
*RES
1 *1405:X *272:8 45.1879 
2 *272:8 *1316:A2 40.0507 
*END

*D_NET *273 0.000683531
*CONN
*I *1373:D I *D sky130_fd_sc_hd__dfxtp_1
*I *1406:X O *D sky130_fd_sc_hd__dlygate4sd3_1
*CAP
1 *1373:D 0.000213424
2 *1406:X 5.34725e-05
3 *273:8 0.000266897
4 *261:27 *273:8 3.56537e-05
5 *272:8 *273:8 0.000114083
*RES
1 *1406:X *273:8 39.5536 
2 *273:8 *1373:D 41.0502 
*END

*D_NET *274 0.000394328
*CONN
*I *1236:A1 I *D sky130_fd_sc_hd__a21oi_1
*I *1407:X O *D sky130_fd_sc_hd__dlygate4sd3_1
*CAP
1 *1236:A1 0.00011869
2 *1407:X 0.00011869
3 *1236:A2 *1236:A1 0.000143655
4 *267:38 *1236:A1 1.32939e-05
*RES
1 *1407:X *1236:A1 48.0507 
*END

*D_NET *275 0.000493087
*CONN
*I *1192:A1 I *D sky130_fd_sc_hd__o211a_1
*I *1408:X O *D sky130_fd_sc_hd__dlygate4sd3_1
*CAP
1 *1192:A1 9.61133e-05
2 *1408:X 9.61133e-05
3 *1192:A2 *1192:A1 0.000271476
4 *133:33 *1192:A1 2.93845e-05
*RES
1 *1408:X *1192:A1 49.0036 
*END

*D_NET *276 0.000753022
*CONN
*I *1261:A1 I *D sky130_fd_sc_hd__o21a_1
*I *1409:X O *D sky130_fd_sc_hd__dlygate4sd3_1
*CAP
1 *1261:A1 0
2 *1409:X 0.000355804
3 *276:10 0.000355804
4 *192:10 *276:10 4.14137e-05
*RES
1 *1409:X *276:10 43.2614 
2 *276:10 *1261:A1 38 
*END

*D_NET *277 0.000424568
*CONN
*I *1363:D I *D sky130_fd_sc_hd__dfxtp_1
*I *1410:X O *D sky130_fd_sc_hd__dlygate4sd3_1
*CAP
1 *1363:D 1.58638e-05
2 *1410:X 0.000154457
3 *277:10 0.000170321
4 *1357:CLK *277:10 6.17437e-06
5 *59:8 *277:10 0
6 *191:27 *277:10 0
7 *244:69 *277:10 2.93747e-05
8 *244:82 *277:10 4.83778e-05
*RES
1 *1410:X *277:10 40.8793 
2 *277:10 *1363:D 38.1916 
*END

*D_NET *278 0.000498108
*CONN
*I *1218:B2 I *D sky130_fd_sc_hd__o221a_1
*I *1411:X O *D sky130_fd_sc_hd__dlygate4sd3_1
*CAP
1 *1218:B2 0
2 *1411:X 0.000174019
3 *278:10 0.000174019
4 *278:10 *288:8 8.20126e-06
5 *278:10 *289:30 0
6 *243:14 *278:10 0.000141869
*RES
1 *1411:X *278:10 41.0036 
2 *278:10 *1218:B2 38 
*END

*D_NET *279 0.00143204
*CONN
*I *1318:A1 I *D sky130_fd_sc_hd__o21a_1
*I *1412:X O *D sky130_fd_sc_hd__dlygate4sd3_1
*CAP
1 *1318:A1 0
2 *1412:X 0.000461104
3 *279:10 0.000461104
4 *279:10 *284:10 0
5 *72:8 *279:10 0
6 *87:31 *279:10 0
7 *252:8 *279:10 0.000509837
*RES
1 *1412:X *279:10 47.1143 
2 *279:10 *1318:A1 38 
*END

*D_NET *280 0.00034452
*CONN
*I *1203:A I *D sky130_fd_sc_hd__nand2_1
*I *1399:X O *D sky130_fd_sc_hd__dlygate4sd3_1
*CAP
1 *1203:A 9.9102e-05
2 *1399:X 9.9102e-05
3 *144:23 *1203:A 0.000126847
4 *153:10 *1203:A 1.94693e-05
*RES
1 *1399:X *1203:A 48.5271 
*END

*D_NET *281 0.000817243
*CONN
*I *1313:B I *D sky130_fd_sc_hd__or4_1
*I *1422:X O *D sky130_fd_sc_hd__clkbuf_1
*CAP
1 *1313:B 0
2 *1422:X 0.000207177
3 *281:8 0.000207177
4 *281:8 *290:8 6.70363e-05
5 *9:13 *281:8 0.00012758
6 *213:18 *281:8 9.48318e-05
7 *246:67 *281:8 9.86857e-05
8 *251:10 *281:8 1.47563e-05
*RES
1 *1422:X *281:8 43.7793 
2 *281:8 *1313:B 38 
*END

*D_NET *282 0.000845798
*CONN
*I *1275:B1 I *D sky130_fd_sc_hd__a21oi_1
*I *1400:X O *D sky130_fd_sc_hd__dlygate4sd3_1
*CAP
1 *1275:B1 0.000146989
2 *1400:X 0.000133217
3 *282:8 0.000280207
4 *1275:B1 *298:12 8.638e-05
5 *282:8 *298:12 0.000110922
6 *3:11 *282:8 0
7 *247:55 *282:8 3.47781e-05
8 *247:70 *1275:B1 5.3304e-05
*RES
1 *1400:X *282:8 40.61 
2 *282:8 *1275:B1 41.0036 
*END

*D_NET *283 0.00128653
*CONN
*I *1206:A I *D sky130_fd_sc_hd__or2_1
*I *1401:X O *D sky130_fd_sc_hd__dlygate4sd3_1
*CAP
1 *1206:A 0
2 *1401:X 0.00049629
3 *283:8 0.00049629
4 *283:8 *341:22 0.000110636
5 *283:8 *341:37 7.41334e-05
6 *1130:A2 *283:8 4.48671e-05
7 *95:10 *283:8 6.43149e-05
8 *250:48 *283:8 0
*RES
1 *1401:X *283:8 48.7093 
2 *283:8 *1206:A 38 
*END

*D_NET *284 0.000762433
*CONN
*I *1317:A1 I *D sky130_fd_sc_hd__o21a_1
*I *1402:X O *D sky130_fd_sc_hd__dlygate4sd3_1
*CAP
1 *1317:A1 0
2 *1402:X 0.000192166
3 *284:10 0.000192166
4 *284:10 *291:10 0.000271345
5 *72:8 *284:10 8.62783e-05
6 *87:33 *284:10 2.04774e-05
7 *279:10 *284:10 0
*RES
1 *1402:X *284:10 41.9564 
2 *284:10 *1317:A1 38 
*END

*D_NET *285 0.000613495
*CONN
*I *1113:A I *D sky130_fd_sc_hd__inv_2
*I *1403:X O *D sky130_fd_sc_hd__dlygate4sd3_1
*CAP
1 *1113:A 1.7287e-05
2 *1403:X 9.31669e-05
3 *285:8 0.000110454
4 *1280:B1 *1113:A 5.50106e-05
5 *82:31 *1113:A 0.00010018
6 *82:31 *285:8 7.7086e-05
7 *89:8 *285:8 0.000135557
8 *205:10 *1113:A 2.4754e-05
*RES
1 *1403:X *285:8 40.2579 
2 *285:8 *1113:A 39.0979 
*END

*D_NET *286 0.00042979
*CONN
*I *1193:A I *D sky130_fd_sc_hd__nand2_1
*I *1404:X O *D sky130_fd_sc_hd__dlygate4sd3_1
*CAP
1 *1193:A 0
2 *1404:X 0.000187878
3 *286:10 0.000187878
4 *286:10 *312:29 5.40337e-05
5 *286:10 *315:51 0
*RES
1 *1404:X *286:10 41.0036 
2 *286:10 *1193:A 38 
*END

*D_NET *287 0.00614912
*CONN
*I *1308:C I *D sky130_fd_sc_hd__or4_1
*I *1301:B2 I *D sky130_fd_sc_hd__a2bb2o_1
*I *1423:X O *D sky130_fd_sc_hd__clkbuf_1
*CAP
1 *1308:C 0
2 *1301:B2 0
3 *1423:X 0.00026802
4 *287:20 0.000670984
5 *287:10 0.00162107
6 *287:8 0.00121811
7 *287:10 *335:10 4.66036e-05
8 *1123:C *287:20 5.51325e-05
9 *81:49 *287:10 0.000418529
10 *81:49 *287:20 0.000265999
11 *81:62 *287:10 0.000718646
12 *81:81 *287:10 0
13 *82:31 *287:10 0.000407471
14 *85:8 *287:10 0
15 *90:10 *287:10 0.000101749
16 *93:10 *287:20 0
17 *93:27 *287:20 1.53864e-05
18 *202:44 *287:10 2.96051e-05
19 *202:44 *287:20 6.07611e-06
20 *205:10 *287:10 0
21 *215:10 *287:20 2.3529e-05
22 *215:22 *287:20 6.07611e-06
23 *216:8 *287:20 0.000137651
24 *216:16 *287:20 4.21594e-06
25 *231:10 *287:20 0.000134268
26 *259:31 *287:20 0
*RES
1 *1423:X *287:8 41.48 
2 *287:8 *287:10 21.9779 
3 *287:10 *287:20 41.8693 
4 *287:20 *1301:B2 38 
5 *287:10 *1308:C 38 
*END

*D_NET *288 0.00597045
*CONN
*I *1297:A I *D sky130_fd_sc_hd__nor2_1
*I *1424:X O *D sky130_fd_sc_hd__clkbuf_1
*CAP
1 *1297:A 9.84254e-05
2 *1424:X 0
3 *288:8 0.00249771
4 *288:4 0.00239928
5 *1297:A *289:30 0
6 *1215:A1 *288:8 5.41385e-05
7 *1435:A *288:8 3.22879e-05
8 *243:14 *1297:A 0.000166522
9 *255:54 *288:8 0.000713877
10 *278:10 *288:8 8.20126e-06
*RES
1 *1424:X *288:4 23 
2 *288:4 *288:8 48.495 
3 *288:8 *1297:A 40.2579 
*END

*D_NET *289 0.00611738
*CONN
*I *1287:B1 I *D sky130_fd_sc_hd__a41o_1
*I *1153:B I *D sky130_fd_sc_hd__or4_1
*I *1154:A2 I *D sky130_fd_sc_hd__o41ai_1
*I *1425:X O *D sky130_fd_sc_hd__buf_1
*CAP
1 *1287:B1 0
2 *1153:B 0.000315847
3 *1154:A2 5.10627e-05
4 *1425:X 0
5 *289:30 0.00121269
6 *289:10 0.00036691
7 *289:8 0.00219865
8 *289:6 0.000985959
9 *289:8 *1152:B1 0
10 *289:8 *313:19 0
11 *289:8 *313:30 0
12 *289:8 *313:41 0
13 *289:30 *1214:A1 0
14 *289:30 *1289:A 0
15 *289:30 *322:10 0
16 *289:30 *331:21 0
17 *1153:C *1153:B 3.59635e-05
18 *1187:A1 *289:8 9.168e-05
19 *1297:A *289:30 0
20 *37:8 *289:8 0
21 *103:25 *289:8 0.00021382
22 *104:8 *289:30 0
23 *107:8 *289:8 0
24 *107:8 *289:30 0
25 *107:12 *1153:B 6.17437e-06
26 *107:12 *1154:A2 3.42179e-05
27 *117:8 *289:8 8.62783e-05
28 *117:8 *289:30 8.9458e-05
29 *119:8 *1153:B 0.000355822
30 *157:8 *289:30 7.28526e-05
31 *243:14 *289:30 0
32 *260:10 *289:30 0
33 *260:18 *289:8 0
34 *265:57 *289:30 0
35 *270:38 *289:30 0
36 *278:10 *289:30 0
*RES
1 *1425:X *289:6 38 
2 *289:6 *289:8 18.1043 
3 *289:8 *289:10 15 
4 *289:10 *1154:A2 23.7146 
5 *289:10 *1153:B 27.9093 
6 *289:8 *289:30 36.1907 
7 *289:30 *1287:B1 23 
*END

*D_NET *290 0.000337757
*CONN
*I *1313:C I *D sky130_fd_sc_hd__or4_1
*I *1426:X O *D sky130_fd_sc_hd__clkbuf_1
*CAP
1 *1313:C 0
2 *1426:X 4.46732e-05
3 *290:8 4.46732e-05
4 *213:18 *290:8 3.72639e-05
5 *251:10 *290:8 0.00014411
6 *281:8 *290:8 6.70363e-05
*RES
1 *1426:X *290:8 39.9057 
2 *290:8 *1313:C 38 
*END

*D_NET *291 0.000901573
*CONN
*I *1317:A2 I *D sky130_fd_sc_hd__o21a_1
*I *1427:X O *D sky130_fd_sc_hd__clkbuf_1
*CAP
1 *1317:A2 0
2 *1427:X 0.000279363
3 *291:10 0.000279363
4 *72:8 *291:10 1.22803e-05
5 *87:31 *291:10 1.83667e-05
6 *87:33 *291:10 4.08537e-05
7 *284:10 *291:10 0.000271345
*RES
1 *1427:X *291:10 43.51 
2 *291:10 *1317:A2 38 
*END

*D_NET *292 0.00227545
*CONN
*I *1407:A I *D sky130_fd_sc_hd__dlygate4sd3_1
*I *1237:B I *D sky130_fd_sc_hd__xnor2_1
*I *1225:C I *D sky130_fd_sc_hd__and3_2
*I *1239:A2 I *D sky130_fd_sc_hd__a21oi_1
*I *1354:Q O *D sky130_fd_sc_hd__dfxtp_1
*CAP
1 *1407:A 3.08662e-05
2 *1237:B 2.95294e-05
3 *1225:C 0
4 *1239:A2 5.10786e-05
5 *1354:Q 0.000120884
6 *292:33 0.000181239
7 *292:18 0.000416663
8 *292:10 0.000400419
9 *292:8 0.000338295
10 *1237:B *1237:A 5.50049e-05
11 *1239:A2 *1239:A1 3.22879e-05
12 *292:8 *299:8 0
13 *292:10 *299:8 0
14 *292:18 *299:10 0
15 *292:33 *1225:B 0.000110913
16 *292:33 *1239:A1 8.71791e-05
17 *292:33 *299:10 5.24393e-05
18 *1236:A2 *1407:A 7.88926e-05
19 *51:8 *292:8 0
20 *178:10 *292:18 4.27804e-05
21 *178:10 *292:33 0.000105016
22 *267:38 *1407:A 0.00014196
23 *267:51 *292:10 0
24 *267:51 *292:18 0
*RES
1 *1354:Q *292:8 39.9057 
2 *292:8 *292:10 3.31429 
3 *292:10 *292:18 18.7286 
4 *292:18 *1239:A2 24.0979 
5 *292:18 *292:33 34.3086 
6 *292:33 *1225:C 23 
7 *292:10 *1237:B 38.6214 
8 *292:8 *1407:A 39.5743 
*END

*D_NET *293 0.00691843
*CONN
*I *1234:B I *D sky130_fd_sc_hd__and3_1
*I *1262:A I *D sky130_fd_sc_hd__nor2_1
*I *1312:A1 I *D sky130_fd_sc_hd__o311a_1
*I *1294:C1 I *D sky130_fd_sc_hd__o211a_1
*I *1285:D1 I *D sky130_fd_sc_hd__a2111o_1
*I *1230:A I *D sky130_fd_sc_hd__and4_1
*I *1364:Q O *D sky130_fd_sc_hd__dfxtp_1
*CAP
1 *1234:B 0.000180736
2 *1262:A 0
3 *1312:A1 0.000217719
4 *1294:C1 0.000119707
5 *1285:D1 0
6 *1230:A 2.71027e-05
7 *1364:Q 0.000644004
8 *293:56 0.000293793
9 *293:36 0.000437333
10 *293:25 0.000505551
11 *293:19 0.0005187
12 *293:10 0.000671107
13 *293:10 *294:18 0.000143071
14 *1234:C *1234:B 0
15 *1286:B *293:10 5.77264e-05
16 *1311:B1 *1294:C1 6.07611e-06
17 *1312:A2 *1312:A1 6.17437e-06
18 *1314:B *1312:A1 2.79543e-05
19 *1364:CLK *293:10 2.16297e-05
20 *1364:D *293:10 4.9054e-06
21 *166:101 *293:25 0.000139647
22 *167:8 *1294:C1 0
23 *167:21 *293:10 6.88885e-05
24 *167:23 *1230:A 3.71251e-05
25 *167:23 *293:10 1.21972e-05
26 *167:33 *293:25 0
27 *169:22 *293:25 6.36037e-05
28 *170:18 *293:25 9.58714e-05
29 *170:31 *293:25 0.000224605
30 *170:42 *1294:C1 9.03054e-05
31 *170:42 *1312:A1 9.67842e-05
32 *170:42 *293:25 9.84851e-05
33 *170:42 *293:36 0.000101129
34 *173:58 *1230:A 9.84794e-05
35 *173:58 *293:10 0.000139352
36 *174:8 *293:56 0
37 *193:8 *1234:B 0.000222113
38 *236:22 *1312:A1 0.000613267
39 *246:20 *1294:C1 0
40 *246:20 *293:36 0
41 *246:47 *1234:B 3.16665e-05
42 *266:50 *1234:B 0.000263098
43 *266:60 *1234:B 1.14452e-05
44 *266:60 *293:25 0.000432772
45 *266:60 *293:56 0.000194309
*RES
1 *1364:Q *293:10 33.7921 
2 *293:10 *1230:A 24.0979 
3 *293:10 *293:19 15 
4 *293:19 *293:25 25.2121 
5 *293:25 *1285:D1 23 
6 *293:25 *293:36 16.9471 
7 *293:36 *1294:C1 40.61 
8 *293:36 *1312:A1 44.815 
9 *293:19 *293:56 2.61 
10 *293:56 *1262:A 38 
11 *293:56 *1234:B 42.7643 
*END

*D_NET *294 0.00670188
*CONN
*I *1231:C I *D sky130_fd_sc_hd__and4_1
*I *1265:A I *D sky130_fd_sc_hd__xnor2_1
*I *1234:A I *D sky130_fd_sc_hd__and3_1
*I *1286:A I *D sky130_fd_sc_hd__or2_1
*I *1365:Q O *D sky130_fd_sc_hd__dfxtp_1
*CAP
1 *1231:C 0.000279873
2 *1265:A 7.79025e-05
3 *1234:A 0.000366071
4 *1286:A 0
5 *1365:Q 0.000630386
6 *294:18 0.000507712
7 *294:12 0.00115018
8 *294:10 0.000450866
9 *294:6 0.00100683
10 *1231:C *1235:A 0
11 *1231:D *1231:C 2.93845e-05
12 *1266:A2 *1231:C 2.64616e-05
13 *1286:B *294:18 0.000619272
14 *61:10 *294:18 0
15 *62:12 *1231:C 2.46468e-05
16 *62:12 *294:6 4.23956e-05
17 *173:14 *294:10 0.000164282
18 *173:14 *294:12 1.01436e-05
19 *173:18 *1265:A 0.000148688
20 *209:10 *294:10 0
21 *209:10 *294:12 0
22 *209:10 *294:18 0
23 *211:10 *294:18 4.95081e-05
24 *246:47 *1234:A 0.000303724
25 *246:156 *1234:A 6.93232e-05
26 *246:156 *294:12 0.000170806
27 *266:16 *1231:C 0.000175155
28 *266:151 *294:6 2.79662e-05
29 *268:6 *1265:A 1.40958e-05
30 *268:10 *1265:A 0.000126847
31 *268:129 *294:10 8.62876e-05
32 *293:10 *294:18 0.000143071
*RES
1 *1365:Q *294:6 31.2443 
2 *294:6 *294:10 17.2579 
3 *294:10 *294:12 6.13143 
4 *294:12 *294:18 28.195 
5 *294:18 *1286:A 23 
6 *294:12 *1234:A 44.3386 
7 *294:10 *1265:A 41.0036 
8 *294:6 *1231:C 28.9243 
*END

*D_NET *295 0.00188401
*CONN
*I *1231:B I *D sky130_fd_sc_hd__and4_1
*I *1284:D I *D sky130_fd_sc_hd__or4_1
*I *1235:A I *D sky130_fd_sc_hd__and2_1
*I *1267:A I *D sky130_fd_sc_hd__nor2_1
*I *1366:Q O *D sky130_fd_sc_hd__dfxtp_1
*CAP
1 *1231:B 0
2 *1284:D 0
3 *1235:A 6.96481e-05
4 *1267:A 0
5 *1366:Q 0
6 *295:40 0.000115365
7 *295:32 0.00015927
8 *295:21 0.000400784
9 *295:10 0.000136165
10 *295:4 0.000423395
11 *295:40 *1284:C 2.93845e-05
12 *295:40 *296:39 5.56203e-05
13 *1231:C *1235:A 0
14 *1231:D *295:40 1.01436e-05
15 *1235:B *295:10 0
16 *1235:B *295:21 2.93845e-05
17 *172:8 *295:40 0
18 *175:8 *295:10 0
19 *176:6 *295:21 1.32939e-05
20 *176:14 *295:10 9.18526e-05
21 *176:14 *295:21 2.7237e-05
22 *266:16 *1235:A 1.94812e-05
23 *266:16 *295:32 5.14746e-06
24 *266:24 *1235:A 3.3577e-05
25 *266:24 *295:21 0.000264258
*RES
1 *1366:Q *295:4 23 
2 *295:4 *295:10 32.61 
3 *295:10 *1267:A 23 
4 *295:4 *295:21 6.60786 
5 *295:21 *1235:A 25.4236 
6 *295:21 *295:32 0.621429 
7 *295:32 *295:40 32.175 
8 *295:40 *1284:D 23 
9 *295:32 *1231:B 23 
*END

*D_NET *296 0.00342767
*CONN
*I *1273:A3 I *D sky130_fd_sc_hd__a41o_1
*I *1284:C I *D sky130_fd_sc_hd__or4_1
*I *1231:A I *D sky130_fd_sc_hd__and4_1
*I *1270:A I *D sky130_fd_sc_hd__nor2_1
*I *1367:Q O *D sky130_fd_sc_hd__dfxtp_1
*CAP
1 *1273:A3 0
2 *1284:C 8.83596e-05
3 *1231:A 0
4 *1270:A 3.18601e-05
5 *1367:Q 0.000269214
6 *296:39 0.000101155
7 *296:33 0.000550248
8 *296:27 0.000487362
9 *296:12 0.000158488
10 *296:10 0.000269214
11 *1284:C *1284:B 5.70419e-05
12 *1231:D *296:39 9.20311e-06
13 *1270:B *296:27 0.000272377
14 *1271:A *1270:A 2.31397e-05
15 *1271:A *296:27 0.000357631
16 *1271:B *1270:A 5.38706e-05
17 *172:8 *296:39 0
18 *172:31 *296:27 0
19 *176:25 *296:27 5.33597e-05
20 *176:25 *296:33 0.000360161
21 *246:132 *296:10 0.000103596
22 *267:25 *296:27 0
23 *267:25 *296:33 0
24 *267:25 *296:39 9.63815e-05
25 *295:40 *1284:C 2.93845e-05
26 *295:40 *296:39 5.56203e-05
*RES
1 *1367:Q *296:10 41.9564 
2 *296:10 *296:12 15 
3 *296:12 *1270:A 24.0875 
4 *296:12 *296:27 20.1579 
5 *296:27 *296:33 22.7264 
6 *296:33 *296:39 32.61 
7 *296:39 *1231:A 23 
8 *296:33 *1284:C 25.0507 
9 *296:27 *1273:A3 38 
*END

*D_NET *297 0.00480431
*CONN
*I *1274:A1 I *D sky130_fd_sc_hd__o21ba_1
*I *1273:A2 I *D sky130_fd_sc_hd__a41o_1
*I *1284:B I *D sky130_fd_sc_hd__or4_1
*I *1232:B I *D sky130_fd_sc_hd__nand3_2
*I *1275:A1 I *D sky130_fd_sc_hd__a21oi_1
*I *1368:Q O *D sky130_fd_sc_hd__dfxtp_1
*CAP
1 *1274:A1 0
2 *1273:A2 0.000161486
3 *1284:B 0.000251596
4 *1232:B 0
5 *1275:A1 0
6 *1368:Q 0
7 *297:42 0.000679943
8 *297:38 0.000545993
9 *297:22 0.00037286
10 *297:14 0.000603892
11 *297:6 0.000510165
12 *297:14 *1232:A 0
13 *297:14 *298:16 0.000185434
14 *297:22 *298:12 9.88574e-06
15 *297:22 *298:24 0
16 *1232:C *297:14 1.14154e-05
17 *1271:A *1273:A2 0.000141052
18 *1275:A2 *297:14 2.93747e-05
19 *1275:A2 *297:22 0.00039759
20 *1284:C *1284:B 5.70419e-05
21 *165:35 *297:14 0
22 *172:8 *1284:B 0
23 *172:12 *1273:A2 8.52481e-05
24 *172:31 *297:42 5.7153e-05
25 *172:38 *297:14 8.1796e-05
26 *173:10 *297:22 6.16531e-05
27 *200:8 *297:42 0.000326983
28 *201:10 *297:14 0
29 *267:14 *297:14 0
30 *267:14 *297:42 0
31 *267:25 *1284:B 0.000100283
32 *267:25 *297:42 3.95159e-06
33 *267:73 *297:14 5.91383e-05
34 *267:73 *297:38 7.03766e-05
*RES
1 *1368:Q *297:6 38 
2 *297:6 *297:14 21.2143 
3 *297:14 *297:22 35.7586 
4 *297:22 *1275:A1 23 
5 *297:14 *1232:B 23 
6 *297:6 *297:38 20.8621 
7 *297:38 *297:42 21.4836 
8 *297:42 *1284:B 43.1164 
9 *297:42 *1273:A2 40.5271 
10 *297:38 *1274:A1 23 
*END

*D_NET *298 0.00366487
*CONN
*I *1400:A I *D sky130_fd_sc_hd__dlygate4sd3_1
*I *1232:A I *D sky130_fd_sc_hd__nand3_2
*I *1114:A I *D sky130_fd_sc_hd__inv_2
*I *1284:A I *D sky130_fd_sc_hd__or4_1
*I *1369:Q O *D sky130_fd_sc_hd__dfxtp_1
*CAP
1 *1400:A 0.000238458
2 *1232:A 4.23027e-05
3 *1114:A 0
4 *1284:A 0
5 *1369:Q 0
6 *298:24 0.000279834
7 *298:16 0.000573463
8 *298:12 0.000610597
9 *298:4 0.000513122
10 *1232:C *298:16 0
11 *1275:A2 *1232:A 0
12 *1275:A2 *298:12 8.82787e-05
13 *1275:A2 *298:16 5.78192e-05
14 *1275:B1 *298:12 8.638e-05
15 *165:10 *298:12 9.84794e-05
16 *165:18 *298:12 3.83778e-05
17 *172:8 *298:24 0.000411299
18 *172:38 *298:16 3.17634e-05
19 *173:10 *298:24 0
20 *201:10 *298:12 0.000271476
21 *209:8 *298:24 6.17437e-06
22 *247:70 *298:12 6.17437e-06
23 *267:14 *298:24 4.6318e-06
24 *282:8 *298:12 0.000110922
25 *297:14 *1232:A 0
26 *297:14 *298:16 0.000185434
27 *297:22 *298:12 9.88574e-06
28 *297:22 *298:24 0
*RES
1 *1369:Q *298:4 23 
2 *298:4 *298:12 37.8921 
3 *298:12 *298:16 5.75857 
4 *298:16 *298:24 36.4007 
5 *298:24 *1284:A 23 
6 *298:16 *1114:A 23 
7 *298:12 *1232:A 23.8493 
8 *298:4 *1400:A 27.3293 
*END

*D_NET *299 0.0026371
*CONN
*I *1237:A I *D sky130_fd_sc_hd__xnor2_1
*I *1239:A1 I *D sky130_fd_sc_hd__a21oi_1
*I *1225:B I *D sky130_fd_sc_hd__and3_2
*I *1355:Q O *D sky130_fd_sc_hd__dfxtp_1
*CAP
1 *1237:A 0.00015034
2 *1239:A1 0.000233318
3 *1225:B 0.000174797
4 *1355:Q 0.000252283
5 *299:10 0.000614439
6 *299:8 0.000608948
7 *1225:B *304:27 0
8 *1225:B *304:29 0
9 *1237:B *1237:A 5.50049e-05
10 *1239:A2 *1239:A1 3.22879e-05
11 *52:8 *299:8 0
12 *166:8 *1225:B 1.01436e-05
13 *177:10 *1237:A 5.41288e-05
14 *177:10 *299:8 0.000138727
15 *178:10 *1225:B 3.99192e-05
16 *178:10 *299:10 1.69668e-05
17 *246:57 *1225:B 5.26733e-06
18 *292:8 *299:8 0
19 *292:10 *299:8 0
20 *292:18 *299:10 0
21 *292:33 *1225:B 0.000110913
22 *292:33 *1239:A1 8.71791e-05
23 *292:33 *299:10 5.24393e-05
*RES
1 *1355:Q *299:8 42.7229 
2 *299:8 *299:10 4.01857 
3 *299:10 *1225:B 41.5836 
4 *299:10 *1239:A1 41.0036 
5 *299:8 *1237:A 41.0036 
*END

*D_NET *300 0.000562724
*CONN
*I *1225:A I *D sky130_fd_sc_hd__and3_2
*I *1239:B1 I *D sky130_fd_sc_hd__a21oi_1
*I *1356:Q O *D sky130_fd_sc_hd__dfxtp_1
*CAP
1 *1225:A 3.14153e-05
2 *1239:B1 0
3 *1356:Q 5.67488e-05
4 *300:12 9.87674e-05
5 *300:6 0.000186932
6 *178:10 *300:12 0.000135557
7 *246:57 *1225:A 5.3304e-05
8 *267:51 *300:12 0
*RES
1 *1356:Q *300:6 24.2014 
2 *300:6 *300:12 31.9057 
3 *300:12 *1239:B1 23 
4 *300:6 *1225:A 23.6214 
*END

*D_NET *301 0.00407886
*CONN
*I *1311:A2 I *D sky130_fd_sc_hd__o211a_1
*I *1226:C I *D sky130_fd_sc_hd__and3_1
*I *1248:A2 I *D sky130_fd_sc_hd__a31o_1
*I *1243:A I *D sky130_fd_sc_hd__or2_1
*I *1242:A I *D sky130_fd_sc_hd__nand2_1
*I *1357:Q O *D sky130_fd_sc_hd__dfxtp_1
*CAP
1 *1311:A2 0
2 *1226:C 0
3 *1248:A2 2.34823e-05
4 *1243:A 0
5 *1242:A 0
6 *1357:Q 0.000146191
7 *301:66 0.00062705
8 *301:45 0.000785114
9 *301:36 0.000512627
10 *301:23 0.000549892
11 *301:10 0.000218812
12 *301:8 0.000146191
13 *301:45 *1248:A1 2.4754e-05
14 *301:45 *1248:B1 0.000266517
15 *301:66 *1226:A 2.28308e-05
16 *301:66 *1248:B1 8.90207e-05
17 *301:66 *302:19 0
18 *301:66 *302:23 4.97675e-05
19 *301:66 *302:41 0
20 *301:66 *303:12 3.04516e-05
21 *1242:B *301:8 6.07611e-06
22 *1242:B *301:23 8.51432e-05
23 *1242:B *301:36 6.07611e-06
24 *1247:A1 *301:23 0.000103637
25 *3:11 *301:66 0.00012837
26 *166:57 *301:36 5.12254e-05
27 *166:61 *301:36 0.000197864
28 *182:8 *301:23 0
29 *183:8 *301:8 0
30 *211:16 *301:66 7.76364e-06
31 *268:44 *301:36 0
32 *268:48 *301:23 0
33 *268:48 *301:36 0
*RES
1 *1357:Q *301:8 40.2579 
2 *301:8 *301:10 15 
3 *301:10 *1242:A 23 
4 *301:10 *301:23 19.8057 
5 *301:23 *1243:A 38 
6 *301:23 *301:36 22.0014 
7 *301:36 *1248:A2 23.4971 
8 *301:36 *301:45 3.87357 
9 *301:45 *1226:C 23 
10 *301:45 *301:66 42.325 
11 *301:66 *1311:A2 23 
*END

*D_NET *302 0.00464754
*CONN
*I *1311:A1 I *D sky130_fd_sc_hd__o211a_1
*I *1294:A2 I *D sky130_fd_sc_hd__o211a_1
*I *1226:B I *D sky130_fd_sc_hd__and3_1
*I *1248:A1 I *D sky130_fd_sc_hd__a31o_1
*I *1246:A I *D sky130_fd_sc_hd__xor2_1
*I *1358:Q O *D sky130_fd_sc_hd__dfxtp_1
*CAP
1 *1311:A1 0.000243837
2 *1294:A2 0
3 *1226:B 0
4 *1248:A1 0.000156273
5 *1246:A 0.000486583
6 *1358:Q 0.000261889
7 *302:41 0.000391563
8 *302:23 0.000392123
9 *302:19 0.000715097
10 *302:6 0.00107999
11 *1248:A1 *1248:B1 0.000274078
12 *1311:A1 *1311:C1 0.000187129
13 *1311:A1 *303:32 3.3266e-05
14 *302:19 *303:12 0
15 *302:23 *1248:B1 3.53115e-05
16 *302:23 *303:12 1.94693e-05
17 *302:41 *303:12 0
18 *1287:A4 *302:19 0
19 *1311:B1 *1311:A1 4.12182e-05
20 *1311:B1 *302:41 6.16531e-05
21 *167:8 *302:41 0
22 *170:42 *302:41 1.14452e-05
23 *211:16 *302:19 0
24 *219:10 *1311:A1 2.13733e-05
25 *244:178 *1246:A 0.000146619
26 *244:178 *302:6 1.40958e-05
27 *301:45 *1248:A1 2.4754e-05
28 *301:66 *302:19 0
29 *301:66 *302:23 4.97675e-05
30 *301:66 *302:41 0
*RES
1 *1358:Q *302:6 26.48 
2 *302:6 *1246:A 30.54 
3 *302:6 *302:19 20.7793 
4 *302:19 *302:23 18.48 
5 *302:23 *1248:A1 27.3293 
6 *302:23 *1226:B 23 
7 *302:19 *302:41 17.2579 
8 *302:41 *1294:A2 23 
9 *302:41 *1311:A1 28.4271 
*END

*D_NET *303 0.00205067
*CONN
*I *1311:C1 I *D sky130_fd_sc_hd__o211a_1
*I *1294:A1 I *D sky130_fd_sc_hd__o211a_1
*I *1226:A I *D sky130_fd_sc_hd__and3_1
*I *1248:B1 I *D sky130_fd_sc_hd__a31o_1
*I *1359:Q O *D sky130_fd_sc_hd__dfxtp_1
*CAP
1 *1311:C1 2.64829e-05
2 *1294:A1 0
3 *1226:A 1.85078e-05
4 *1248:B1 4.92595e-05
5 *1359:Q 0
6 *303:32 0.000213705
7 *303:12 0.000235146
8 *303:4 0.0003546
9 *1248:A1 *1248:B1 0.000274078
10 *1311:A1 *1311:C1 0.000187129
11 *1311:A1 *303:32 3.3266e-05
12 *1311:B1 *1311:C1 9.90162e-05
13 *1311:B1 *303:32 9.5877e-05
14 *167:8 *303:12 0
15 *301:45 *1248:B1 0.000266517
16 *301:66 *1226:A 2.28308e-05
17 *301:66 *1248:B1 8.90207e-05
18 *301:66 *303:12 3.04516e-05
19 *302:19 *303:12 0
20 *302:23 *1248:B1 3.53115e-05
21 *302:23 *303:12 1.94693e-05
22 *302:41 *303:12 0
*RES
1 *1359:Q *303:4 23 
2 *303:4 *303:12 32.8793 
3 *303:12 *1248:B1 26.9564 
4 *303:12 *1226:A 23.4971 
5 *303:4 *303:32 3.87357 
6 *303:32 *1294:A1 23 
7 *303:32 *1311:C1 25.0507 
*END

*D_NET *304 0.00640074
*CONN
*I *1251:A I *D sky130_fd_sc_hd__xor2_1
*I *1229:D I *D sky130_fd_sc_hd__and4_1
*I *1253:B I *D sky130_fd_sc_hd__and4_1
*I *1254:A1 I *D sky130_fd_sc_hd__a31o_1
*I *1233:A I *D sky130_fd_sc_hd__and4_1
*I *1360:Q O *D sky130_fd_sc_hd__dfxtp_1
*CAP
1 *1251:A 0
2 *1229:D 0
3 *1253:B 0
4 *1254:A1 0.000229578
5 *1233:A 0.000115959
6 *1360:Q 0
7 *304:59 0.00042632
8 *304:31 0.00026924
9 *304:29 0.000919695
10 *304:27 0.00139688
11 *304:6 0.00105913
12 *1254:A1 *306:37 0.000166513
13 *304:59 *307:29 7.69256e-06
14 *1225:B *304:27 0
15 *1225:B *304:29 0
16 *1234:C *304:27 0
17 *1249:A *304:29 0
18 *1251:B *304:27 0
19 *1251:B *304:29 0
20 *1254:A2 *1254:A1 0.000268579
21 *1254:A2 *304:31 1.14452e-05
22 *1255:A_N *1254:A1 9.06429e-06
23 *57:8 *304:27 0
24 *57:8 *304:29 0
25 *166:8 *304:29 0
26 *166:14 *304:29 0
27 *166:18 *304:29 0.000275473
28 *166:18 *304:31 7.48331e-05
29 *167:39 *304:29 1.37349e-05
30 *170:14 *304:59 0
31 *173:58 *1233:A 5.70419e-05
32 *174:8 *1233:A 0
33 *174:8 *304:27 0
34 *186:10 *304:29 0
35 *236:16 *1254:A1 2.95125e-05
36 *236:16 *304:29 1.22803e-05
37 *236:16 *304:31 3.72639e-05
38 *236:22 *304:59 0.000400679
39 *246:47 *304:27 0.000289702
40 *268:33 *1233:A 0.000116314
41 *268:33 *304:27 0.000213811
42 *268:108 *304:29 0
*RES
1 *1360:Q *304:6 38 
2 *304:6 *1233:A 40.6514 
3 *304:6 *304:27 44.5414 
4 *304:27 *304:29 9.65286 
5 *304:29 *304:31 1.20143 
6 *304:31 *1254:A1 43.3857 
7 *304:31 *1253:B 38 
8 *304:29 *304:59 36.3386 
9 *304:59 *1229:D 38 
10 *304:27 *1251:A 38 
*END

*D_NET *305 0.00261969
*CONN
*I *1228:C I *D sky130_fd_sc_hd__and3_1
*I *1254:B1 I *D sky130_fd_sc_hd__a31o_1
*I *1229:C I *D sky130_fd_sc_hd__and4_1
*I *1253:A I *D sky130_fd_sc_hd__and4_1
*I *1361:Q O *D sky130_fd_sc_hd__dfxtp_1
*CAP
1 *1228:C 0.000103744
2 *1254:B1 0
3 *1229:C 2.09328e-05
4 *1253:A 0
5 *1361:Q 0.000117227
6 *305:34 0.000211137
7 *305:24 0.00033222
8 *305:15 0.000257203
9 *305:8 0.000336158
10 *1228:C *1228:A 8.16277e-05
11 *1228:C *1228:B 0.000121455
12 *305:15 *1228:A 2.47321e-05
13 *305:15 *1229:B 0.000129736
14 *305:15 *306:37 0.000222668
15 *305:24 *1228:A 3.22879e-05
16 *305:34 *1228:B 0
17 *305:34 *307:29 0.000166522
18 *1255:A_N *305:34 8.1823e-05
19 *170:14 *1228:C 0.000100061
20 *170:14 *305:34 0
21 *187:10 *1228:C 2.02872e-05
22 *187:10 *305:15 9.99383e-05
23 *187:10 *305:24 2.02872e-05
24 *187:10 *305:34 0.000139647
*RES
1 *1361:Q *305:8 25.0714 
2 *305:8 *1253:A 23 
3 *305:8 *305:15 4.90929 
4 *305:15 *1229:C 23.4971 
5 *305:15 *305:24 0.621429 
6 *305:24 *305:34 35.2821 
7 *305:34 *1254:B1 23 
8 *305:24 *1228:C 26.6043 
*END

*D_NET *306 0.00646837
*CONN
*I *1259:A I *D sky130_fd_sc_hd__and3_1
*I *1229:B I *D sky130_fd_sc_hd__and4_1
*I *1228:B I *D sky130_fd_sc_hd__and3_1
*I *1257:A I *D sky130_fd_sc_hd__xnor2_1
*I *1362:Q O *D sky130_fd_sc_hd__dfxtp_1
*CAP
1 *1259:A 3.52164e-05
2 *1229:B 3.01293e-05
3 *1228:B 0.000507652
4 *1257:A 0
5 *1362:Q 0.000242512
6 *306:37 0.0010977
7 *306:29 0.000915845
8 *306:12 0.000495528
9 *306:8 0.000417326
10 *1228:B *1228:A 0.000273279
11 *1228:B *1229:A 5.56279e-05
12 *1229:B *1228:A 4.3198e-05
13 *1229:B *1229:A 5.56279e-05
14 *306:37 *307:29 0
15 *1228:C *1228:B 0.000121455
16 *1254:A1 *306:37 0.000166513
17 *1254:A2 *306:37 1.47563e-05
18 *1254:A3 *306:37 2.72055e-05
19 *1257:B *1259:A 9.84851e-05
20 *1257:B *306:29 0.000709133
21 *1258:A1 *306:29 6.16439e-05
22 *1258:A2 *306:29 0
23 *1259:C *1259:A 1.37232e-05
24 *59:8 *306:29 5.94125e-05
25 *191:8 *306:37 0
26 *236:16 *306:37 0.000194327
27 *248:10 *306:8 0.000114083
28 *249:8 *306:8 1.14452e-05
29 *266:96 *1259:A 4.95081e-05
30 *266:96 *306:29 0.000198032
31 *266:111 *306:29 5.3304e-05
32 *266:111 *306:37 0
33 *268:72 *306:29 5.3304e-05
34 *305:15 *1229:B 0.000129736
35 *305:15 *306:37 0.000222668
36 *305:34 *1228:B 0
*RES
1 *1362:Q *306:8 42.7229 
2 *306:8 *306:12 18.0036 
3 *306:12 *1257:A 23 
4 *306:12 *306:29 40.0879 
5 *306:29 *306:37 41.4757 
6 *306:37 *1228:B 32.0988 
7 *306:37 *1229:B 24.5743 
8 *306:29 *1259:A 24.595 
*END

*D_NET *307 0.00317718
*CONN
*I *1409:A I *D sky130_fd_sc_hd__dlygate4sd3_1
*I *1228:A I *D sky130_fd_sc_hd__and3_1
*I *1229:A I *D sky130_fd_sc_hd__and4_1
*I *1260:A1 I *D sky130_fd_sc_hd__a21oi_1
*I *1363:Q O *D sky130_fd_sc_hd__dfxtp_1
*CAP
1 *1409:A 7.03339e-05
2 *1228:A 5.7062e-05
3 *1229:A 1.56031e-05
4 *1260:A1 0
5 *1363:Q 0
6 *307:29 0.000695081
7 *307:10 0.000888383
8 *307:4 0.000336301
9 *1228:B *1228:A 0.000273279
10 *1228:B *1229:A 5.56279e-05
11 *1228:C *1228:A 8.16277e-05
12 *1229:B *1228:A 4.3198e-05
13 *1229:B *1229:A 5.56279e-05
14 *170:14 *307:29 0
15 *187:10 *307:29 3.61397e-05
16 *187:20 *307:29 0.000148647
17 *191:8 *307:29 2.45845e-05
18 *191:27 *307:10 0.000109352
19 *191:27 *307:29 3.64246e-05
20 *192:10 *307:29 1.86721e-05
21 *304:59 *307:29 7.69256e-06
22 *305:15 *1228:A 2.47321e-05
23 *305:24 *1228:A 3.22879e-05
24 *305:34 *307:29 0.000166522
25 *306:37 *307:29 0
*RES
1 *1363:Q *307:4 23 
2 *307:4 *307:10 18.6043 
3 *307:10 *1260:A1 38 
4 *307:10 *307:29 26.6621 
5 *307:29 *1229:A 23.6214 
6 *307:29 *1228:A 26.0036 
7 *307:4 *1409:A 24.4707 
*END

*D_NET *308 0.00289573
*CONN
*I *1131:D_N I *D sky130_fd_sc_hd__or4b_2
*I *1119:A I *D sky130_fd_sc_hd__or4b_2
*I *1125:A I *D sky130_fd_sc_hd__or4b_1
*I *1133:A I *D sky130_fd_sc_hd__or4b_1
*I *1376:Q O *D sky130_fd_sc_hd__dfxtp_1
*CAP
1 *1131:D_N 5.9323e-05
2 *1119:A 2.34823e-05
3 *1125:A 0
4 *1133:A 0
5 *1376:Q 8.49192e-05
6 *308:38 9.97266e-05
7 *308:31 0.000196635
8 *308:21 0.000405759
9 *308:12 0.000247763
10 *308:8 0.000140479
11 *1119:A *1131:C 0
12 *1131:D_N *1131:A 0.000221057
13 *1131:D_N *1131:C 9.00923e-05
14 *308:21 *1131:C 6.9805e-05
15 *308:21 *1133:C 0.000180218
16 *308:21 *309:43 9.62666e-05
17 *308:31 *1125:C 0.000232127
18 *308:31 *1125:D_N 2.64616e-05
19 *308:31 *310:10 9.48381e-06
20 *308:31 *311:36 1.69668e-05
21 *308:31 *311:45 7.75329e-06
22 *308:38 *1131:A 1.32314e-05
23 *308:38 *1131:C 2.32101e-05
24 *308:38 *309:43 2.18506e-05
25 *1126:A *308:31 1.03836e-05
26 *1134:B *308:31 0.000103485
27 *88:12 *308:31 0.000113153
28 *96:10 *308:31 0.000110922
29 *98:10 *308:12 3.22879e-05
30 *98:46 *308:12 5.70419e-05
31 *98:46 *308:21 2.9938e-05
32 *99:25 *308:8 0
33 *101:16 *308:8 0.000171906
*RES
1 *1376:Q *308:8 40.2579 
2 *308:8 *308:12 16.5743 
3 *308:12 *1133:A 23 
4 *308:12 *308:21 4.93 
5 *308:21 *308:31 35.1579 
6 *308:31 *1125:A 23 
7 *308:21 *308:38 0.621429 
8 *308:38 *1119:A 23.4971 
9 *308:38 *1131:D_N 25.5479 
*END

*D_NET *309 0.00507182
*CONN
*I *1119:B I *D sky130_fd_sc_hd__or4b_2
*I *1131:A I *D sky130_fd_sc_hd__or4b_2
*I *1133:D_N I *D sky130_fd_sc_hd__or4b_1
*I *1125:B I *D sky130_fd_sc_hd__or4b_1
*I *1158:A I *D sky130_fd_sc_hd__xor2_1
*I *1377:Q O *D sky130_fd_sc_hd__dfxtp_1
*CAP
1 *1119:B 0
2 *1131:A 0.000152838
3 *1133:D_N 0
4 *1125:B 0.000272654
5 *1158:A 0
6 *1377:Q 0.000139078
7 *309:43 0.00037952
8 *309:30 0.000360753
9 *309:19 0.000928593
10 *309:8 0.000660947
11 *1131:A *1131:B 0.000192319
12 *1131:A *1131:C 0.000155937
13 *309:19 *311:10 0
14 *309:19 *311:23 0
15 *309:30 *1125:C 0.000114083
16 *309:43 *1125:C 3.70094e-05
17 *309:43 *310:10 7.70737e-05
18 *309:43 *311:68 1.14452e-05
19 *1126:A *1125:B 9.58714e-05
20 *1131:D_N *1131:A 0.000221057
21 *1134:B *1125:B 1.22822e-05
22 *1158:B *309:8 0.000145689
23 *1159:B_N *309:19 0.00030798
24 *1159:B_N *309:30 5.80715e-05
25 *88:12 *309:30 2.80767e-05
26 *88:18 *309:19 0
27 *88:18 *309:30 0
28 *96:14 *1125:B 9.45591e-05
29 *96:20 *1125:B 2.93845e-05
30 *98:46 *309:30 8.4047e-05
31 *99:25 *309:30 1.37349e-05
32 *99:25 *309:43 4.59441e-05
33 *116:10 *309:19 0.000166513
34 *123:10 *309:19 6.68793e-05
35 *245:75 *309:19 0
36 *269:25 *309:8 9.24795e-06
37 *269:25 *309:19 7.88828e-05
38 *308:21 *309:43 9.62666e-05
39 *308:38 *1131:A 1.32314e-05
40 *308:38 *309:43 2.18506e-05
*RES
1 *1377:Q *309:8 26.3764 
2 *309:8 *1158:A 23 
3 *309:8 *309:19 26.9314 
4 *309:19 *1125:B 41.9564 
5 *309:19 *309:30 3.31429 
6 *309:30 *1133:D_N 38 
7 *309:30 *309:43 19.0807 
8 *309:43 *1131:A 28.4479 
9 *309:43 *1119:B 23 
*END

*D_NET *310 0.00413624
*CONN
*I *1119:D_N I *D sky130_fd_sc_hd__or4b_2
*I *1131:C I *D sky130_fd_sc_hd__or4b_2
*I *1133:C I *D sky130_fd_sc_hd__or4b_1
*I *1125:C I *D sky130_fd_sc_hd__or4b_1
*I *1378:Q O *D sky130_fd_sc_hd__dfxtp_1
*CAP
1 *1119:D_N 0
2 *1131:C 0.000323754
3 *1133:C 8.64438e-05
4 *1125:C 0.000421271
5 *1378:Q 0.000405103
6 *310:25 0.000410197
7 *310:10 0.000826374
8 *1125:C *1125:D_N 1.5769e-05
9 *310:10 *311:45 0
10 *310:10 *311:68 3.47776e-05
11 *1119:A *1131:C 0
12 *1131:A *1131:C 0.000155937
13 *1131:D_N *1131:C 9.00923e-05
14 *1134:B *1125:C 4.5051e-05
15 *1205:A2 *310:10 5.50106e-05
16 *88:12 *1125:C 4.08641e-05
17 *96:10 *1131:C 0.000267173
18 *96:14 *1125:C 1.76557e-05
19 *96:20 *1125:C 5.37348e-06
20 *98:46 *1133:C 4.9662e-05
21 *99:25 *310:10 0.000142724
22 *250:27 *310:10 0
23 *308:21 *1131:C 6.9805e-05
24 *308:21 *1133:C 0.000180218
25 *308:31 *1125:C 0.000232127
26 *308:31 *310:10 9.48381e-06
27 *308:38 *1131:C 2.32101e-05
28 *309:30 *1125:C 0.000114083
29 *309:43 *1125:C 3.70094e-05
30 *309:43 *310:10 7.70737e-05
*RES
1 *1378:Q *310:10 46.5136 
2 *310:10 *1125:C 44.7114 
3 *310:10 *310:25 15 
4 *310:25 *1133:C 25.0507 
5 *310:25 *1131:C 30.8093 
6 *310:25 *1119:D_N 23 
*END

*D_NET *311 0.00567639
*CONN
*I *1133:B I *D sky130_fd_sc_hd__or4b_1
*I *1131:B I *D sky130_fd_sc_hd__or4b_2
*I *1119:C I *D sky130_fd_sc_hd__or4b_2
*I *1125:D_N I *D sky130_fd_sc_hd__or4b_1
*I *1151:A1 I *D sky130_fd_sc_hd__o21a_1
*I *1379:Q O *D sky130_fd_sc_hd__dfxtp_1
*CAP
1 *1133:B 0
2 *1131:B 0.000194804
3 *1119:C 0
4 *1125:D_N 0.000115287
5 *1151:A1 0
6 *1379:Q 0.000709785
7 *311:68 0.000425993
8 *311:45 0.000677523
9 *311:36 0.000182259
10 *311:23 0.000552025
11 *311:10 0.00102099
12 *1125:C *1125:D_N 1.5769e-05
13 *1126:A *1125:D_N 0.000308188
14 *1131:A *1131:B 0.000192319
15 *1134:B *1125:D_N 0
16 *1323:B *311:10 0.000141879
17 *1323:B *311:23 3.70094e-05
18 *1379:CLK *311:10 2.64616e-05
19 *1379:D *311:10 3.24476e-06
20 *88:12 *311:23 5.58152e-06
21 *88:18 *311:23 5.012e-05
22 *96:10 *311:23 3.41998e-06
23 *96:10 *311:36 6.66453e-05
24 *99:25 *311:68 8.85189e-05
25 *110:10 *311:23 0.000129504
26 *116:10 *311:10 2.54046e-05
27 *124:8 *311:10 2.92911e-06
28 *245:71 *311:10 6.17437e-06
29 *250:27 *311:23 0.000229266
30 *250:27 *311:36 0.000211157
31 *250:27 *311:45 8.62783e-05
32 *250:27 *311:68 7.04458e-05
33 *308:31 *1125:D_N 2.64616e-05
34 *308:31 *311:36 1.69668e-05
35 *308:31 *311:45 7.75329e-06
36 *309:19 *311:10 0
37 *309:19 *311:23 0
38 *309:43 *311:68 1.14452e-05
39 *310:10 *311:45 0
40 *310:10 *311:68 3.47776e-05
*RES
1 *1379:Q *311:10 47.6736 
2 *311:10 *1151:A1 38 
3 *311:10 *311:23 7.49857 
4 *311:23 *1125:D_N 41.5007 
5 *311:23 *311:36 2.96214 
6 *311:36 *1119:C 38 
7 *311:36 *311:45 1.20143 
8 *311:45 *1131:B 41.0036 
9 *311:45 *311:68 36.6493 
10 *311:68 *1133:B 38 
*END

*D_NET *312 0.00566049
*CONN
*I *1161:A I *D sky130_fd_sc_hd__nand2_1
*I *1162:A I *D sky130_fd_sc_hd__or2_1
*I *1168:A1 I *D sky130_fd_sc_hd__a31o_1
*I *1167:A I *D sky130_fd_sc_hd__and4_1
*I *1164:A I *D sky130_fd_sc_hd__nand3_1
*I *1165:A1 I *D sky130_fd_sc_hd__a21o_1
*I *1160:A_N I *D sky130_fd_sc_hd__and2b_1
*I *1330:Q O *D sky130_fd_sc_hd__dfxtp_1
*CAP
1 *1161:A 4.58557e-05
2 *1162:A 0
3 *1168:A1 0
4 *1167:A 0
5 *1164:A 0
6 *1165:A1 0.000209093
7 *1160:A_N 0.000120031
8 *1330:Q 0
9 *312:71 0.000304613
10 *312:60 0.000175231
11 *312:45 0.000659312
12 *312:29 0.000601825
13 *312:21 0.00109373
14 *312:10 0.0004609
15 *312:6 0.000382707
16 *1161:A *1162:B 5.73309e-05
17 *1165:A1 *1164:B 4.79544e-05
18 *1165:A1 *320:19 9.92345e-05
19 *312:29 *315:51 4.21594e-06
20 *312:45 *1167:B 7.59794e-05
21 *312:60 *1167:B 4.05745e-05
22 *312:60 *321:20 0.000114074
23 *1163:A *312:10 0
24 *1163:A *312:71 0.000228909
25 *1163:C *312:71 0.000131367
26 *1333:D *312:45 5.50049e-05
27 *1333:D *312:60 9.41704e-05
28 *125:6 *1161:A 5.12224e-05
29 *125:6 *312:71 7.98176e-05
30 *130:10 *312:60 0.000136486
31 *244:12 *312:60 5.20305e-05
32 *264:14 *1165:A1 1.16778e-05
33 *264:14 *312:29 0.000233367
34 *264:38 *312:10 0
35 *264:77 *312:60 3.97399e-05
36 *286:10 *312:29 5.40337e-05
*RES
1 *1330:Q *312:6 38 
2 *312:6 *312:10 16.9057 
3 *312:10 *1160:A_N 25.0507 
4 *312:10 *312:21 3.97714 
5 *312:21 *312:29 38.3064 
6 *312:29 *1165:A1 26.3764 
7 *312:29 *1164:A 23 
8 *312:21 *312:45 8.72071 
9 *312:45 *1167:A 23 
10 *312:45 *312:60 34.6814 
11 *312:60 *1168:A1 23 
12 *312:6 *312:71 22.0636 
13 *312:71 *1162:A 23 
14 *312:71 *1161:A 24.5743 
*END

*D_NET *313 0.0049431
*CONN
*I *1152:B1 I *D sky130_fd_sc_hd__o211a_1
*I *1143:A I *D sky130_fd_sc_hd__or3_1
*I *1190:B I *D sky130_fd_sc_hd__and4_1
*I *1187:B1 I *D sky130_fd_sc_hd__a21o_1
*I *1188:A I *D sky130_fd_sc_hd__and3_1
*I *1340:Q O *D sky130_fd_sc_hd__dfxtp_1
*CAP
1 *1152:B1 0.000218616
2 *1143:A 0
3 *1190:B 0.000158042
4 *1187:B1 5.92182e-05
5 *1188:A 0.000136718
6 *1340:Q 0
7 *313:41 0.000336215
8 *313:30 0.000406206
9 *313:19 0.000530654
10 *313:4 0.000477589
11 *1152:B1 *1152:A1 5.3304e-05
12 *1152:B1 *1152:A2 5.3304e-05
13 *1188:A *314:10 3.71251e-05
14 *1190:B *1140:A 0.00010018
15 *1190:B *314:23 0.000128723
16 *1188:B *1188:A 9.88574e-06
17 *1188:B *313:19 0
18 *1189:C *1187:B1 9.84851e-05
19 *1190:C *1190:B 6.9805e-05
20 *37:8 *313:19 0.000113153
21 *103:25 *1190:B 8.56254e-05
22 *105:10 *1190:B 0.00044107
23 *107:8 *1152:B1 0.000135547
24 *133:33 *1187:B1 0.000103647
25 *143:10 *1188:A 0.000184527
26 *265:33 *313:19 0.000143994
27 *265:33 *313:30 8.02348e-05
28 *265:42 *313:30 0.000169674
29 *265:42 *313:41 0.000154147
30 *265:57 *1152:B1 0.000420388
31 *265:57 *313:41 3.70187e-05
32 *289:8 *1152:B1 0
33 *289:8 *313:19 0
34 *289:8 *313:30 0
35 *289:8 *313:41 0
*RES
1 *1340:Q *313:4 23 
2 *313:4 *1188:A 26.6043 
3 *313:4 *313:19 21.1936 
4 *313:19 *1187:B1 40.0507 
5 *313:19 *313:30 3.31429 
6 *313:30 *1190:B 43.8621 
7 *313:30 *313:41 2.61 
8 *313:41 *1143:A 38 
9 *313:41 *1152:B1 44.4007 
*END

*D_NET *314 0.00249699
*CONN
*I *1190:A I *D sky130_fd_sc_hd__and4_1
*I *1140:A I *D sky130_fd_sc_hd__or2_1
*I *1408:A I *D sky130_fd_sc_hd__dlygate4sd3_1
*I *1341:Q O *D sky130_fd_sc_hd__dfxtp_1
*CAP
1 *1190:A 0
2 *1140:A 8.4362e-05
3 *1408:A 0
4 *1341:Q 0.000274888
5 *314:23 0.000275343
6 *314:10 0.000465869
7 *1188:A *314:10 3.71251e-05
8 *1188:B *314:10 0.000247552
9 *1188:B *314:23 7.62945e-05
10 *1188:C *314:10 5.21996e-05
11 *1188:C *314:23 0
12 *1190:B *1140:A 0.00010018
13 *1190:B *314:23 0.000128723
14 *1190:C *1140:A 0.000143655
15 *1190:C *314:23 0.000141954
16 *105:10 *1140:A 0.000119313
17 *133:14 *1140:A 0.000228903
18 *133:18 *314:23 0
19 *143:10 *314:10 9.40452e-05
20 *144:8 *1140:A 2.65879e-05
*RES
1 *1341:Q *314:10 45.1464 
2 *314:10 *1408:A 38 
3 *314:10 *314:23 19.8886 
4 *314:23 *1140:A 27.4329 
5 *314:23 *1190:A 23 
*END

*D_NET *315 0.0029402
*CONN
*I *1194:A I *D sky130_fd_sc_hd__or2_1
*I *1404:A I *D sky130_fd_sc_hd__dlygate4sd3_1
*I *1141:C I *D sky130_fd_sc_hd__or3_1
*I *1196:B I *D sky130_fd_sc_hd__and3_1
*I *1197:A1 I *D sky130_fd_sc_hd__a21o_1
*I *1342:Q O *D sky130_fd_sc_hd__dfxtp_1
*CAP
1 *1194:A 0
2 *1404:A 0
3 *1141:C 0.000114845
4 *1196:B 0
5 *1197:A1 0
6 *1342:Q 0.000132331
7 *315:51 0.000155144
8 *315:45 0.000219166
9 *315:29 0.000146759
10 *315:23 0.000387245
11 *315:14 0.00029997
12 *315:8 0.000370681
13 *1141:C *1141:B 5.40337e-05
14 *1141:C *1197:B1 4.5051e-05
15 *315:23 *1197:B1 0.000105087
16 *315:29 *1141:B 2.60152e-05
17 *315:29 *316:10 6.51012e-05
18 *315:29 *316:19 6.07929e-05
19 *1195:A *315:8 0.000183733
20 *1195:A *315:45 5.50106e-05
21 *1195:C *315:45 2.4754e-05
22 *39:10 *315:8 2.32004e-05
23 *144:29 *315:14 1.14452e-05
24 *144:29 *315:29 4.23817e-05
25 *144:44 *315:14 0.000209748
26 *144:44 *315:29 1.19692e-05
27 *144:44 *315:45 0.00014196
28 *146:8 *315:8 2.93747e-05
29 *146:8 *315:45 1.41129e-05
30 *148:8 *315:29 6.07611e-06
31 *264:16 *315:51 0
32 *264:22 *315:14 0
33 *264:22 *315:29 0
34 *286:10 *315:51 0
35 *312:29 *315:51 4.21594e-06
*RES
1 *1342:Q *315:8 26.3764 
2 *315:8 *315:14 33.3143 
3 *315:14 *1197:A1 23 
4 *315:14 *315:23 2.54786 
5 *315:23 *315:29 34.0186 
6 *315:29 *1196:B 23 
7 *315:23 *1141:C 25.5479 
8 *315:8 *315:45 2.05071 
9 *315:45 *315:51 32.61 
10 *315:51 *1404:A 23 
11 *315:45 *1194:A 23 
*END

*D_NET *316 0.00202355
*CONN
*I *1141:B I *D sky130_fd_sc_hd__or3_1
*I *1197:B1 I *D sky130_fd_sc_hd__a21o_1
*I *1196:A I *D sky130_fd_sc_hd__and3_1
*I *1343:Q O *D sky130_fd_sc_hd__dfxtp_1
*CAP
1 *1141:B 0.000159747
2 *1197:B1 0.000242291
3 *1196:A 0
4 *1343:Q 0.00029127
5 *316:19 0.00049836
6 *316:10 0.000387592
7 *1141:B *1141:A 0
8 *316:10 *1141:A 0
9 *316:19 *1141:A 0
10 *1141:C *1141:B 5.40337e-05
11 *1141:C *1197:B1 4.5051e-05
12 *144:44 *1141:B 0
13 *148:8 *316:10 0
14 *244:30 *316:10 8.82055e-05
15 *315:23 *1197:B1 0.000105087
16 *315:29 *1141:B 2.60152e-05
17 *315:29 *316:10 6.51012e-05
18 *315:29 *316:19 6.07929e-05
*RES
1 *1343:Q *316:10 43.1371 
2 *316:10 *1196:A 38 
3 *316:10 *316:19 1.90571 
4 *316:19 *1197:B1 42.4536 
5 *316:19 *1141:B 40.6514 
*END

*D_NET *317 0.00231185
*CONN
*I *1141:A I *D sky130_fd_sc_hd__or3_1
*I *1199:A I *D sky130_fd_sc_hd__and2_1
*I *1200:A I *D sky130_fd_sc_hd__or2_1
*I *1344:Q O *D sky130_fd_sc_hd__dfxtp_1
*CAP
1 *1141:A 0.000428465
2 *1199:A 0
3 *1200:A 5.5349e-05
4 *1344:Q 0.000374234
5 *317:12 5.5349e-05
6 *317:10 0.000802699
7 *1141:B *1141:A 0
8 *1199:B *1200:A 0.000180066
9 *106:10 *1141:A 9.91024e-05
10 *150:14 *1141:A 0
11 *150:14 *317:10 0
12 *150:29 *1141:A 0
13 *151:8 *1141:A 5.15096e-05
14 *151:8 *317:10 0.000133316
15 *244:30 *1200:A 0.000131763
16 *316:10 *1141:A 0
17 *316:19 *1141:A 0
*RES
1 *1344:Q *317:10 42.4329 
2 *317:10 *317:12 15 
3 *317:12 *1200:A 25.0714 
4 *317:12 *1199:A 23 
5 *317:10 *1141:A 45.83 
*END

*D_NET *318 0.00229266
*CONN
*I *1140:B I *D sky130_fd_sc_hd__or2_1
*I *1399:A I *D sky130_fd_sc_hd__dlygate4sd3_1
*I *1202:A I *D sky130_fd_sc_hd__or2_1
*I *1345:Q O *D sky130_fd_sc_hd__dfxtp_1
*CAP
1 *1140:B 0.000159572
2 *1399:A 0
3 *1202:A 0.000382561
4 *1345:Q 0
5 *318:23 0.000307888
6 *318:4 0.000530876
7 *1191:A *318:23 5.56306e-05
8 *1192:C1 *1202:A 0.00026422
9 *1192:C1 *318:23 3.53115e-05
10 *1345:D *1202:A 5.92579e-05
11 *133:14 *1140:B 2.30292e-05
12 *144:8 *1140:B 0.000128401
13 *144:23 *1140:B 3.3577e-05
14 *144:23 *318:23 2.70366e-05
15 *152:10 *1202:A 0.000141646
16 *244:22 *1202:A 0.000143655
17 *264:88 *318:23 0
*RES
1 *1345:Q *318:4 23 
2 *318:4 *1202:A 32.715 
3 *318:4 *318:23 33.3557 
4 *318:23 *1399:A 23 
5 *318:23 *1140:B 26.9771 
*END

*D_NET *319 0.00363343
*CONN
*I *1162:B I *D sky130_fd_sc_hd__or2_1
*I *1161:B I *D sky130_fd_sc_hd__nand2_1
*I *1167:B I *D sky130_fd_sc_hd__and4_1
*I *1168:A2 I *D sky130_fd_sc_hd__a31o_1
*I *1165:A2 I *D sky130_fd_sc_hd__a21o_1
*I *1164:B I *D sky130_fd_sc_hd__nand3_1
*I *1331:Q O *D sky130_fd_sc_hd__dfxtp_1
*CAP
1 *1162:B 9.68329e-05
2 *1161:B 0
3 *1167:B 0.00019404
4 *1168:A2 9.54948e-05
5 *1165:A2 0
6 *1164:B 3.15523e-05
7 *1331:Q 0.00020333
8 *319:56 0.000237698
9 *319:24 0.00035834
10 *319:16 0.00051862
11 *319:12 0.00046267
12 *319:10 0.000516488
13 *1164:B *320:19 5.56356e-05
14 *1168:A2 *320:27 9.45591e-05
15 *1168:A2 *320:36 3.22879e-05
16 *319:24 *320:27 0.000126516
17 *1161:A *1162:B 5.73309e-05
18 *1165:A1 *1164:B 4.79544e-05
19 *30:8 *319:12 7.28526e-05
20 *125:6 *1162:B 1.08287e-05
21 *130:10 *1168:A2 5.25848e-05
22 *264:14 *1164:B 0.00014291
23 *264:77 *319:10 1.19796e-05
24 *264:77 *319:12 5.29611e-05
25 *264:77 *319:16 4.3407e-05
26 *312:45 *1167:B 7.59794e-05
27 *312:60 *1167:B 4.05745e-05
*RES
1 *1331:Q *319:10 41.0036 
2 *319:10 *319:12 4.01857 
3 *319:12 *319:16 16.9057 
4 *319:16 *319:24 36.3179 
5 *319:24 *1164:B 24.5743 
6 *319:24 *1165:A2 23 
7 *319:16 *1168:A2 25.5271 
8 *319:12 *1167:B 40.5271 
9 *319:10 *319:56 17.5271 
10 *319:56 *1161:B 23 
11 *319:56 *1162:B 25.0714 
*END

*D_NET *320 0.00471672
*CONN
*I *1165:B1 I *D sky130_fd_sc_hd__a21o_1
*I *1147:A2 I *D sky130_fd_sc_hd__o2111a_1
*I *1167:D I *D sky130_fd_sc_hd__and4_1
*I *1168:A3 I *D sky130_fd_sc_hd__a31o_1
*I *1164:C I *D sky130_fd_sc_hd__nand3_1
*I *1332:Q O *D sky130_fd_sc_hd__dfxtp_1
*CAP
1 *1165:B1 0
2 *1147:A2 0
3 *1167:D 0
4 *1168:A3 2.34823e-05
5 *1164:C 0
6 *1332:Q 0.000111189
7 *320:57 0.00105653
8 *320:44 0.000159611
9 *320:36 0.00133139
10 *320:27 0.000462585
11 *320:19 0.000420364
12 *320:10 9.65048e-05
13 *320:8 0.000111189
14 *320:36 *321:20 1.94693e-05
15 *320:44 *321:10 5.3304e-05
16 *320:57 *1139:A1 1.59094e-05
17 *320:57 *1147:A1 0.000114083
18 *320:57 *323:44 5.56203e-05
19 *1164:B *320:19 5.56356e-05
20 *1165:A1 *320:19 9.92345e-05
21 *1166:A *320:19 1.11037e-05
22 *1168:A2 *320:27 9.45591e-05
23 *1168:A2 *320:36 3.22879e-05
24 *244:12 *320:44 0.000192087
25 *264:14 *320:19 7.40718e-05
26 *319:24 *320:27 0.000126516
*RES
1 *1332:Q *320:8 39.5536 
2 *320:8 *320:10 15 
3 *320:10 *1164:C 23 
4 *320:10 *320:19 2.54786 
5 *320:19 *320:27 36.09 
6 *320:27 *1168:A3 23.4971 
7 *320:27 *320:36 2.05071 
8 *320:36 *320:44 33.2314 
9 *320:44 *1167:D 23 
10 *320:36 *320:57 47.8971 
11 *320:57 *1147:A2 23 
12 *320:19 *1165:B1 23 
*END

*D_NET *321 0.00465578
*CONN
*I *1139:A1 I *D sky130_fd_sc_hd__o211a_1
*I *1147:A1 I *D sky130_fd_sc_hd__o2111a_1
*I *1167:C I *D sky130_fd_sc_hd__and4_1
*I *1168:B1 I *D sky130_fd_sc_hd__a31o_1
*I *1333:Q O *D sky130_fd_sc_hd__dfxtp_1
*CAP
1 *1139:A1 0.000279587
2 *1147:A1 0.000149368
3 *1167:C 0
4 *1168:B1 0
5 *1333:Q 0
6 *321:36 0.00101872
7 *321:20 0.000116853
8 *321:10 0.000564282
9 *321:4 0.0010372
10 *1139:A1 *323:44 5.50106e-05
11 *1147:A1 *322:10 0
12 *1147:A1 *322:48 0
13 *1147:A1 *322:74 1.83564e-05
14 *1147:A1 *323:44 2.44497e-05
15 *321:36 *322:10 0
16 *321:36 *322:48 0
17 *1154:A1 *1139:A1 0
18 *1172:A *321:10 5.90675e-06
19 *1172:C *321:36 2.07921e-05
20 *1333:CLK *321:10 0.00014196
21 *1333:D *321:10 0.00013115
22 *129:21 *321:10 0.000103378
23 *244:12 *321:20 0.000114092
24 *265:57 *321:36 0.000325804
25 *265:67 *321:10 0.000185434
26 *265:67 *321:36 4.6595e-05
27 *312:60 *321:20 0.000114074
28 *320:36 *321:20 1.94693e-05
29 *320:44 *321:10 5.3304e-05
30 *320:57 *1139:A1 1.59094e-05
31 *320:57 *1147:A1 0.000114083
*RES
1 *1333:Q *321:4 23 
2 *321:4 *321:10 10.1914 
3 *321:10 *321:20 32.6721 
4 *321:20 *1168:B1 23 
5 *321:10 *1167:C 23 
6 *321:4 *321:36 24.3214 
7 *321:36 *1147:A1 41.3143 
8 *321:36 *1139:A1 42.4536 
*END

*D_NET *322 0.00617723
*CONN
*I *1139:A2 I *D sky130_fd_sc_hd__o211a_1
*I *1152:A2 I *D sky130_fd_sc_hd__o211a_1
*I *1147:C1 I *D sky130_fd_sc_hd__o2111a_1
*I *1171:A I *D sky130_fd_sc_hd__or2_1
*I *1170:A I *D sky130_fd_sc_hd__nand2_1
*I *1173:B I *D sky130_fd_sc_hd__and3_2
*I *1174:A1 I *D sky130_fd_sc_hd__a21o_1
*I *1334:Q O *D sky130_fd_sc_hd__dfxtp_1
*CAP
1 *1139:A2 0
2 *1152:A2 9.55211e-05
3 *1147:C1 0
4 *1171:A 0.000157969
5 *1170:A 0
6 *1173:B 0
7 *1174:A1 0.000135758
8 *1334:Q 0.000384485
9 *322:74 0.000141933
10 *322:48 0.000762891
11 *322:35 0.000628405
12 *322:22 0.0003954
13 *322:20 0.000542694
14 *322:14 0.000328134
15 *322:10 0.000452497
16 *1152:A2 *1152:A1 4.87384e-05
17 *1174:A1 *1174:B1 3.06608e-05
18 *322:20 *1152:A1 7.3429e-05
19 *322:20 *323:36 2.02872e-05
20 *322:22 *1174:B1 2.07242e-05
21 *322:22 *323:36 0.000252161
22 *322:74 *1152:A1 2.66146e-05
23 *322:74 *323:10 0
24 *322:74 *323:36 2.93845e-05
25 *322:74 *323:44 6.25829e-05
26 *1139:B1 *322:14 0.000225275
27 *1147:A1 *322:10 0
28 *1147:A1 *322:48 0
29 *1147:A1 *322:74 1.83564e-05
30 *1152:B1 *1152:A2 5.3304e-05
31 *1152:C1 *1152:A2 8.52481e-05
32 *1152:C1 *322:20 5.50106e-05
33 *1170:B *1171:A 0.000141052
34 *1173:C *1174:A1 0.000185434
35 *1385:A *322:10 5.38249e-05
36 *31:8 *322:48 1.37246e-05
37 *103:51 *322:74 0
38 *112:6 *1152:A2 0.000181925
39 *129:25 *322:48 0
40 *131:8 *322:48 0.000296026
41 *132:10 *1171:A 5.3304e-05
42 *132:10 *322:48 0
43 *244:163 *322:48 1.34354e-05
44 *265:57 *322:10 9.63918e-05
45 *265:57 *322:14 0.000114656
46 *289:30 *322:10 0
47 *321:36 *322:10 0
48 *321:36 *322:48 0
*RES
1 *1334:Q *322:10 44.7736 
2 *322:10 *322:14 17.9621 
3 *322:14 *322:20 3.16929 
4 *322:20 *322:22 5.86214 
5 *322:22 *1174:A1 26.5214 
6 *322:22 *322:35 0.497143 
7 *322:35 *1173:B 23 
8 *322:35 *322:48 41.455 
9 *322:48 *1170:A 23 
10 *322:48 *1171:A 26.335 
11 *322:20 *322:74 32.6514 
12 *322:74 *1147:C1 23 
13 *322:14 *1152:A2 26.0243 
14 *322:10 *1139:A2 38 
*END

*D_NET *323 0.00363447
*CONN
*I *1152:A1 I *D sky130_fd_sc_hd__o211a_1
*I *1147:B1 I *D sky130_fd_sc_hd__o2111a_1
*I *1139:C1 I *D sky130_fd_sc_hd__o211a_1
*I *1173:A I *D sky130_fd_sc_hd__and3_2
*I *1174:B1 I *D sky130_fd_sc_hd__a21o_1
*I *1335:Q O *D sky130_fd_sc_hd__dfxtp_1
*CAP
1 *1152:A1 0.000174716
2 *1147:B1 0
3 *1139:C1 0
4 *1173:A 0
5 *1174:B1 0.00028948
6 *1335:Q 0.000209342
7 *323:44 0.000152508
8 *323:36 0.000545781
9 *323:12 0.000508037
10 *323:10 0.000209342
11 *1139:A1 *323:44 5.50106e-05
12 *1139:B1 *323:44 7.80954e-05
13 *1147:A1 *323:44 2.44497e-05
14 *1152:A2 *1152:A1 4.87384e-05
15 *1152:B1 *1152:A1 5.3304e-05
16 *1152:C1 *1152:A1 0.000140259
17 *1173:C *1174:B1 0.000185731
18 *1173:C *323:36 1.4345e-05
19 *1174:A1 *1174:B1 3.06608e-05
20 *102:36 *1152:A1 0.000353442
21 *103:51 *323:44 2.76611e-06
22 *112:6 *1152:A1 1.76557e-05
23 *133:8 *323:10 0
24 *320:57 *323:44 5.56203e-05
25 *322:20 *1152:A1 7.3429e-05
26 *322:20 *323:36 2.02872e-05
27 *322:22 *1174:B1 2.07242e-05
28 *322:22 *323:36 0.000252161
29 *322:74 *1152:A1 2.66146e-05
30 *322:74 *323:10 0
31 *322:74 *323:36 2.93845e-05
32 *322:74 *323:44 6.25829e-05
*RES
1 *1335:Q *323:10 40.6514 
2 *323:10 *323:12 15 
3 *323:12 *1174:B1 29.0693 
4 *323:12 *1173:A 23 
5 *323:12 *323:36 5.88286 
6 *323:36 *323:44 33.9357 
7 *323:44 *1139:C1 23 
8 *323:36 *1147:B1 23 
9 *323:36 *1152:A1 29.3386 
*END

*D_NET *324 0.00381307
*CONN
*I *1177:A I *D sky130_fd_sc_hd__or2_1
*I *1137:B I *D sky130_fd_sc_hd__and3_1
*I *1176:A I *D sky130_fd_sc_hd__nand2_1
*I *1138:B I *D sky130_fd_sc_hd__and4_1
*I *1182:A2 I *D sky130_fd_sc_hd__a31o_1
*I *1336:Q O *D sky130_fd_sc_hd__dfxtp_1
*CAP
1 *1177:A 0
2 *1137:B 0
3 *1176:A 0.000235698
4 *1138:B 0
5 *1182:A2 0.000156356
6 *1336:Q 7.96963e-05
7 *324:36 0.000548926
8 *324:16 0.000156356
9 *324:14 0.000521083
10 *324:8 0.000287551
11 *1176:A *325:10 9.50292e-05
12 *1176:A *325:19 0.00010018
13 *1182:A2 *1137:C 4.17736e-05
14 *1182:A2 *1138:D 0.000183733
15 *1182:A2 *1182:A1 2.32004e-05
16 *1182:A2 *1182:B1 0.000183733
17 *1182:A2 *326:19 4.2573e-05
18 *324:14 *326:8 5.21024e-05
19 *324:36 *325:19 4.19743e-05
20 *324:36 *326:8 1.12487e-05
21 *1179:B *1176:A 5.50106e-05
22 *102:10 *1182:A2 1.76557e-05
23 *102:10 *324:36 0.000228909
24 *133:56 *324:14 0.000315857
25 *133:69 *324:8 4.75206e-05
26 *133:69 *324:14 8.6949e-05
27 *265:20 *324:8 0.000141052
28 *265:20 *324:14 0.000158902
*RES
1 *1336:Q *324:8 25.4236 
2 *324:8 *324:14 21.6907 
3 *324:14 *324:16 15 
4 *324:16 *1182:A2 27.4536 
5 *324:16 *1138:B 23 
6 *324:14 *324:36 20.0336 
7 *324:36 *1176:A 28.3029 
8 *324:36 *1137:B 23 
9 *324:8 *1177:A 23 
*END

*D_NET *325 0.00400802
*CONN
*I *1179:A I *D sky130_fd_sc_hd__xnor2_1
*I *1138:A I *D sky130_fd_sc_hd__and4_1
*I *1182:A1 I *D sky130_fd_sc_hd__a31o_1
*I *1137:A I *D sky130_fd_sc_hd__and3_1
*I *1337:Q O *D sky130_fd_sc_hd__dfxtp_1
*CAP
1 *1179:A 2.34823e-05
2 *1138:A 0
3 *1182:A1 8.52281e-05
4 *1137:A 0
5 *1337:Q 0.000608772
6 *325:19 0.000187678
7 *325:10 0.000531471
8 *325:8 0.00106128
9 *1182:A1 *1137:C 0.000141052
10 *1182:A1 *1182:B1 0.000183733
11 *1182:A1 *326:19 5.50106e-05
12 *325:19 *1137:C 0.000133881
13 *1176:A *325:10 9.50292e-05
14 *1176:A *325:19 0.00010018
15 *1179:B *325:10 0.000146233
16 *1182:A2 *1182:A1 2.32004e-05
17 *1337:CLK *325:8 2.93845e-05
18 *1337:D *325:8 1.74843e-05
19 *102:10 *1182:A1 0.000399297
20 *102:10 *325:19 0.000143655
21 *324:36 *325:19 4.19743e-05
*RES
1 *1337:Q *325:8 33.1707 
2 *325:8 *325:10 8.72071 
3 *325:10 *1137:A 23 
4 *325:10 *325:19 4.32929 
5 *325:19 *1182:A1 27.4329 
6 *325:19 *1138:A 23 
7 *325:8 *1179:A 23.4971 
*END

*D_NET *326 0.00149216
*CONN
*I *1137:C I *D sky130_fd_sc_hd__and3_1
*I *1138:C I *D sky130_fd_sc_hd__and4_1
*I *1182:B1 I *D sky130_fd_sc_hd__a31o_1
*I *1338:Q O *D sky130_fd_sc_hd__dfxtp_1
*CAP
1 *1137:C 0.000165442
2 *1138:C 0
3 *1182:B1 3.87578e-05
4 *1338:Q 0.000107063
5 *326:19 0.000177708
6 *326:10 5.10233e-05
7 *326:8 0.000107063
8 *1182:A1 *1137:C 0.000141052
9 *1182:A1 *1182:B1 0.000183733
10 *1182:A1 *326:19 5.50106e-05
11 *1182:A2 *1137:C 4.17736e-05
12 *1182:A2 *1182:B1 0.000183733
13 *1182:A2 *326:19 4.2573e-05
14 *133:56 *326:8 0
15 *324:14 *326:8 5.21024e-05
16 *324:36 *326:8 1.12487e-05
17 *325:19 *1137:C 0.000133881
*RES
1 *1338:Q *326:8 39.9057 
2 *326:8 *326:10 15 
3 *326:10 *1182:B1 25.0507 
4 *326:10 *326:19 0.621429 
5 *326:19 *1138:C 23 
6 *326:19 *1137:C 27.4329 
*END

*D_NET *327 0.0041206
*CONN
*I *1148:A I *D sky130_fd_sc_hd__or3_1
*I *1155:A1 I *D sky130_fd_sc_hd__o31ai_1
*I *1184:B1 I *D sky130_fd_sc_hd__a21o_1
*I *1138:D I *D sky130_fd_sc_hd__and4_1
*I *1339:Q O *D sky130_fd_sc_hd__dfxtp_1
*CAP
1 *1148:A 0.000204554
2 *1155:A1 0.000250435
3 *1184:B1 0.000357296
4 *1138:D 0.00035469
5 *1339:Q 0
6 *327:32 0.000781165
7 *327:8 0.000838186
8 *327:6 0.000452376
9 *1155:B1 *1155:A1 0.000272377
10 *1182:A2 *1138:D 0.000183733
11 *1184:A2 *1184:B1 9.27569e-05
12 *97:10 *1148:A 0
13 *102:36 *1155:A1 1.24376e-05
14 *108:14 *1155:A1 4.46649e-05
15 *108:25 *1155:A1 7.91053e-05
16 *112:19 *1148:A 0.000163361
17 *122:10 *1148:A 0
18 *133:56 *1138:D 2.22079e-05
19 *245:25 *1148:A 1.12487e-05
20 *245:31 *1148:A 0
21 *245:31 *327:32 0
22 *269:53 *1148:A 0
*RES
1 *1339:Q *327:6 38 
2 *327:6 *327:8 2.25786 
3 *327:8 *1138:D 43.7171 
4 *327:8 *1184:B1 44.8357 
5 *327:6 *327:32 6.13143 
6 *327:32 *1155:A1 43.8829 
7 *327:32 *1148:A 42.0807 
*END

*D_NET *328 0.00442438
*CONN
*I *1402:A I *D sky130_fd_sc_hd__dlygate4sd3_1
*I *1282:B I *D sky130_fd_sc_hd__or3_1
*I *1316:A1 I *D sky130_fd_sc_hd__o31a_1
*I *1135:B I *D sky130_fd_sc_hd__nor2_1
*I *1136:B I *D sky130_fd_sc_hd__or3_2
*I *1374:Q O *D sky130_fd_sc_hd__dfxtp_1
*CAP
1 *1402:A 0.00019938
2 *1282:B 0
3 *1316:A1 0.000170829
4 *1135:B 0.000142971
5 *1136:B 0.000105508
6 *1374:Q 0
7 *328:34 0.000462589
8 *328:10 0.000473768
9 *328:8 0.000559534
10 *328:4 0.000241866
11 *1135:B *1135:A 5.50049e-05
12 *1136:B *1136:A 0.000169674
13 *1136:B *329:10 3.47781e-05
14 *328:10 *329:10 0.000446352
15 *328:34 *1282:A 0.000218952
16 *328:34 *329:10 0.00021382
17 *328:34 *329:30 0.000139647
18 *1283:B *328:34 2.96909e-05
19 *1316:A3 *1316:A1 0.000108
20 *1329:A2 *328:34 4.21594e-06
21 *1374:D *1402:A 2.18409e-05
22 *70:10 *1316:A1 3.22879e-05
23 *71:8 *328:10 5.26101e-05
24 *87:64 *1402:A 1.79471e-05
25 *100:6 *1135:B 3.22879e-05
26 *206:12 *328:34 9.168e-05
27 *247:88 *328:34 0.000201994
28 *247:96 *1402:A 4.17736e-05
29 *247:96 *328:8 5.50106e-05
30 *247:96 *328:10 1.58805e-05
31 *247:96 *328:34 7.03766e-05
32 *250:27 *1136:B 0
33 *250:27 *328:10 0
34 *259:6 *1316:A1 1.41077e-05
*RES
1 *1374:Q *328:4 23 
2 *328:4 *328:8 15.6214 
3 *328:8 *328:10 6.13143 
4 *328:10 *1136:B 40.61 
5 *328:10 *1135:B 40.5479 
6 *328:8 *328:34 23.5964 
7 *328:34 *1316:A1 26.8736 
8 *328:34 *1282:B 23 
9 *328:4 *1402:A 26.045 
*END

*D_NET *329 0.00501485
*CONN
*I *1282:A I *D sky130_fd_sc_hd__or3_1
*I *1412:A I *D sky130_fd_sc_hd__dlygate4sd3_1
*I *1135:A I *D sky130_fd_sc_hd__nor2_1
*I *1136:A I *D sky130_fd_sc_hd__or3_2
*I *1375:Q O *D sky130_fd_sc_hd__dfxtp_1
*CAP
1 *1282:A 0.000132726
2 *1412:A 0.000322384
3 *1135:A 2.79296e-05
4 *1136:A 0.000132775
5 *1375:Q 0.000722738
6 *329:30 0.000540772
7 *329:10 0.000536952
8 *329:8 0.00118465
9 *1135:B *1135:A 5.50049e-05
10 *1136:B *1136:A 0.000169674
11 *1136:B *329:10 3.47781e-05
12 *1283:B *1282:A 4.6318e-06
13 *1375:D *329:8 5.1206e-05
14 *245:142 *1136:A 4.21594e-06
15 *250:27 *1136:A 0
16 *250:35 *1282:A 0
17 *250:35 *1412:A 7.56391e-05
18 *328:10 *329:10 0.000446352
19 *328:34 *1282:A 0.000218952
20 *328:34 *329:10 0.00021382
21 *328:34 *329:30 0.000139647
*RES
1 *1375:Q *329:8 46.7207 
2 *329:8 *329:10 9.30071 
3 *329:10 *1136:A 41.3143 
4 *329:10 *1135:A 38.6214 
5 *329:8 *329:30 1.90571 
6 *329:30 *1412:A 43.3857 
7 *329:30 *1282:A 40.9621 
*END

*D_NET *330 0.00775223
*CONN
*I *1324:A I *D sky130_fd_sc_hd__or4_1
*I *1304:A I *D sky130_fd_sc_hd__or4_1
*I *1115:A I *D sky130_fd_sc_hd__inv_2
*I *1216:B1 I *D sky130_fd_sc_hd__o21ai_1
*I *1214:A2 I *D sky130_fd_sc_hd__a21boi_1
*I *1217:A1 I *D sky130_fd_sc_hd__o211a_1
*I *1215:B1 I *D sky130_fd_sc_hd__o21a_1
*I *1352:Q O *D sky130_fd_sc_hd__dfxtp_1
*CAP
1 *1324:A 0
2 *1304:A 4.01155e-05
3 *1115:A 4.6097e-05
4 *1216:B1 0
5 *1214:A2 0.000387483
6 *1217:A1 0
7 *1215:B1 0
8 *1352:Q 0.000327046
9 *330:88 0.000442581
10 *330:73 0.000874845
11 *330:58 0.000937779
12 *330:31 0.000558294
13 *330:23 0.000213414
14 *330:16 0.000209222
15 *330:8 0.000441248
16 *330:6 0.001016
17 *1214:A2 *1214:A1 2.93747e-05
18 *1213:A2 *1115:A 0.00018282
19 *1213:A2 *330:73 0
20 *1214:B1_N *1214:A2 9.58714e-05
21 *1217:A2 *1214:A2 9.5343e-05
22 *1217:B1 *1214:A2 5.3304e-05
23 *1218:B1 *330:23 0
24 *1297:B *330:58 0
25 *1304:C *330:88 4.79544e-05
26 *1352:CLK *330:6 0.00030262
27 *1352:CLK *330:8 0.000187129
28 *1352:CLK *330:23 2.02517e-05
29 *49:10 *330:31 4.83778e-05
30 *91:10 *330:73 0
31 *91:12 *330:73 0
32 *91:16 *330:73 0
33 *156:8 *1115:A 2.4754e-05
34 *156:10 *330:16 0.00014411
35 *157:21 *330:16 3.16784e-05
36 *157:21 *330:23 2.02517e-05
37 *157:27 *330:58 0
38 *159:10 *330:16 1.32939e-05
39 *214:38 *330:88 5.3304e-05
40 *216:16 *330:73 6.68793e-05
41 *222:10 *330:58 0
42 *222:10 *330:73 0
43 *230:8 *330:73 8.62783e-05
44 *239:10 *330:88 0
45 *242:10 *330:88 0
46 *245:119 *330:6 0.000182832
47 *254:14 *330:88 0.000144067
48 *254:27 *1304:A 0
49 *255:10 *1115:A 0.000218641
50 *255:30 *330:58 0
51 *255:32 *330:58 0
52 *260:38 *330:31 6.70914e-05
53 *260:47 *330:16 0.000141879
54 *260:47 *330:58 0
*RES
1 *1352:Q *330:6 28.3857 
2 *330:6 *330:8 3.00357 
3 *330:8 *330:16 33.9564 
4 *330:16 *1215:B1 23 
5 *330:8 *330:23 1.20143 
6 *330:23 *330:31 33.5836 
7 *330:31 *1217:A1 23 
8 *330:31 *1214:A2 30.3329 
9 *330:23 *1216:B1 23 
10 *330:6 *330:58 23.1614 
11 *330:58 *1115:A 40.5271 
12 *330:58 *330:73 20.6964 
13 *330:73 *1304:A 23.8493 
14 *330:73 *330:88 36.815 
15 *330:88 *1324:A 23 
*END

*D_NET *331 0.00218278
*CONN
*I *1289:A I *D sky130_fd_sc_hd__or2_1
*I *1411:A I *D sky130_fd_sc_hd__dlygate4sd3_1
*I *1214:A1 I *D sky130_fd_sc_hd__a21boi_1
*I *1353:Q O *D sky130_fd_sc_hd__dfxtp_1
*CAP
1 *1289:A 0.000285216
2 *1411:A 0.000170655
3 *1214:A1 0.000442675
4 *1353:Q 4.55235e-05
5 *331:21 0.000573811
6 *331:8 0.000606138
7 *1214:A2 *1214:A1 2.93747e-05
8 *50:6 *331:8 2.93845e-05
9 *289:30 *1214:A1 0
10 *289:30 *1289:A 0
11 *289:30 *331:21 0
*RES
1 *1353:Q *331:8 38.6214 
2 *331:8 *1214:A1 45.8507 
3 *331:8 *331:21 1.90571 
4 *331:21 *1411:A 41.0036 
5 *331:21 *1289:A 43.4271 
*END

*D_NET *332 0.00218186
*CONN
*I *1222:A2 I *D sky130_fd_sc_hd__o22ai_1
*I *1223:A2 I *D sky130_fd_sc_hd__a2111o_1
*I *1347:Q O *D sky130_fd_sc_hd__dfxtp_1
*CAP
1 *1222:A2 0
2 *1223:A2 0
3 *1347:Q 0.000688917
4 *332:18 8.46657e-05
5 *332:10 0.000773583
6 *332:18 *333:8 3.20914e-05
7 *1207:A *332:10 8.6732e-05
8 *1207:A *332:18 5.67058e-05
9 *1223:D1 *332:18 0.00014196
10 *1347:CLK *332:10 0.000109908
11 *1347:D *332:10 1.41077e-05
12 *82:40 *332:18 0.00014196
13 *247:151 *332:10 5.12328e-05
14 *269:107 *332:18 0
*RES
1 *1347:Q *332:10 33.7921 
2 *332:10 *332:18 32.9 
3 *332:18 *1223:A2 23 
4 *332:10 *1222:A2 23 
*END

*D_NET *333 0.00199145
*CONN
*I *1222:B1 I *D sky130_fd_sc_hd__o22ai_1
*I *1219:A2 I *D sky130_fd_sc_hd__a22o_1
*I *1348:Q O *D sky130_fd_sc_hd__dfxtp_1
*CAP
1 *1222:B1 3.54431e-05
2 *1219:A2 0.000465279
3 *1348:Q 0.00014233
4 *333:10 0.000500722
5 *333:8 0.00014233
6 *1219:A2 *1116:A 0.00015507
7 *1223:A1 *1222:B1 0.00010018
8 *1223:B1 *333:8 3.70187e-05
9 *45:8 *333:8 0
10 *82:40 *1219:A2 0.0002792
11 *82:40 *1222:B1 7.88926e-05
12 *164:10 *1219:A2 2.28916e-05
13 *269:107 *333:8 0
14 *332:18 *333:8 3.20914e-05
*RES
1 *1348:Q *333:8 40.61 
2 *333:8 *333:10 15 
3 *333:10 *1219:A2 31.7829 
4 *333:10 *1222:B1 24.5743 
*END

*D_NET *334 0.00202356
*CONN
*I *1224:A2 I *D sky130_fd_sc_hd__a211o_1
*I *1220:A2 I *D sky130_fd_sc_hd__o22ai_1
*I *1349:Q O *D sky130_fd_sc_hd__dfxtp_1
*CAP
1 *1224:A2 3.94823e-05
2 *1220:A2 0
3 *1349:Q 0.000435689
4 *334:16 0.000164255
5 *334:10 0.000639426
6 *334:16 *341:56 0
7 *1208:A *1224:A2 9.84851e-05
8 *1208:A *334:10 0.000251581
9 *1208:B *334:10 2.4754e-05
10 *46:6 *334:10 0.00010018
11 *80:55 *334:16 0
12 *80:72 *334:16 0
13 *81:62 *334:16 0
14 *81:81 *334:16 4.3407e-05
15 *250:66 *334:10 0.0002263
16 *250:66 *334:16 0
*RES
1 *1349:Q *334:10 31.2857 
2 *334:10 *334:16 32.9621 
3 *334:16 *1220:A2 23 
4 *334:10 *1224:A2 24.0979 
*END

*D_NET *335 0.00119935
*CONN
*I *1219:B1 I *D sky130_fd_sc_hd__a22o_1
*I *1116:A I *D sky130_fd_sc_hd__inv_2
*I *1350:Q O *D sky130_fd_sc_hd__dfxtp_1
*CAP
1 *1219:B1 0
2 *1116:A 3.94173e-05
3 *1350:Q 0.000378526
4 *335:12 3.94173e-05
5 *335:10 0.000378526
6 *1219:A2 *1116:A 0.00015507
7 *80:72 *335:10 4.08537e-05
8 *82:40 *1116:A 0.000120935
9 *287:10 *335:10 4.66036e-05
*RES
1 *1350:Q *335:10 43.2614 
2 *335:10 *335:12 15 
3 *335:12 *1116:A 25.5686 
4 *335:12 *1219:B1 23 
*END

*D_NET *336 0.00075468
*CONN
*I *1117:A I *D sky130_fd_sc_hd__inv_2
*I *1351:Q O *D sky130_fd_sc_hd__dfxtp_1
*CAP
1 *1117:A 0.000119391
2 *1351:Q 0.000257949
3 *336:8 0.00037734
4 *86:8 *336:8 0
*RES
1 *1351:Q *336:8 42.7229 
2 *336:8 *1117:A 40.0507 
*END

*D_NET *337 0.0108176
*CONN
*I *1110:A I *D sky130_fd_sc_hd__inv_2
*I *1121:B I *D sky130_fd_sc_hd__nor3_1
*I *1122:B I *D sky130_fd_sc_hd__or3_1
*I *1279:B1 I *D sky130_fd_sc_hd__a31o_1
*I *1128:A I *D sky130_fd_sc_hd__or3_1
*I *1401:A I *D sky130_fd_sc_hd__dlygate4sd3_1
*I *1325:A1_N I *D sky130_fd_sc_hd__a2bb2o_1
*I *1326:A1 I *D sky130_fd_sc_hd__o211ai_1
*I *1380:Q O *D sky130_fd_sc_hd__dfxtp_2
*CAP
1 *1110:A 0.000134161
2 *1121:B 0
3 *1122:B 0.000418127
4 *1279:B1 0.000145834
5 *1128:A 2.91798e-05
6 *1401:A 0.000184859
7 *1325:A1_N 0
8 *1326:A1 0.000309018
9 *1380:Q 0.000504186
10 *337:94 0.000169552
11 *337:77 0.000964455
12 *337:73 0.000744031
13 *337:60 0.000512552
14 *337:49 0.000184223
15 *337:34 0.000688468
16 *337:21 0.000604215
17 *337:10 0.000935229
18 *1110:A *341:37 9.5877e-05
19 *337:34 *1128:B 2.93845e-05
20 *337:34 *339:32 9.5877e-05
21 *337:34 *340:37 2.64616e-05
22 *337:34 *340:43 6.25829e-05
23 *337:94 *341:43 5.41288e-05
24 *1129:B *337:77 0.000128466
25 *1130:A1 *1401:A 0.000168821
26 *1130:A2 *1401:A 0.000400204
27 *1212:B *1401:A 0.000141052
28 *1212:B *337:60 7.91596e-05
29 *1212:B *337:73 1.58805e-05
30 *1277:B *1110:A 8.4047e-05
31 *1279:A3 *1279:B1 5.50106e-05
32 *1280:A1 *1122:B 9.62666e-05
33 *1325:A2_N *337:21 1.14452e-05
34 *1325:A2_N *337:34 0.000384805
35 *1325:B1 *337:34 0
36 *82:12 *337:34 0
37 *89:8 *337:94 2.5415e-05
38 *90:10 *1122:B 7.96152e-06
39 *93:10 *337:34 0
40 *94:8 *1128:A 1.24376e-05
41 *94:8 *1401:A 2.44913e-05
42 *154:10 *1110:A 3.3746e-05
43 *154:10 *337:73 0.000252329
44 *155:16 *1326:A1 0.000347442
45 *203:10 *1128:A 7.53384e-06
46 *203:10 *337:34 2.44913e-05
47 *203:10 *337:60 5.31444e-05
48 *203:10 *337:73 1.12487e-05
49 *204:16 *1279:B1 0
50 *205:10 *1122:B 0.000267173
51 *205:10 *337:77 8.52481e-05
52 *241:10 *1326:A1 0.00024615
53 *241:10 *337:21 0
54 *242:10 *337:10 0
55 *242:10 *337:21 0
56 *247:84 *1279:B1 6.53382e-05
57 *247:104 *1326:A1 0.000140259
58 *247:104 *337:10 3.884e-05
59 *254:12 *337:10 0.00017262
60 *259:25 *337:34 7.80035e-05
61 *269:90 *1110:A 4.38375e-05
62 *269:90 *337:10 4.30723e-05
63 *269:90 *337:21 5.86535e-05
64 *269:90 *337:34 3.78747e-05
65 *269:90 *337:60 1.94418e-05
66 *269:90 *337:73 0.000167444
67 *269:94 *1110:A 9.5877e-05
*RES
1 *1380:Q *337:10 46.12 
2 *337:10 *1326:A1 46.7207 
3 *337:10 *337:21 2.61 
4 *337:21 *1325:A1_N 38 
5 *337:21 *337:34 26.6 
6 *337:34 *1401:A 30.0014 
7 *337:34 *337:49 0.497143 
8 *337:49 *1128:A 24.0979 
9 *337:49 *337:60 17.2579 
10 *337:60 *1279:B1 40.5479 
11 *337:60 *337:73 7.18786 
12 *337:73 *337:77 20.3857 
13 *337:77 *1122:B 28.8621 
14 *337:77 *337:94 32.7964 
15 *337:94 *1121:B 23 
16 *337:73 *1110:A 41.3557 
*END

*D_NET *338 0.00304632
*CONN
*I *1122:C I *D sky130_fd_sc_hd__or3_1
*I *1277:C I *D sky130_fd_sc_hd__or3_1
*I *1211:B I *D sky130_fd_sc_hd__nand2b_1
*I *1121:C I *D sky130_fd_sc_hd__nor3_1
*I *1403:A I *D sky130_fd_sc_hd__dlygate4sd3_1
*I *1370:Q O *D sky130_fd_sc_hd__dfxtp_1
*CAP
1 *1122:C 0
2 *1277:C 0.000130724
3 *1211:B 7.343e-06
4 *1121:C 0
5 *1403:A 0
6 *1370:Q 0.0001873
7 *338:32 0.000271595
8 *338:23 0.000302365
9 *338:16 0.000393638
10 *338:8 0.000412101
11 *1211:B *1211:A_N 4.7812e-06
12 *1211:B *341:39 2.03196e-05
13 *1277:C *341:37 5.67058e-05
14 *1277:C *341:39 0.000264924
15 *338:16 *1122:A 0.000111148
16 *338:16 *340:14 0
17 *338:16 *341:43 5.50106e-05
18 *338:16 *341:56 1.22803e-05
19 *338:23 *341:43 0.000339983
20 *338:32 *1211:A_N 6.07084e-05
21 *338:32 *341:39 2.55612e-05
22 *338:32 *341:43 6.67283e-05
23 *1280:A1 *338:8 0.000122212
24 *80:14 *338:8 7.24365e-05
25 *80:18 *338:16 2.99716e-05
26 *269:94 *1277:C 9.84851e-05
*RES
1 *1370:Q *338:8 27.3293 
2 *338:8 *338:16 34.8886 
3 *338:16 *1403:A 23 
4 *338:16 *338:23 3.95643 
5 *338:23 *1121:C 23 
6 *338:23 *338:32 3.2625 
7 *338:32 *1211:B 23.7198 
8 *338:32 *1277:C 27.3604 
9 *338:8 *1122:C 23 
*END

*D_NET *339 0.00649409
*CONN
*I *1127:B I *D sky130_fd_sc_hd__or3_1
*I *1308:B I *D sky130_fd_sc_hd__or4_1
*I *1128:C I *D sky130_fd_sc_hd__or3_1
*I *1281:A2 I *D sky130_fd_sc_hd__a221o_1
*I *1278:B I *D sky130_fd_sc_hd__xnor2_1
*I *1112:A I *D sky130_fd_sc_hd__inv_2
*I *1371:Q O *D sky130_fd_sc_hd__dfxtp_1
*CAP
1 *1127:B 0.000148323
2 *1308:B 0
3 *1128:C 0
4 *1281:A2 0
5 *1278:B 1.49546e-05
6 *1112:A 0
7 *1371:Q 0.000214
8 *339:56 0.000770632
9 *339:40 0.000108487
10 *339:32 0.000193332
11 *339:23 0.000784035
12 *339:12 0.000834429
13 *339:8 0.000986503
14 *1278:B *340:37 3.91386e-05
15 *339:12 *340:22 0
16 *339:23 *340:22 0.000195293
17 *339:23 *340:33 0.000268288
18 *339:23 *340:37 9.24795e-06
19 *339:32 *340:37 3.34129e-05
20 *339:40 *340:43 0.000163361
21 *339:56 *340:14 4.43717e-05
22 *339:56 *340:22 0
23 *1123:C *339:23 0.000181125
24 *1281:B1 *339:40 6.07611e-06
25 *1300:C *339:23 0.000141052
26 *1387:A *339:8 2.64616e-05
27 *1391:A *339:56 0
28 *81:20 *339:23 1.32939e-05
29 *81:31 *339:23 9.36522e-05
30 *81:38 *339:23 2.25419e-05
31 *82:12 *339:40 0
32 *91:8 *339:23 5.50049e-05
33 *202:25 *1127:B 5.3304e-05
34 *202:33 *1127:B 0.000125213
35 *202:33 *339:56 0.000314157
36 *203:10 *339:32 2.64616e-05
37 *204:16 *339:40 1.46586e-05
38 *243:36 *339:12 0
39 *243:36 *339:56 0
40 *247:8 *339:8 8.2832e-05
41 *247:8 *339:56 0.000234159
42 *247:27 *339:56 0
43 *247:84 *339:40 1.46586e-05
44 *269:90 *339:40 0.000185755
45 *337:34 *339:32 9.5877e-05
*RES
1 *1371:Q *339:8 41.0036 
2 *339:8 *339:12 16.9057 
3 *339:12 *1112:A 23 
4 *339:12 *339:23 14.9557 
5 *339:23 *1278:B 23.4971 
6 *339:23 *339:32 2.05071 
7 *339:32 *339:40 32.7809 
8 *339:40 *1281:A2 23 
9 *339:32 *1128:C 23 
10 *339:8 *339:56 25.15 
11 *339:56 *1308:B 23 
12 *339:56 *1127:B 25.0507 
*END

*D_NET *340 0.00865229
*CONN
*I *1221:A1 I *D sky130_fd_sc_hd__a221o_1
*I *1111:A I *D sky130_fd_sc_hd__inv_2
*I *1308:A I *D sky130_fd_sc_hd__or4_1
*I *1278:A I *D sky130_fd_sc_hd__xnor2_1
*I *1128:B I *D sky130_fd_sc_hd__or3_1
*I *1281:A1 I *D sky130_fd_sc_hd__a221o_1
*I *1123:A I *D sky130_fd_sc_hd__or3_2
*I *1372:Q O *D sky130_fd_sc_hd__dfxtp_1
*CAP
1 *1221:A1 0.00072261
2 *1111:A 0
3 *1308:A 9.51014e-05
4 *1278:A 0
5 *1128:B 3.48511e-05
6 *1281:A1 0
7 *1123:A 0
8 *1372:Q 0.000280544
9 *340:69 0.000798551
10 *340:43 0.000140502
11 *340:37 0.000355577
12 *340:33 0.000447706
13 *340:22 0.000510454
14 *340:14 0.000907566
15 *340:8 0.000925978
16 *1221:A1 *1220:B2 4.95081e-05
17 *1123:C *340:33 0.000182826
18 *1127:A *1308:A 0.000355023
19 *1220:A1 *1221:A1 1.68475e-05
20 *1220:B1 *1221:A1 0.000290554
21 *1278:B *340:37 3.91386e-05
22 *1300:C *340:22 0.000114083
23 *80:14 *1221:A1 8.11552e-05
24 *80:14 *340:14 0.000223034
25 *80:14 *340:69 0.000131735
26 *80:18 *340:14 0
27 *80:18 *340:22 2.55642e-05
28 *80:55 *1221:A1 8.62876e-05
29 *81:38 *340:22 0.000176355
30 *81:49 *340:22 2.93747e-05
31 *81:49 *340:33 2.02872e-05
32 *82:12 *340:43 0
33 *86:12 *1221:A1 1.14876e-05
34 *91:10 *340:22 0
35 *202:33 *340:22 2.49733e-05
36 *247:8 *1308:A 0.000267167
37 *247:8 *340:14 0.000270682
38 *247:27 *340:14 0
39 *247:84 *1308:A 0.000128723
40 *250:66 *1221:A1 3.83778e-05
41 *269:90 *340:43 3.72639e-05
42 *337:34 *1128:B 2.93845e-05
43 *337:34 *340:37 2.64616e-05
44 *337:34 *340:43 6.25829e-05
45 *338:16 *340:14 0
46 *339:12 *340:22 0
47 *339:23 *340:22 0.000195293
48 *339:23 *340:33 0.000268288
49 *339:23 *340:37 9.24795e-06
50 *339:32 *340:37 3.34129e-05
51 *339:40 *340:43 0.000163361
52 *339:56 *340:14 4.43717e-05
53 *339:56 *340:22 0
*RES
1 *1372:Q *340:8 41.48 
2 *340:8 *340:14 27.6564 
3 *340:14 *340:22 36.9186 
4 *340:22 *1123:A 23 
5 *340:22 *340:33 6.50429 
6 *340:33 *340:37 3.25214 
7 *340:37 *340:43 33.3143 
8 *340:43 *1281:A1 23 
9 *340:37 *1128:B 23.6214 
10 *340:33 *1278:A 23 
11 *340:14 *1308:A 27.4329 
12 *340:8 *340:69 1.90571 
13 *340:69 *1111:A 38 
14 *340:69 *1221:A1 49.7036 
*END

*D_NET *341 0.00754479
*CONN
*I *1210:A I *D sky130_fd_sc_hd__and2_1
*I *1329:A1 I *D sky130_fd_sc_hd__o21a_1
*I *1277:A I *D sky130_fd_sc_hd__or3_1
*I *1211:A_N I *D sky130_fd_sc_hd__nand2b_1
*I *1121:A I *D sky130_fd_sc_hd__nor3_1
*I *1221:B2 I *D sky130_fd_sc_hd__a221o_1
*I *1220:B2 I *D sky130_fd_sc_hd__o22ai_1
*I *1122:A I *D sky130_fd_sc_hd__or3_1
*I *1129:A I *D sky130_fd_sc_hd__nand2_1
*I *1381:Q O *D sky130_fd_sc_hd__dfxtp_1
*CAP
1 *1210:A 0
2 *1329:A1 0
3 *1277:A 0
4 *1211:A_N 2.32025e-05
5 *1121:A 0
6 *1221:B2 3.65846e-05
7 *1220:B2 3.05029e-05
8 *1122:A 0.000103256
9 *1129:A 6.25279e-05
10 *1381:Q 0
11 *341:106 0.000164018
12 *341:56 0.000336618
13 *341:43 0.000618612
14 *341:39 0.000385092
15 *341:37 0.000284472
16 *341:22 0.000659363
17 *341:12 0.000785316
18 *341:4 0.000520908
19 *1110:A *341:37 9.5877e-05
20 *1118:A *341:106 2.93845e-05
21 *1210:B *341:106 6.48142e-05
22 *1211:B *1211:A_N 4.7812e-06
23 *1211:B *341:39 2.03196e-05
24 *1220:A1 *1220:B2 2.18778e-05
25 *1220:A1 *1221:B2 0
26 *1220:B1 *1220:B2 5.50049e-05
27 *1220:B1 *1221:B2 0.000106568
28 *1221:A1 *1220:B2 4.95081e-05
29 *1221:C1 *1220:B2 8.80833e-05
30 *1221:C1 *1221:B2 5.50106e-05
31 *1277:B *341:37 1.12487e-05
32 *1277:C *341:37 5.67058e-05
33 *1277:C *341:39 0.000264924
34 *1329:A2 *341:22 7.88926e-05
35 *1329:B1 *341:22 0.000141954
36 *1381:CLK *341:12 6.17437e-06
37 *8:10 *341:106 0
38 *78:8 *341:12 0
39 *81:49 *1122:A 4.21594e-06
40 *81:62 *1122:A 6.53609e-05
41 *81:62 *1221:B2 2.00852e-05
42 *81:62 *341:56 0.000134917
43 *87:8 *341:106 2.93845e-05
44 *87:12 *341:106 0.000223034
45 *95:10 *1129:A 4.9662e-05
46 *95:10 *341:22 0.000169665
47 *154:8 *341:37 0.000166981
48 *154:8 *341:39 0.000184527
49 *154:10 *341:22 3.81486e-05
50 *154:10 *341:37 0.000185104
51 *247:123 *341:12 0.000164282
52 *250:48 *341:12 0
53 *250:66 *341:56 0
54 *261:27 *341:106 0
55 *269:94 *341:37 3.75074e-05
56 *283:8 *341:22 0.000110636
57 *283:8 *341:37 7.41334e-05
58 *334:16 *341:56 0
59 *337:94 *341:43 5.41288e-05
60 *338:16 *1122:A 0.000111148
61 *338:16 *341:43 5.50106e-05
62 *338:16 *341:56 1.22803e-05
63 *338:23 *341:43 0.000339983
64 *338:32 *1211:A_N 6.07084e-05
65 *338:32 *341:39 2.55612e-05
66 *338:32 *341:43 6.67283e-05
*RES
1 *1381:Q *341:4 23 
2 *341:4 *341:12 35.2614 
3 *341:12 *341:22 25.0671 
4 *341:22 *1129:A 39.0979 
5 *341:22 *341:37 20.4893 
6 *341:37 *341:39 4.43286 
7 *341:39 *341:43 20.8621 
8 *341:43 *1122:A 40.9621 
9 *341:43 *341:56 20.7793 
10 *341:56 *1220:B2 24.5743 
11 *341:56 *1221:B2 24.7452 
12 *341:39 *1121:A 23 
13 *341:39 *1211:A_N 24.1186 
14 *341:37 *1277:A 23 
15 *341:12 *1329:A1 23 
16 *341:4 *341:106 34.2879 
17 *341:106 *1210:A 23 
*END
