*SPEF "ieee 1481-1999"
*DESIGN "secure_boot_system_wrapper"
*DATE "03:19:40 Friday February 20, 2026"
*VENDOR "The OpenROAD Project"
*PROGRAM "OpenROAD"
*VERSION "edf00dff99f6c40d67a30c0e22a8191c5d2ed9d6"
*DESIGN_FLOW "NAME_SCOPE LOCAL" "PIN_CAP NONE"
*DIVIDER /
*DELIMITER :
*BUS_DELIMITER []
*T_UNIT 1 NS
*C_UNIT 1 PF
*R_UNIT 1 OHM
*L_UNIT 1 HENRY

*NAME_MAP
*3 clk
*4 clock_glitch
*5 cold_reset_req
*6 debug_enable
*7 file_denied
*8 fsm_error
*9 fw_fail
*10 fw_ok
*11 global_pin_ok
*12 global_state_authorized
*13 global_state_bits[0]
*14 global_state_bits[1]
*15 global_state_bits[2]
*16 global_state_bits[3]
*17 global_state_bits[4]
*18 global_state_boot
*19 global_state_escalated
*20 global_state_locked
*21 global_state_safe_mode
*22 global_timeout_count[0]
*23 global_timeout_count[10]
*24 global_timeout_count[11]
*25 global_timeout_count[12]
*26 global_timeout_count[13]
*27 global_timeout_count[14]
*28 global_timeout_count[15]
*29 global_timeout_count[1]
*30 global_timeout_count[2]
*31 global_timeout_count[3]
*32 global_timeout_count[4]
*33 global_timeout_count[5]
*34 global_timeout_count[6]
*35 global_timeout_count[7]
*36 global_timeout_count[8]
*37 global_timeout_count[9]
*38 group_autolock
*39 group_error
*40 group_locked
*41 group_state_bits[0]
*42 group_state_bits[1]
*43 group_state_bits[2]
*44 group_state_bits[3]
*45 group_state_disabled
*46 group_state_locked
*47 group_state_suspended
*48 group_state_unlocked
*49 group_suspended
*50 group_timeout_count[0]
*51 group_timeout_count[10]
*52 group_timeout_count[11]
*53 group_timeout_count[12]
*54 group_timeout_count[13]
*55 group_timeout_count[14]
*56 group_timeout_count[15]
*57 group_timeout_count[1]
*58 group_timeout_count[2]
*59 group_timeout_count[3]
*60 group_timeout_count[4]
*61 group_timeout_count[5]
*62 group_timeout_count[6]
*63 group_timeout_count[7]
*64 group_timeout_count[8]
*65 group_timeout_count[9]
*66 group_unlocked
*67 hdr_parse_fail
*68 illegal_in
*69 power_glitch
*70 reset
*71 safe_led
*72 security_breach
*73 size_mismatch
*74 sticky_illegal
*75 sticky_tamper
*76 tamper_in
*77 unlock_enable
*78 unlock_req
*79 warm_reset_req
*80 _000_
*81 _001_
*82 _002_
*83 _003_
*84 _004_
*85 _005_
*86 _006_
*87 _007_
*88 _008_
*89 _009_
*90 _010_
*91 _011_
*92 _012_
*93 _013_
*94 _014_
*95 _015_
*96 _016_
*97 _017_
*98 _018_
*99 _019_
*100 _020_
*101 _021_
*102 _022_
*103 _023_
*104 _024_
*105 _025_
*106 _026_
*107 _027_
*108 _028_
*109 _029_
*110 _030_
*111 _031_
*112 _032_
*113 _033_
*114 _034_
*115 _035_
*116 _036_
*117 _037_
*118 _038_
*119 _039_
*120 _040_
*121 _041_
*122 _042_
*123 _043_
*124 _044_
*125 _045_
*126 _046_
*127 _047_
*128 _048_
*129 _049_
*130 _050_
*131 _051_
*132 _052_
*133 _053_
*134 _054_
*135 _055_
*136 _056_
*137 _057_
*138 _058_
*139 _059_
*140 _060_
*141 _061_
*142 _062_
*143 _063_
*144 _064_
*145 _065_
*146 _066_
*147 _067_
*148 _068_
*149 _069_
*150 _070_
*151 _071_
*152 _072_
*153 _073_
*154 _074_
*155 _075_
*156 _076_
*157 _077_
*158 _078_
*159 _079_
*160 _080_
*161 _081_
*162 _082_
*163 _083_
*164 _084_
*165 _085_
*166 _086_
*167 _087_
*168 _088_
*169 _089_
*170 _090_
*171 _091_
*172 _092_
*173 _093_
*174 _094_
*175 _095_
*176 _096_
*177 _097_
*178 _098_
*179 _099_
*180 _100_
*181 _101_
*182 _102_
*183 _103_
*184 _104_
*185 _105_
*186 _106_
*187 _107_
*188 _108_
*189 _109_
*190 _110_
*191 _111_
*192 _112_
*193 _113_
*194 _114_
*195 _115_
*196 _116_
*197 _117_
*198 _118_
*199 _119_
*200 _120_
*201 _121_
*202 _122_
*203 _123_
*204 _124_
*205 _125_
*206 _126_
*207 _127_
*208 _128_
*209 _129_
*210 _130_
*211 _131_
*212 _132_
*213 _133_
*214 _134_
*215 _135_
*216 _136_
*217 _137_
*218 _138_
*219 _139_
*220 _140_
*221 _141_
*222 _142_
*223 _143_
*224 _144_
*225 _145_
*226 _146_
*227 _147_
*228 _148_
*229 _149_
*230 _150_
*231 _151_
*232 _152_
*233 _153_
*234 _154_
*235 _155_
*236 _156_
*237 _157_
*238 _158_
*239 _159_
*240 _160_
*241 _161_
*242 _162_
*243 _163_
*244 _164_
*245 _165_
*246 _166_
*247 _167_
*248 _168_
*249 _169_
*250 _170_
*251 _171_
*252 _172_
*253 _173_
*254 _174_
*255 _175_
*256 _176_
*257 _177_
*258 _178_
*259 _179_
*260 _180_
*261 _181_
*262 _182_
*263 _183_
*264 _184_
*265 _185_
*266 _186_
*267 _187_
*268 _188_
*269 _189_
*270 _190_
*271 _191_
*272 _192_
*273 _193_
*274 _194_
*275 _195_
*276 _196_
*277 _197_
*278 _198_
*279 _199_
*280 _200_
*281 _201_
*282 _202_
*283 _203_
*284 _204_
*285 _205_
*286 _206_
*287 _207_
*288 _208_
*289 _209_
*290 clknet_0_clk
*291 clknet_2_0__leaf_clk
*292 clknet_2_1__leaf_clk
*293 clknet_2_2__leaf_clk
*294 clknet_2_3__leaf_clk
*295 net1
*296 net10
*297 net11
*298 net12
*299 net13
*300 net14
*301 net15
*302 net16
*303 net17
*304 net18
*305 net19
*306 net2
*307 net20
*308 net21
*309 net22
*310 net23
*311 net24
*312 net25
*313 net26
*314 net27
*315 net28
*316 net29
*317 net3
*318 net30
*319 net31
*320 net32
*321 net33
*322 net34
*323 net35
*324 net36
*325 net37
*326 net38
*327 net39
*328 net4
*329 net40
*330 net41
*331 net42
*332 net43
*333 net44
*334 net45
*335 net46
*336 net47
*337 net48
*338 net49
*339 net5
*340 net50
*341 net51
*342 net52
*343 net53
*344 net54
*345 net55
*346 net56
*347 net57
*348 net58
*349 net59
*350 net6
*351 net60
*352 net61
*353 net62
*354 net63
*355 net64
*356 net65
*357 net66
*358 net67
*359 net68
*360 net69
*361 net7
*362 net70
*363 net71
*364 net72
*365 net73
*366 net74
*367 net75
*368 net76
*369 net77
*370 net78
*371 net79
*372 net8
*373 net80
*374 net81
*375 net82
*376 net83
*377 net84
*378 net85
*379 net86
*380 net87
*381 net88
*382 net89
*383 net9
*384 net90
*385 net91
*386 net92
*387 net93
*388 net94
*389 net95
*390 net96
*391 u_global\.denial_counter\[0\]
*392 u_global\.denial_counter\[1\]
*393 u_global\.prev_state\[0\]
*394 u_global\.prev_state\[1\]
*395 u_global\.prev_state\[2\]
*396 u_global\.prev_state\[3\]
*397 u_global\.prev_state\[4\]
*398 ANTENNA_1
*399 FILLER_0_106
*400 FILLER_0_110
*401 FILLER_0_113
*402 FILLER_0_119
*403 FILLER_0_121
*404 FILLER_0_126
*405 FILLER_0_128
*406 FILLER_0_133
*407 FILLER_0_135
*408 FILLER_0_141
*409 FILLER_0_15
*410 FILLER_0_153
*411 FILLER_0_165
*412 FILLER_0_167
*413 FILLER_0_169
*414 FILLER_0_181
*415 FILLER_0_27
*416 FILLER_0_29
*417 FILLER_0_3
*418 FILLER_0_37
*419 FILLER_0_50
*420 FILLER_0_57
*421 FILLER_0_65
*422 FILLER_0_78
*423 FILLER_0_85
*424 FILLER_0_93
*425 FILLER_10_101
*426 FILLER_10_110
*427 FILLER_10_124
*428 FILLER_10_136
*429 FILLER_10_14
*430 FILLER_10_141
*431 FILLER_10_153
*432 FILLER_10_157
*433 FILLER_10_162
*434 FILLER_10_166
*435 FILLER_10_183
*436 FILLER_10_27
*437 FILLER_10_29
*438 FILLER_10_57
*439 FILLER_10_69
*440 FILLER_10_81
*441 FILLER_10_83
*442 FILLER_11_105
*443 FILLER_11_109
*444 FILLER_11_111
*445 FILLER_11_113
*446 FILLER_11_125
*447 FILLER_11_137
*448 FILLER_11_149
*449 FILLER_11_161
*450 FILLER_11_165
*451 FILLER_11_167
*452 FILLER_11_169
*453 FILLER_11_177
*454 FILLER_11_19
*455 FILLER_11_31
*456 FILLER_11_35
*457 FILLER_11_47
*458 FILLER_11_57
*459 FILLER_11_69
*460 FILLER_11_81
*461 FILLER_11_93
*462 FILLER_12_105
*463 FILLER_12_107
*464 FILLER_12_116
*465 FILLER_12_120
*466 FILLER_12_122
*467 FILLER_12_139
*468 FILLER_12_141
*469 FILLER_12_149
*470 FILLER_12_157
*471 FILLER_12_176
*472 FILLER_12_180
*473 FILLER_12_21
*474 FILLER_12_25
*475 FILLER_12_27
*476 FILLER_12_29
*477 FILLER_12_31
*478 FILLER_12_38
*479 FILLER_12_72
*480 FILLER_12_85
*481 FILLER_12_9
*482 FILLER_12_97
*483 FILLER_13_104
*484 FILLER_13_113
*485 FILLER_13_121
*486 FILLER_13_167
*487 FILLER_13_169
*488 FILLER_13_18
*489 FILLER_13_181
*490 FILLER_13_53
*491 FILLER_13_55
*492 FILLER_13_6
*493 FILLER_13_70
*494 FILLER_13_82
*495 FILLER_13_92
*496 FILLER_14_10
*497 FILLER_14_107
*498 FILLER_14_111
*499 FILLER_14_113
*500 FILLER_14_122
*501 FILLER_14_128
*502 FILLER_14_135
*503 FILLER_14_139
*504 FILLER_14_141
*505 FILLER_14_153
*506 FILLER_14_16
*507 FILLER_14_165
*508 FILLER_14_29
*509 FILLER_14_41
*510 FILLER_14_49
*511 FILLER_14_58
*512 FILLER_14_66
*513 FILLER_14_68
*514 FILLER_14_72
*515 FILLER_15_106
*516 FILLER_15_110
*517 FILLER_15_113
*518 FILLER_15_121
*519 FILLER_15_123
*520 FILLER_15_131
*521 FILLER_15_135
*522 FILLER_15_142
*523 FILLER_15_154
*524 FILLER_15_166
*525 FILLER_15_169
*526 FILLER_15_171
*527 FILLER_15_175
*528 FILLER_15_26
*529 FILLER_15_3
*530 FILLER_15_38
*531 FILLER_15_50
*532 FILLER_15_54
*533 FILLER_15_57
*534 FILLER_15_69
*535 FILLER_15_77
*536 FILLER_15_94
*537 FILLER_16_107
*538 FILLER_16_128
*539 FILLER_16_130
*540 FILLER_16_137
*541 FILLER_16_139
*542 FILLER_16_14
*543 FILLER_16_141
*544 FILLER_16_161
*545 FILLER_16_169
*546 FILLER_16_26
*547 FILLER_16_29
*548 FILLER_16_31
*549 FILLER_16_55
*550 FILLER_16_59
*551 FILLER_16_65
*552 FILLER_16_7
*553 FILLER_16_77
*554 FILLER_16_81
*555 FILLER_16_83
*556 FILLER_16_85
*557 FILLER_17_103
*558 FILLER_17_111
*559 FILLER_17_113
*560 FILLER_17_12
*561 FILLER_17_121
*562 FILLER_17_123
*563 FILLER_17_132
*564 FILLER_17_159
*565 FILLER_17_24
*566 FILLER_17_28
*567 FILLER_17_3
*568 FILLER_17_35
*569 FILLER_17_45
*570 FILLER_17_53
*571 FILLER_17_55
*572 FILLER_17_57
*573 FILLER_17_77
*574 FILLER_17_85
*575 FILLER_18_108
*576 FILLER_18_116
*577 FILLER_18_121
*578 FILLER_18_133
*579 FILLER_18_137
*580 FILLER_18_139
*581 FILLER_18_141
*582 FILLER_18_153
*583 FILLER_18_163
*584 FILLER_18_176
*585 FILLER_18_180
*586 FILLER_18_24
*587 FILLER_18_29
*588 FILLER_18_34
*589 FILLER_18_46
*590 FILLER_18_58
*591 FILLER_18_6
*592 FILLER_18_64
*593 FILLER_18_76
*594 FILLER_18_85
*595 FILLER_18_87
*596 FILLER_18_96
*597 FILLER_19_111
*598 FILLER_19_120
*599 FILLER_19_138
*600 FILLER_19_14
*601 FILLER_19_150
*602 FILLER_19_162
*603 FILLER_19_18
*604 FILLER_19_182
*605 FILLER_19_184
*606 FILLER_19_20
*607 FILLER_19_28
*608 FILLER_19_30
*609 FILLER_19_36
*610 FILLER_19_48
*611 FILLER_19_65
*612 FILLER_19_67
*613 FILLER_19_7
*614 FILLER_19_73
*615 FILLER_19_91
*616 FILLER_1_113
*617 FILLER_1_117
*618 FILLER_1_119
*619 FILLER_1_141
*620 FILLER_1_15
*621 FILLER_1_161
*622 FILLER_1_165
*623 FILLER_1_167
*624 FILLER_1_177
*625 FILLER_1_27
*626 FILLER_1_3
*627 FILLER_1_31
*628 FILLER_1_57
*629 FILLER_1_61
*630 FILLER_1_63
*631 FILLER_1_73
*632 FILLER_1_90
*633 FILLER_1_94
*634 FILLER_20_10
*635 FILLER_20_100
*636 FILLER_20_112
*637 FILLER_20_116
*638 FILLER_20_118
*639 FILLER_20_139
*640 FILLER_20_141
*641 FILLER_20_150
*642 FILLER_20_162
*643 FILLER_20_18
*644 FILLER_20_180
*645 FILLER_20_27
*646 FILLER_20_29
*647 FILLER_20_33
*648 FILLER_20_71
*649 FILLER_20_82
*650 FILLER_20_85
*651 FILLER_21_103
*652 FILLER_21_113
*653 FILLER_21_121
*654 FILLER_21_139
*655 FILLER_21_156
*656 FILLER_21_16
*657 FILLER_21_169
*658 FILLER_21_173
*659 FILLER_21_178
*660 FILLER_21_180
*661 FILLER_21_28
*662 FILLER_21_37
*663 FILLER_21_49
*664 FILLER_21_53
*665 FILLER_21_55
*666 FILLER_21_69
*667 FILLER_21_7
*668 FILLER_21_79
*669 FILLER_21_91
*670 FILLER_22_101
*671 FILLER_22_121
*672 FILLER_22_133
*673 FILLER_22_137
*674 FILLER_22_139
*675 FILLER_22_141
*676 FILLER_22_153
*677 FILLER_22_158
*678 FILLER_22_170
*679 FILLER_22_174
*680 FILLER_22_176
*681 FILLER_22_182
*682 FILLER_22_184
*683 FILLER_22_26
*684 FILLER_22_3
*685 FILLER_22_34
*686 FILLER_22_46
*687 FILLER_22_50
*688 FILLER_22_56
*689 FILLER_22_65
*690 FILLER_22_77
*691 FILLER_22_79
*692 FILLER_23_10
*693 FILLER_23_103
*694 FILLER_23_111
*695 FILLER_23_113
*696 FILLER_23_125
*697 FILLER_23_135
*698 FILLER_23_147
*699 FILLER_23_151
*700 FILLER_23_161
*701 FILLER_23_165
*702 FILLER_23_167
*703 FILLER_23_169
*704 FILLER_23_22
*705 FILLER_23_3
*706 FILLER_23_30
*707 FILLER_23_40
*708 FILLER_23_45
*709 FILLER_23_55
*710 FILLER_23_67
*711 FILLER_23_79
*712 FILLER_23_91
*713 FILLER_24_109
*714 FILLER_24_121
*715 FILLER_24_129
*716 FILLER_24_131
*717 FILLER_24_141
*718 FILLER_24_175
*719 FILLER_24_177
*720 FILLER_24_19
*721 FILLER_24_27
*722 FILLER_24_29
*723 FILLER_24_41
*724 FILLER_24_53
*725 FILLER_24_60
*726 FILLER_24_68
*727 FILLER_24_7
*728 FILLER_24_85
*729 FILLER_24_97
*730 FILLER_25_110
*731 FILLER_25_116
*732 FILLER_25_134
*733 FILLER_25_138
*734 FILLER_25_148
*735 FILLER_25_160
*736 FILLER_25_169
*737 FILLER_25_180
*738 FILLER_25_27
*739 FILLER_25_38
*740 FILLER_25_50
*741 FILLER_25_54
*742 FILLER_25_57
*743 FILLER_25_69
*744 FILLER_25_7
*745 FILLER_25_71
*746 FILLER_25_96
*747 FILLER_26_122
*748 FILLER_26_141
*749 FILLER_26_143
*750 FILLER_26_147
*751 FILLER_26_156
*752 FILLER_26_160
*753 FILLER_26_184
*754 FILLER_26_19
*755 FILLER_26_27
*756 FILLER_26_3
*757 FILLER_26_52
*758 FILLER_26_79
*759 FILLER_26_83
*760 FILLER_26_85
*761 FILLER_26_97
*762 FILLER_27_100
*763 FILLER_27_11
*764 FILLER_27_113
*765 FILLER_27_125
*766 FILLER_27_129
*767 FILLER_27_138
*768 FILLER_27_140
*769 FILLER_27_160
*770 FILLER_27_169
*771 FILLER_27_23
*772 FILLER_27_27
*773 FILLER_27_35
*774 FILLER_27_39
*775 FILLER_27_51
*776 FILLER_27_55
*777 FILLER_27_64
*778 FILLER_27_76
*779 FILLER_27_88
*780 FILLER_28_100
*781 FILLER_28_11
*782 FILLER_28_110
*783 FILLER_28_118
*784 FILLER_28_126
*785 FILLER_28_136
*786 FILLER_28_149
*787 FILLER_28_153
*788 FILLER_28_160
*789 FILLER_28_164
*790 FILLER_28_166
*791 FILLER_28_174
*792 FILLER_28_182
*793 FILLER_28_184
*794 FILLER_28_23
*795 FILLER_28_27
*796 FILLER_28_3
*797 FILLER_28_35
*798 FILLER_28_47
*799 FILLER_28_49
*800 FILLER_28_5
*801 FILLER_28_66
*802 FILLER_28_70
*803 FILLER_28_77
*804 FILLER_28_81
*805 FILLER_28_83
*806 FILLER_28_88
*807 FILLER_28_92
*808 FILLER_28_96
*809 FILLER_29_113
*810 FILLER_29_147
*811 FILLER_29_151
*812 FILLER_29_169
*813 FILLER_29_27
*814 FILLER_29_29
*815 FILLER_29_46
*816 FILLER_29_54
*817 FILLER_29_60
*818 FILLER_2_101
*819 FILLER_2_107
*820 FILLER_2_119
*821 FILLER_2_123
*822 FILLER_2_125
*823 FILLER_2_138
*824 FILLER_2_141
*825 FILLER_2_164
*826 FILLER_2_168
*827 FILLER_2_19
*828 FILLER_2_27
*829 FILLER_2_29
*830 FILLER_2_41
*831 FILLER_2_53
*832 FILLER_2_65
*833 FILLER_2_67
*834 FILLER_2_7
*835 FILLER_2_81
*836 FILLER_2_83
*837 FILLER_2_85
*838 FILLER_2_97
*839 FILLER_30_100
*840 FILLER_30_113
*841 FILLER_30_118
*842 FILLER_30_126
*843 FILLER_30_128
*844 FILLER_30_132
*845 FILLER_30_141
*846 FILLER_30_147
*847 FILLER_30_149
*848 FILLER_30_154
*849 FILLER_30_159
*850 FILLER_30_167
*851 FILLER_30_169
*852 FILLER_30_174
*853 FILLER_30_178
*854 FILLER_30_180
*855 FILLER_30_19
*856 FILLER_30_27
*857 FILLER_30_29
*858 FILLER_30_37
*859 FILLER_30_49
*860 FILLER_30_51
*861 FILLER_30_57
*862 FILLER_30_63
*863 FILLER_30_65
*864 FILLER_30_70
*865 FILLER_30_72
*866 FILLER_30_77
*867 FILLER_30_79
*868 FILLER_30_85
*869 FILLER_30_91
*870 FILLER_30_93
*871 FILLER_30_98
*872 FILLER_3_109
*873 FILLER_3_111
*874 FILLER_3_120
*875 FILLER_3_132
*876 FILLER_3_144
*877 FILLER_3_15
*878 FILLER_3_156
*879 FILLER_3_169
*880 FILLER_3_27
*881 FILLER_3_3
*882 FILLER_3_39
*883 FILLER_3_47
*884 FILLER_3_53
*885 FILLER_3_55
*886 FILLER_3_57
*887 FILLER_3_69
*888 FILLER_3_81
*889 FILLER_3_97
*890 FILLER_4_109
*891 FILLER_4_125
*892 FILLER_4_133
*893 FILLER_4_138
*894 FILLER_4_141
*895 FILLER_4_152
*896 FILLER_4_160
*897 FILLER_4_169
*898 FILLER_4_173
*899 FILLER_4_183
*900 FILLER_4_19
*901 FILLER_4_27
*902 FILLER_4_45
*903 FILLER_4_7
*904 FILLER_4_76
*905 FILLER_5_11
*906 FILLER_5_111
*907 FILLER_5_118
*908 FILLER_5_122
*909 FILLER_5_124
*910 FILLER_5_148
*911 FILLER_5_150
*912 FILLER_5_164
*913 FILLER_5_23
*914 FILLER_5_35
*915 FILLER_5_47
*916 FILLER_5_55
*917 FILLER_5_57
*918 FILLER_5_74
*919 FILLER_5_86
*920 FILLER_5_90
*921 FILLER_5_99
*922 FILLER_6_110
*923 FILLER_6_112
*924 FILLER_6_125
*925 FILLER_6_13
*926 FILLER_6_137
*927 FILLER_6_139
*928 FILLER_6_141
*929 FILLER_6_153
*930 FILLER_6_155
*931 FILLER_6_170
*932 FILLER_6_178
*933 FILLER_6_180
*934 FILLER_6_20
*935 FILLER_6_34
*936 FILLER_6_42
*937 FILLER_6_49
*938 FILLER_6_61
*939 FILLER_6_63
*940 FILLER_6_85
*941 FILLER_6_97
*942 FILLER_7_105
*943 FILLER_7_109
*944 FILLER_7_111
*945 FILLER_7_120
*946 FILLER_7_132
*947 FILLER_7_144
*948 FILLER_7_156
*949 FILLER_7_169
*950 FILLER_7_26
*951 FILLER_7_38
*952 FILLER_7_57
*953 FILLER_7_69
*954 FILLER_7_81
*955 FILLER_7_93
*956 FILLER_7_97
*957 FILLER_7_99
*958 FILLER_8_111
*959 FILLER_8_113
*960 FILLER_8_118
*961 FILLER_8_130
*962 FILLER_8_138
*963 FILLER_8_146
*964 FILLER_8_148
*965 FILLER_8_163
*966 FILLER_8_167
*967 FILLER_8_184
*968 FILLER_8_19
*969 FILLER_8_27
*970 FILLER_8_29
*971 FILLER_8_41
*972 FILLER_8_43
*973 FILLER_8_49
*974 FILLER_8_61
*975 FILLER_8_65
*976 FILLER_8_7
*977 FILLER_8_71
*978 FILLER_8_83
*979 FILLER_8_85
*980 FILLER_8_89
*981 FILLER_8_99
*982 FILLER_9_104
*983 FILLER_9_142
*984 FILLER_9_153
*985 FILLER_9_157
*986 FILLER_9_159
*987 FILLER_9_173
*988 FILLER_9_19
*989 FILLER_9_28
*990 FILLER_9_37
*991 FILLER_9_49
*992 FILLER_9_53
*993 FILLER_9_55
*994 FILLER_9_57
*995 FILLER_9_7
*996 FILLER_9_81
*997 FILLER_9_85
*998 FILLER_9_87
*999 FILLER_9_92
*1000 PHY_EDGE_ROW_0_Left_31
*1001 PHY_EDGE_ROW_0_Right_0
*1002 PHY_EDGE_ROW_10_Left_41
*1003 PHY_EDGE_ROW_10_Right_10
*1004 PHY_EDGE_ROW_11_Left_42
*1005 PHY_EDGE_ROW_11_Right_11
*1006 PHY_EDGE_ROW_12_Left_43
*1007 PHY_EDGE_ROW_12_Right_12
*1008 PHY_EDGE_ROW_13_Left_44
*1009 PHY_EDGE_ROW_13_Right_13
*1010 PHY_EDGE_ROW_14_Left_45
*1011 PHY_EDGE_ROW_14_Right_14
*1012 PHY_EDGE_ROW_15_Left_46
*1013 PHY_EDGE_ROW_15_Right_15
*1014 PHY_EDGE_ROW_16_Left_47
*1015 PHY_EDGE_ROW_16_Right_16
*1016 PHY_EDGE_ROW_17_Left_48
*1017 PHY_EDGE_ROW_17_Right_17
*1018 PHY_EDGE_ROW_18_Left_49
*1019 PHY_EDGE_ROW_18_Right_18
*1020 PHY_EDGE_ROW_19_Left_50
*1021 PHY_EDGE_ROW_19_Right_19
*1022 PHY_EDGE_ROW_1_Left_32
*1023 PHY_EDGE_ROW_1_Right_1
*1024 PHY_EDGE_ROW_20_Left_51
*1025 PHY_EDGE_ROW_20_Right_20
*1026 PHY_EDGE_ROW_21_Left_52
*1027 PHY_EDGE_ROW_21_Right_21
*1028 PHY_EDGE_ROW_22_Left_53
*1029 PHY_EDGE_ROW_22_Right_22
*1030 PHY_EDGE_ROW_23_Left_54
*1031 PHY_EDGE_ROW_23_Right_23
*1032 PHY_EDGE_ROW_24_Left_55
*1033 PHY_EDGE_ROW_24_Right_24
*1034 PHY_EDGE_ROW_25_Left_56
*1035 PHY_EDGE_ROW_25_Right_25
*1036 PHY_EDGE_ROW_26_Left_57
*1037 PHY_EDGE_ROW_26_Right_26
*1038 PHY_EDGE_ROW_27_Left_58
*1039 PHY_EDGE_ROW_27_Right_27
*1040 PHY_EDGE_ROW_28_Left_59
*1041 PHY_EDGE_ROW_28_Right_28
*1042 PHY_EDGE_ROW_29_Left_60
*1043 PHY_EDGE_ROW_29_Right_29
*1044 PHY_EDGE_ROW_2_Left_33
*1045 PHY_EDGE_ROW_2_Right_2
*1046 PHY_EDGE_ROW_30_Left_61
*1047 PHY_EDGE_ROW_30_Right_30
*1048 PHY_EDGE_ROW_3_Left_34
*1049 PHY_EDGE_ROW_3_Right_3
*1050 PHY_EDGE_ROW_4_Left_35
*1051 PHY_EDGE_ROW_4_Right_4
*1052 PHY_EDGE_ROW_5_Left_36
*1053 PHY_EDGE_ROW_5_Right_5
*1054 PHY_EDGE_ROW_6_Left_37
*1055 PHY_EDGE_ROW_6_Right_6
*1056 PHY_EDGE_ROW_7_Left_38
*1057 PHY_EDGE_ROW_7_Right_7
*1058 PHY_EDGE_ROW_8_Left_39
*1059 PHY_EDGE_ROW_8_Right_8
*1060 PHY_EDGE_ROW_9_Left_40
*1061 PHY_EDGE_ROW_9_Right_9
*1062 TAP_TAPCELL_ROW_0_62
*1063 TAP_TAPCELL_ROW_0_63
*1064 TAP_TAPCELL_ROW_0_64
*1065 TAP_TAPCELL_ROW_0_65
*1066 TAP_TAPCELL_ROW_0_66
*1067 TAP_TAPCELL_ROW_0_67
*1068 TAP_TAPCELL_ROW_10_95
*1069 TAP_TAPCELL_ROW_10_96
*1070 TAP_TAPCELL_ROW_10_97
*1071 TAP_TAPCELL_ROW_11_100
*1072 TAP_TAPCELL_ROW_11_98
*1073 TAP_TAPCELL_ROW_11_99
*1074 TAP_TAPCELL_ROW_12_101
*1075 TAP_TAPCELL_ROW_12_102
*1076 TAP_TAPCELL_ROW_12_103
*1077 TAP_TAPCELL_ROW_13_104
*1078 TAP_TAPCELL_ROW_13_105
*1079 TAP_TAPCELL_ROW_13_106
*1080 TAP_TAPCELL_ROW_14_107
*1081 TAP_TAPCELL_ROW_14_108
*1082 TAP_TAPCELL_ROW_14_109
*1083 TAP_TAPCELL_ROW_15_110
*1084 TAP_TAPCELL_ROW_15_111
*1085 TAP_TAPCELL_ROW_15_112
*1086 TAP_TAPCELL_ROW_16_113
*1087 TAP_TAPCELL_ROW_16_114
*1088 TAP_TAPCELL_ROW_16_115
*1089 TAP_TAPCELL_ROW_17_116
*1090 TAP_TAPCELL_ROW_17_117
*1091 TAP_TAPCELL_ROW_17_118
*1092 TAP_TAPCELL_ROW_18_119
*1093 TAP_TAPCELL_ROW_18_120
*1094 TAP_TAPCELL_ROW_18_121
*1095 TAP_TAPCELL_ROW_19_122
*1096 TAP_TAPCELL_ROW_19_123
*1097 TAP_TAPCELL_ROW_19_124
*1098 TAP_TAPCELL_ROW_1_68
*1099 TAP_TAPCELL_ROW_1_69
*1100 TAP_TAPCELL_ROW_1_70
*1101 TAP_TAPCELL_ROW_20_125
*1102 TAP_TAPCELL_ROW_20_126
*1103 TAP_TAPCELL_ROW_20_127
*1104 TAP_TAPCELL_ROW_21_128
*1105 TAP_TAPCELL_ROW_21_129
*1106 TAP_TAPCELL_ROW_21_130
*1107 TAP_TAPCELL_ROW_22_131
*1108 TAP_TAPCELL_ROW_22_132
*1109 TAP_TAPCELL_ROW_22_133
*1110 TAP_TAPCELL_ROW_23_134
*1111 TAP_TAPCELL_ROW_23_135
*1112 TAP_TAPCELL_ROW_23_136
*1113 TAP_TAPCELL_ROW_24_137
*1114 TAP_TAPCELL_ROW_24_138
*1115 TAP_TAPCELL_ROW_24_139
*1116 TAP_TAPCELL_ROW_25_140
*1117 TAP_TAPCELL_ROW_25_141
*1118 TAP_TAPCELL_ROW_25_142
*1119 TAP_TAPCELL_ROW_26_143
*1120 TAP_TAPCELL_ROW_26_144
*1121 TAP_TAPCELL_ROW_26_145
*1122 TAP_TAPCELL_ROW_27_146
*1123 TAP_TAPCELL_ROW_27_147
*1124 TAP_TAPCELL_ROW_27_148
*1125 TAP_TAPCELL_ROW_28_149
*1126 TAP_TAPCELL_ROW_28_150
*1127 TAP_TAPCELL_ROW_28_151
*1128 TAP_TAPCELL_ROW_29_152
*1129 TAP_TAPCELL_ROW_29_153
*1130 TAP_TAPCELL_ROW_29_154
*1131 TAP_TAPCELL_ROW_2_71
*1132 TAP_TAPCELL_ROW_2_72
*1133 TAP_TAPCELL_ROW_2_73
*1134 TAP_TAPCELL_ROW_30_155
*1135 TAP_TAPCELL_ROW_30_156
*1136 TAP_TAPCELL_ROW_30_157
*1137 TAP_TAPCELL_ROW_30_158
*1138 TAP_TAPCELL_ROW_30_159
*1139 TAP_TAPCELL_ROW_30_160
*1140 TAP_TAPCELL_ROW_3_74
*1141 TAP_TAPCELL_ROW_3_75
*1142 TAP_TAPCELL_ROW_3_76
*1143 TAP_TAPCELL_ROW_4_77
*1144 TAP_TAPCELL_ROW_4_78
*1145 TAP_TAPCELL_ROW_4_79
*1146 TAP_TAPCELL_ROW_5_80
*1147 TAP_TAPCELL_ROW_5_81
*1148 TAP_TAPCELL_ROW_5_82
*1149 TAP_TAPCELL_ROW_6_83
*1150 TAP_TAPCELL_ROW_6_84
*1151 TAP_TAPCELL_ROW_6_85
*1152 TAP_TAPCELL_ROW_7_86
*1153 TAP_TAPCELL_ROW_7_87
*1154 TAP_TAPCELL_ROW_7_88
*1155 TAP_TAPCELL_ROW_8_89
*1156 TAP_TAPCELL_ROW_8_90
*1157 TAP_TAPCELL_ROW_8_91
*1158 TAP_TAPCELL_ROW_9_92
*1159 TAP_TAPCELL_ROW_9_93
*1160 TAP_TAPCELL_ROW_9_94
*1161 _210_
*1162 _211_
*1163 _212_
*1164 _213_
*1165 _214_
*1166 _215_
*1167 _216_
*1168 _217_
*1169 _218_
*1170 _219_
*1171 _220_
*1172 _221_
*1173 _222_
*1174 _223_
*1175 _224_
*1176 _225_
*1177 _226_
*1178 _227_
*1179 _228_
*1180 _229_
*1181 _230_
*1182 _231_
*1183 _232_
*1184 _233_
*1185 _234_
*1186 _235_
*1187 _236_
*1188 _237_
*1189 _238_
*1190 _239_
*1191 _240_
*1192 _241_
*1193 _242_
*1194 _243_
*1195 _244_
*1196 _245_
*1197 _246_
*1198 _247_
*1199 _248_
*1200 _249_
*1201 _250_
*1202 _251_
*1203 _252_
*1204 _253_
*1205 _254_
*1206 _255_
*1207 _256_
*1208 _257_
*1209 _258_
*1210 _259_
*1211 _260_
*1212 _261_
*1213 _262_
*1214 _263_
*1215 _264_
*1216 _265_
*1217 _266_
*1218 _267_
*1219 _268_
*1220 _269_
*1221 _270_
*1222 _271_
*1223 _272_
*1224 _273_
*1225 _274_
*1226 _275_
*1227 _276_
*1228 _277_
*1229 _278_
*1230 _279_
*1231 _280_
*1232 _281_
*1233 _282_
*1234 _283_
*1235 _284_
*1236 _285_
*1237 _286_
*1238 _287_
*1239 _288_
*1240 _289_
*1241 _290_
*1242 _291_
*1243 _292_
*1244 _293_
*1245 _294_
*1246 _295_
*1247 _296_
*1248 _297_
*1249 _298_
*1250 _299_
*1251 _300_
*1252 _301_
*1253 _302_
*1254 _303_
*1255 _304_
*1256 _305_
*1257 _306_
*1258 _307_
*1259 _308_
*1260 _309_
*1261 _310_
*1262 _311_
*1263 _312_
*1264 _313_
*1265 _314_
*1266 _315_
*1267 _316_
*1268 _317_
*1269 _318_
*1270 _319_
*1271 _320_
*1272 _321_
*1273 _322_
*1274 _323_
*1275 _324_
*1276 _325_
*1277 _326_
*1278 _327_
*1279 _328_
*1280 _329_
*1281 _330_
*1282 _331_
*1283 _332_
*1284 _333_
*1285 _334_
*1286 _335_
*1287 _336_
*1288 _337_
*1289 _338_
*1290 _339_
*1291 _340_
*1292 _341_
*1293 _342_
*1294 _343_
*1295 _344_
*1296 _345_
*1297 _346_
*1298 _347_
*1299 _348_
*1300 _349_
*1301 _350_
*1302 _351_
*1303 _352_
*1304 _353_
*1305 _354_
*1306 _355_
*1307 _356_
*1308 _357_
*1309 _358_
*1310 _359_
*1311 _360_
*1312 _361_
*1313 _362_
*1314 _363_
*1315 _364_
*1316 _365_
*1317 _366_
*1318 _367_
*1319 _368_
*1320 _369_
*1321 _370_
*1322 _371_
*1323 _372_
*1324 _373_
*1325 _374_
*1326 _375_
*1327 _376_
*1328 _377_
*1329 _378_
*1330 _379_
*1331 _380_
*1332 _381_
*1333 _382_
*1334 _383_
*1335 _384_
*1336 _385_
*1337 _386_
*1338 _387_
*1339 _388_
*1340 _389_
*1341 _390_
*1342 _391_
*1343 _392_
*1344 _393_
*1345 _394_
*1346 _395_
*1347 _396_
*1348 _397_
*1349 _398_
*1350 _399_
*1351 _400_
*1352 _401_
*1353 _402_
*1354 _403_
*1355 _404_
*1356 _405_
*1357 _406_
*1358 _407_
*1359 _408_
*1360 _409_
*1361 _410_
*1362 _411_
*1363 _412_
*1364 _413_
*1365 _414_
*1366 _415_
*1367 _416_
*1368 _417_
*1369 _418_
*1370 _419_
*1371 _420_
*1372 _421_
*1373 _422_
*1374 _423_
*1375 _424_
*1376 _425_
*1377 _426_
*1378 _427_
*1379 _428_
*1380 _429_
*1381 _430_
*1382 _431_
*1383 _432_
*1384 _433_
*1385 _434_
*1386 _435_
*1387 _436_
*1388 _437_
*1389 _438_
*1390 _439_
*1391 _440_
*1392 _441_
*1393 _442_
*1394 _443_
*1395 _444_
*1396 _445_
*1397 _446_
*1398 _447_
*1399 _448_
*1400 _449_
*1401 _450_
*1402 _451_
*1403 _452_
*1404 _453_
*1405 _454_
*1406 _455_
*1407 _456_
*1408 _457_
*1409 _458_
*1410 _459_
*1411 _460_
*1412 _461_
*1413 _462_
*1414 _463_
*1415 _464_
*1416 _465_
*1417 _466_
*1418 _467_
*1419 _468_
*1420 _469_
*1421 _470_
*1422 _471_
*1423 _472_
*1424 _473_
*1425 _474_
*1426 _475_
*1427 _476_
*1428 _477_
*1429 _478_
*1430 _479_
*1431 _480_
*1432 _481_
*1433 _482_
*1434 _483_
*1435 _484_
*1436 _485_
*1437 _486_
*1438 _487_
*1439 clkbuf_0_clk
*1440 clkbuf_2_0__f_clk
*1441 clkbuf_2_1__f_clk
*1442 clkbuf_2_2__f_clk
*1443 clkbuf_2_3__f_clk
*1444 clkload0
*1445 clkload1
*1446 clkload2
*1447 fanout77
*1448 fanout78
*1449 fanout79
*1450 fanout80
*1451 fanout82
*1452 hold1
*1453 hold10
*1454 hold11
*1455 hold12
*1456 hold13
*1457 hold14
*1458 hold2
*1459 hold3
*1460 hold4
*1461 hold5
*1462 hold6
*1463 hold7
*1464 hold8
*1465 hold9
*1466 input1
*1467 input10
*1468 input11
*1469 input12
*1470 input13
*1471 input14
*1472 input15
*1473 input2
*1474 input3
*1475 input4
*1476 input5
*1477 input6
*1478 input7
*1479 input8
*1480 input9
*1481 output16
*1482 output17
*1483 output18
*1484 output19
*1485 output20
*1486 output21
*1487 output22
*1488 output23
*1489 output24
*1490 output25
*1491 output26
*1492 output27
*1493 output28
*1494 output29
*1495 output30
*1496 output31
*1497 output32
*1498 output33
*1499 output34
*1500 output35
*1501 output36
*1502 output37
*1503 output38
*1504 output39
*1505 output40
*1506 output41
*1507 output42
*1508 output43
*1509 output44
*1510 output45
*1511 output46
*1512 output47
*1513 output48
*1514 output49
*1515 output50
*1516 output51
*1517 output52
*1518 output53
*1519 output54
*1520 output55
*1521 output56
*1522 output57
*1523 output58
*1524 output59
*1525 output60
*1526 output61
*1527 output62
*1528 output63
*1529 output64
*1530 output65
*1531 output66
*1532 output67
*1533 output68
*1534 output69
*1535 output70
*1536 output71
*1537 output72
*1538 output73
*1539 output74
*1540 output75
*1541 output76
*1542 wire81

*PORTS
clk I
clock_glitch I
cold_reset_req I
debug_enable O
file_denied I
fsm_error O
fw_fail I
fw_ok I
global_pin_ok I
global_state_authorized O
global_state_bits[0] O
global_state_bits[1] O
global_state_bits[2] O
global_state_bits[3] O
global_state_bits[4] O
global_state_boot O
global_state_escalated O
global_state_locked O
global_state_safe_mode O
global_timeout_count[0] O
global_timeout_count[10] O
global_timeout_count[11] O
global_timeout_count[12] O
global_timeout_count[13] O
global_timeout_count[14] O
global_timeout_count[15] O
global_timeout_count[1] O
global_timeout_count[2] O
global_timeout_count[3] O
global_timeout_count[4] O
global_timeout_count[5] O
global_timeout_count[6] O
global_timeout_count[7] O
global_timeout_count[8] O
global_timeout_count[9] O
group_autolock I
group_error O
group_locked O
group_state_bits[0] O
group_state_bits[1] O
group_state_bits[2] O
group_state_bits[3] O
group_state_disabled O
group_state_locked O
group_state_suspended O
group_state_unlocked O
group_suspended O
group_timeout_count[0] O
group_timeout_count[10] O
group_timeout_count[11] O
group_timeout_count[12] O
group_timeout_count[13] O
group_timeout_count[14] O
group_timeout_count[15] O
group_timeout_count[1] O
group_timeout_count[2] O
group_timeout_count[3] O
group_timeout_count[4] O
group_timeout_count[5] O
group_timeout_count[6] O
group_timeout_count[7] O
group_timeout_count[8] O
group_timeout_count[9] O
group_unlocked O
hdr_parse_fail I
illegal_in I
power_glitch I
reset I
safe_led O
security_breach O
size_mismatch I
sticky_illegal O
sticky_tamper O
tamper_in I
unlock_enable O
unlock_req I
warm_reset_req I

*D_NET *3 0.0108623
*CONN
*P clk I
*I *1439:A I *D sky130_fd_sc_hd__clkbuf_16
*CAP
1 clk 0.00204368
2 *1439:A 0.00173369
3 *3:11 0.00377737
4 *1439:A *1291:A1 0.000320024
5 *1439:A *1333:A 0.000613007
6 *1439:A *1333:B 4.49726e-05
7 *1439:A *1333:C 1.95435e-05
8 *1439:A *1336:B 2.343e-05
9 *1439:A *1337:B 5.52238e-05
10 *1439:A *1339:B 0.000186669
11 *1439:A *1414:CLK 3.18676e-05
12 *1439:A *1414:D 0.000185062
13 *1439:A *262:14 0.00078145
14 *1439:A *290:8 0.000148168
15 *1439:A *357:12 0.00020562
16 *1439:A *358:29 3.68898e-05
17 *1439:A *358:39 0.000188586
18 *3:11 debug_enable 5.8303e-05
19 *3:11 group_state_unlocked 9.16506e-05
20 *3:11 group_timeout_count[10] 0
21 *3:11 group_timeout_count[11] 3.52391e-05
22 *3:11 group_timeout_count[12] 3.52391e-05
23 *3:11 group_timeout_count[13] 6.56976e-05
24 *3:11 group_timeout_count[14] 6.34448e-05
25 *3:11 group_timeout_count[5] 9.59532e-06
26 *3:11 *1360:B 0
27 *3:11 *1361:A_N 3.79467e-05
28 *3:11 *1361:C 0
29 *3:11 *1436:A 0
30 *3:11 *1474:A 8.22793e-06
31 *3:11 *1477:A 8.23597e-06
32 *3:11 *1478:A 0
33 *3:11 *1518:A 0
34 *3:11 *1524:A 0
35 *3:11 *1536:A 0
36 *3:11 *348:12 5.35169e-05
37 *3:11 *349:29 0
38 *3:11 *350:12 0
39 *3:11 *361:12 0
*RES
1 clk *3:11 45.3388 
2 *3:11 *1439:A 46.2643 
*END

*D_NET *4 0.000429989
*CONN
*P clock_glitch I
*I *1466:A I *D sky130_fd_sc_hd__clkbuf_1
*CAP
1 clock_glitch 0.000130546
2 *1466:A 0.000130546
3 *1466:A global_state_locked 8.57347e-05
4 *1466:A *1226:A 0
5 *1466:A *1467:A 8.31618e-05
*RES
1 clock_glitch *1466:A 18.1229 
*END

*D_NET *5 0.000525278
*CONN
*P cold_reset_req I
*I *1473:A I *D sky130_fd_sc_hd__clkbuf_2
*CAP
1 cold_reset_req 0.000159508
2 *1473:A 0.000159508
3 *1473:A global_timeout_count[11] 9.54485e-05
4 *1473:A global_timeout_count[12] 8.38509e-05
5 *1473:A *319:28 2.69614e-05
*RES
1 cold_reset_req *1473:A 18.4985 
*END

*D_NET *6 0.00068378
*CONN
*P debug_enable O
*I *1481:X O *D sky130_fd_sc_hd__buf_2
*CAP
1 debug_enable 0.000295446
2 *1481:X 0.000295446
3 debug_enable group_timeout_count[14] 3.45861e-05
4 *3:11 debug_enable 5.8303e-05
*RES
1 *1481:X debug_enable 20.6554 
*END

*D_NET *7 0.000501497
*CONN
*P file_denied I
*I *1474:A I *D sky130_fd_sc_hd__buf_1
*CAP
1 file_denied 0.000210759
2 *1474:A 0.000210759
3 *1474:A *1477:A 3.45861e-05
4 *1474:A *1478:A 3.71658e-05
5 *3:11 *1474:A 8.22793e-06
*RES
1 file_denied *1474:A 19.9411 
*END

*D_NET *8 0.00113233
*CONN
*P fsm_error O
*I *1482:X O *D sky130_fd_sc_hd__buf_2
*CAP
1 fsm_error 0.000566167
2 *1482:X 0.000566167
3 fsm_error sticky_tamper 0
*RES
1 *1482:X fsm_error 23.8714 
*END

*D_NET *9 0.00138223
*CONN
*P fw_fail I
*I *1475:A I *D sky130_fd_sc_hd__clkbuf_1
*CAP
1 fw_fail 0.000498728
2 *1475:A 0.000498728
3 *1475:A *1162:A 5.71472e-05
4 *1475:A *1226:B 5.33005e-05
5 *1475:A *1454:A 3.18676e-05
6 *1475:A *1467:A 7.60209e-05
7 *1475:A *1469:A 0.000114368
8 *1475:A *133:10 5.20692e-05
*RES
1 fw_fail *1475:A 24.6579 
*END

*D_NET *10 0.000583919
*CONN
*P fw_ok I
*I *1476:A I *D sky130_fd_sc_hd__buf_1
*CAP
1 fw_ok 0.000163297
2 *1476:A 0.000163297
3 *1476:A global_state_locked 7.6418e-05
4 *1476:A *1472:A 0.000180906
*RES
1 fw_ok *1476:A 19.0336 
*END

*D_NET *11 0.00051024
*CONN
*P global_pin_ok I
*I *1477:A I *D sky130_fd_sc_hd__clkbuf_1
*CAP
1 global_pin_ok 0.000216416
2 *1477:A 0.000216416
3 *1477:A group_timeout_count[5] 3.45861e-05
4 *1474:A *1477:A 3.45861e-05
5 *3:11 *1477:A 8.23597e-06
*RES
1 global_pin_ok *1477:A 19.9411 
*END

*D_NET *12 0.00112839
*CONN
*P global_state_authorized O
*I *1483:X O *D sky130_fd_sc_hd__buf_2
*CAP
1 global_state_authorized 0.000552822
2 *1483:X 0.000552822
3 global_state_authorized unlock_enable 0
4 global_state_authorized *1470:A 0
5 global_state_authorized *1483:A 2.27416e-05
*RES
1 *1483:X global_state_authorized 23.8714 
*END

*D_NET *13 0.000563101
*CONN
*P global_state_bits[0] O
*I *1484:X O *D sky130_fd_sc_hd__buf_2
*CAP
1 global_state_bits[0] 0.000216556
2 *1484:X 0.000216556
3 global_state_bits[0] global_state_bits[1] 9.54485e-05
4 global_state_bits[0] *1484:A 3.454e-05
*RES
1 *1484:X global_state_bits[0] 18.8021 
*END

*D_NET *14 0.00062887
*CONN
*P global_state_bits[1] O
*I *1485:X O *D sky130_fd_sc_hd__buf_2
*CAP
1 global_state_bits[1] 0.000187614
2 *1485:X 0.000187614
3 global_state_bits[1] global_state_bits[4] 9.54485e-05
4 global_state_bits[1] *1484:A 6.27457e-05
5 global_state_bits[0] global_state_bits[1] 9.54485e-05
*RES
1 *1485:X global_state_bits[1] 19.4092 
*END

*D_NET *15 0.00048605
*CONN
*P global_state_bits[2] O
*I *1486:X O *D sky130_fd_sc_hd__buf_2
*CAP
1 global_state_bits[2] 0.000142371
2 *1486:X 0.000142371
3 global_state_bits[2] global_state_boot 9.54485e-05
4 global_state_bits[2] *1190:A2 2.26973e-05
5 global_state_bits[2] *1469:A 8.31618e-05
*RES
1 *1486:X global_state_bits[2] 18.1949 
*END

*D_NET *16 0.000779716
*CONN
*P global_state_bits[3] O
*I *1487:X O *D sky130_fd_sc_hd__buf_2
*CAP
1 global_state_bits[3] 0.000300552
2 *1487:X 0.000300552
3 global_state_bits[3] global_state_bits[4] 8.31622e-05
4 global_state_bits[3] security_breach 9.54485e-05
5 global_state_bits[3] *297:21 0
*RES
1 *1487:X global_state_bits[3] 20.6235 
*END

*D_NET *17 0.000738954
*CONN
*P global_state_bits[4] O
*I *1488:X O *D sky130_fd_sc_hd__buf_2
*CAP
1 global_state_bits[4] 0.000274079
2 *1488:X 0.000274079
3 global_state_bits[4] *297:21 1.21859e-05
4 global_state_bits[1] global_state_bits[4] 9.54485e-05
5 global_state_bits[3] global_state_bits[4] 8.31622e-05
*RES
1 *1488:X global_state_bits[4] 18.4832 
*END

*D_NET *18 0.000563926
*CONN
*P global_state_boot O
*I *1489:X O *D sky130_fd_sc_hd__buf_2
*CAP
1 global_state_boot 0.000170402
2 *1489:X 0.000170402
3 global_state_boot global_state_safe_mode 9.54485e-05
4 global_state_boot *314:44 3.22243e-05
5 global_state_bits[2] global_state_boot 9.54485e-05
*RES
1 *1489:X global_state_boot 18.8021 
*END

*D_NET *19 0.00071563
*CONN
*P global_state_escalated O
*I *1490:X O *D sky130_fd_sc_hd__buf_2
*CAP
1 global_state_escalated 0.000249
2 *1490:X 0.000249
3 global_state_escalated global_state_safe_mode 8.31622e-05
4 global_state_escalated safe_led 9.28756e-05
5 global_state_escalated *1490:A 0
6 global_state_escalated *364:10 4.15914e-05
*RES
1 *1490:X global_state_escalated 20.0163 
*END

*D_NET *20 0.000520686
*CONN
*P global_state_locked O
*I *1491:X O *D sky130_fd_sc_hd__buf_2
*CAP
1 global_state_locked 0.000169672
2 *1491:X 0.000169672
3 global_state_locked *1472:A 0
4 global_state_locked *339:10 1.91894e-05
5 *1466:A global_state_locked 8.57347e-05
6 *1476:A global_state_locked 7.6418e-05
*RES
1 *1491:X global_state_locked 18.4985 
*END

*D_NET *21 0.000674003
*CONN
*P global_state_safe_mode O
*I *1492:X O *D sky130_fd_sc_hd__buf_2
*CAP
1 global_state_safe_mode 0.000203438
2 *1492:X 0.000203438
3 global_state_safe_mode *1188:A 3.40128e-05
4 global_state_safe_mode *314:44 5.45041e-05
5 global_state_boot global_state_safe_mode 9.54485e-05
6 global_state_escalated global_state_safe_mode 8.31622e-05
*RES
1 *1492:X global_state_safe_mode 19.7128 
*END

*D_NET *22 0.000882244
*CONN
*P global_timeout_count[0] O
*I *1493:X O *D sky130_fd_sc_hd__buf_2
*CAP
1 global_timeout_count[0] 0.000427085
2 *1493:X 0.000427085
3 global_timeout_count[0] global_timeout_count[1] 0
4 global_timeout_count[0] group_timeout_count[15] 0
5 global_timeout_count[0] *1249:A2 2.80742e-05
*RES
1 *1493:X global_timeout_count[0] 21.8893 
*END

*D_NET *23 0.000883663
*CONN
*P global_timeout_count[10] O
*I *1494:X O *D sky130_fd_sc_hd__buf_2
*CAP
1 global_timeout_count[10] 0.000438114
2 *1494:X 0.000438114
3 global_timeout_count[10] global_timeout_count[7] 0
4 global_timeout_count[10] global_timeout_count[8] 0
5 global_timeout_count[10] *1494:A 7.43578e-06
*RES
1 *1494:X global_timeout_count[10] 21.6393 
*END

*D_NET *24 0.000643399
*CONN
*P global_timeout_count[11] O
*I *1495:X O *D sky130_fd_sc_hd__buf_2
*CAP
1 global_timeout_count[11] 0.000207895
2 *1495:X 0.000207895
3 global_timeout_count[11] *1472:A 9.28756e-05
4 global_timeout_count[11] *318:22 3.92854e-05
5 *1473:A global_timeout_count[11] 9.54485e-05
*RES
1 *1495:X global_timeout_count[11] 19.4092 
*END

*D_NET *25 0.000511778
*CONN
*P global_timeout_count[12] O
*I *1496:X O *D sky130_fd_sc_hd__buf_2
*CAP
1 global_timeout_count[12] 0.000167526
2 *1496:X 0.000167526
3 global_timeout_count[12] global_timeout_count[13] 9.28756e-05
4 *1473:A global_timeout_count[12] 8.38509e-05
*RES
1 *1496:X global_timeout_count[12] 18.1949 
*END

*D_NET *26 0.000947664
*CONN
*P global_timeout_count[13] O
*I *1497:X O *D sky130_fd_sc_hd__buf_2
*CAP
1 global_timeout_count[13] 0.000307199
2 *1497:X 0.000307199
3 global_timeout_count[13] global_timeout_count[15] 9.28756e-05
4 global_timeout_count[13] *1497:A 0.000107124
5 global_timeout_count[13] *320:34 4.03916e-05
6 global_timeout_count[12] global_timeout_count[13] 9.28756e-05
*RES
1 *1497:X global_timeout_count[13] 21.8378 
*END

*D_NET *27 0.00066297
*CONN
*P global_timeout_count[14] O
*I *1498:X O *D sky130_fd_sc_hd__buf_2
*CAP
1 global_timeout_count[14] 0.000265409
2 *1498:X 0.000265409
3 global_timeout_count[14] global_timeout_count[15] 9.28756e-05
4 global_timeout_count[14] *1399:D 0
5 global_timeout_count[14] *321:12 3.92757e-05
*RES
1 *1498:X global_timeout_count[14] 19.4092 
*END

*D_NET *28 0.000766733
*CONN
*P global_timeout_count[15] O
*I *1499:X O *D sky130_fd_sc_hd__buf_2
*CAP
1 global_timeout_count[15] 0.000285395
2 *1499:X 0.000285395
3 global_timeout_count[15] *1497:A 1.01912e-05
4 global_timeout_count[13] global_timeout_count[15] 9.28756e-05
5 global_timeout_count[14] global_timeout_count[15] 9.28756e-05
*RES
1 *1499:X global_timeout_count[15] 19.0903 
*END

*D_NET *29 0.000883368
*CONN
*P global_timeout_count[1] O
*I *1500:X O *D sky130_fd_sc_hd__buf_2
*CAP
1 global_timeout_count[1] 0.000441684
2 *1500:X 0.000441684
3 global_timeout_count[0] global_timeout_count[1] 0
*RES
1 *1500:X global_timeout_count[1] 21.6393 
*END

*D_NET *30 0.000704826
*CONN
*P global_timeout_count[2] O
*I *1501:X O *D sky130_fd_sc_hd__buf_2
*CAP
1 global_timeout_count[2] 0.000352413
2 *1501:X 0.000352413
3 global_timeout_count[2] global_timeout_count[3] 0
4 global_timeout_count[2] global_timeout_count[4] 0
*RES
1 *1501:X global_timeout_count[2] 20.6929 
*END

*D_NET *31 0.000891568
*CONN
*P global_timeout_count[3] O
*I *1502:X O *D sky130_fd_sc_hd__buf_2
*CAP
1 global_timeout_count[3] 0.000422611
2 *1502:X 0.000422611
3 global_timeout_count[3] *1252:A2 2.89114e-05
4 global_timeout_count[3] *371:87 1.74352e-05
5 global_timeout_count[2] global_timeout_count[3] 0
*RES
1 *1502:X global_timeout_count[3] 21.6393 
*END

*D_NET *32 0.000940345
*CONN
*P global_timeout_count[4] O
*I *1503:X O *D sky130_fd_sc_hd__buf_2
*CAP
1 global_timeout_count[4] 0.000420651
2 *1503:X 0.000420651
3 global_timeout_count[4] *1252:B1 9.90431e-05
4 global_timeout_count[2] global_timeout_count[4] 0
*RES
1 *1503:X global_timeout_count[4] 21.6393 
*END

*D_NET *33 0.000889564
*CONN
*P global_timeout_count[5] O
*I *1504:X O *D sky130_fd_sc_hd__buf_2
*CAP
1 global_timeout_count[5] 0.000426419
2 *1504:X 0.000426419
3 global_timeout_count[5] global_timeout_count[6] 0
4 global_timeout_count[5] *371:87 3.67257e-05
*RES
1 *1504:X global_timeout_count[5] 21.6393 
*END

*D_NET *34 0.000934571
*CONN
*P global_timeout_count[6] O
*I *1505:X O *D sky130_fd_sc_hd__buf_2
*CAP
1 global_timeout_count[6] 0.000467285
2 *1505:X 0.000467285
3 global_timeout_count[5] global_timeout_count[6] 0
*RES
1 *1505:X global_timeout_count[6] 22.3 
*END

*D_NET *35 0.000880645
*CONN
*P global_timeout_count[7] O
*I *1506:X O *D sky130_fd_sc_hd__buf_2
*CAP
1 global_timeout_count[7] 0.000440323
2 *1506:X 0.000440323
3 global_timeout_count[10] global_timeout_count[7] 0
*RES
1 *1506:X global_timeout_count[7] 21.6393 
*END

*D_NET *36 0.000901613
*CONN
*P global_timeout_count[8] O
*I *1507:X O *D sky130_fd_sc_hd__buf_2
*CAP
1 global_timeout_count[8] 0.000424135
2 *1507:X 0.000424135
3 global_timeout_count[8] global_timeout_count[9] 0
4 global_timeout_count[8] *1507:A 5.33433e-05
5 global_timeout_count[10] global_timeout_count[8] 0
*RES
1 *1507:X global_timeout_count[8] 21.6393 
*END

*D_NET *37 0.000950737
*CONN
*P global_timeout_count[9] O
*I *1508:X O *D sky130_fd_sc_hd__buf_2
*CAP
1 global_timeout_count[9] 0.000475368
2 *1508:X 0.000475368
3 global_timeout_count[8] global_timeout_count[9] 0
*RES
1 *1508:X global_timeout_count[9] 22.05 
*END

*D_NET *38 0.00100713
*CONN
*P group_autolock I
*I *1478:A I *D sky130_fd_sc_hd__buf_1
*CAP
1 group_autolock 0.000415631
2 *1478:A 0.000415631
3 *1478:A group_timeout_count[10] 0
4 *1478:A group_timeout_count[12] 3.71658e-05
5 *1478:A *1518:A 9.5746e-05
6 *1478:A *348:12 5.7903e-06
7 *1474:A *1478:A 3.71658e-05
8 *3:11 *1478:A 0
*RES
1 group_autolock *1478:A 21.3748 
*END

*D_NET *39 0.00113195
*CONN
*P group_error O
*I *1509:X O *D sky130_fd_sc_hd__buf_2
*CAP
1 group_error 0.00054657
2 *1509:X 0.00054657
3 group_error *1470:A 0
4 group_error *1480:A 0
5 group_error *1540:A 3.88139e-05
*RES
1 *1509:X group_error 23.8714 
*END

*D_NET *40 0.00176862
*CONN
*P group_locked O
*I *1510:X O *D sky130_fd_sc_hd__buf_2
*CAP
1 group_locked 0.000633916
2 *1510:X 0.000633916
3 group_locked group_timeout_count[0] 0.000224579
4 group_locked group_timeout_count[1] 0.000276211
*RES
1 *1510:X group_locked 25.9258 
*END

*D_NET *41 0.00106273
*CONN
*P group_state_bits[0] O
*I *1511:X O *D sky130_fd_sc_hd__buf_2
*CAP
1 group_state_bits[0] 0.000511277
2 *1511:X 0.000511277
3 group_state_bits[0] group_state_bits[2] 0
4 group_state_bits[0] group_state_bits[3] 0
5 group_state_bits[0] *1514:A 4.01768e-05
*RES
1 *1511:X group_state_bits[0] 23.4607 
*END

*D_NET *42 0.00105251
*CONN
*P group_state_bits[1] O
*I *1512:X O *D sky130_fd_sc_hd__buf_2
*CAP
1 group_state_bits[1] 0.000526253
2 *1512:X 0.000526253
3 group_state_bits[1] group_state_disabled 0
*RES
1 *1512:X group_state_bits[1] 23.4607 
*END

*D_NET *43 0.00105605
*CONN
*P group_state_bits[2] O
*I *1513:X O *D sky130_fd_sc_hd__buf_2
*CAP
1 group_state_bits[2] 0.000512752
2 *1513:X 0.000512752
3 group_state_bits[2] group_state_suspended 0
4 group_state_bits[2] *1511:A 3.05446e-05
5 group_state_bits[0] group_state_bits[2] 0
*RES
1 *1513:X group_state_bits[2] 23.4607 
*END

*D_NET *44 0.00105251
*CONN
*P group_state_bits[3] O
*I *1514:X O *D sky130_fd_sc_hd__buf_2
*CAP
1 group_state_bits[3] 0.000526253
2 *1514:X 0.000526253
3 group_state_bits[3] group_state_disabled 0
4 group_state_bits[0] group_state_bits[3] 0
*RES
1 *1514:X group_state_bits[3] 23.4607 
*END

*D_NET *45 0.00113233
*CONN
*P group_state_disabled O
*I *1515:X O *D sky130_fd_sc_hd__buf_2
*CAP
1 group_state_disabled 0.000566167
2 *1515:X 0.000566167
3 group_state_bits[1] group_state_disabled 0
4 group_state_bits[3] group_state_disabled 0
*RES
1 *1515:X group_state_disabled 23.8714 
*END

*D_NET *46 0.000716128
*CONN
*P group_state_locked O
*I *1516:X O *D sky130_fd_sc_hd__buf_2
*CAP
1 group_state_locked 0.000330797
2 *1516:X 0.000330797
3 group_state_locked group_timeout_count[4] 2.25951e-05
4 group_state_locked *1471:A 3.19385e-05
*RES
1 *1516:X group_state_locked 20.891 
*END

*D_NET *47 0.00106794
*CONN
*P group_state_suspended O
*I *1517:X O *D sky130_fd_sc_hd__buf_2
*CAP
1 group_state_suspended 0.000518567
2 *1517:X 0.000518567
3 group_state_suspended group_suspended 0
4 group_state_suspended *1511:A 1.15281e-05
5 group_state_suspended *1513:A 1.92789e-05
6 group_state_bits[2] group_state_suspended 0
*RES
1 *1517:X group_state_suspended 23.4607 
*END

*D_NET *48 0.000844804
*CONN
*P group_state_unlocked O
*I *1518:X O *D sky130_fd_sc_hd__buf_2
*CAP
1 group_state_unlocked 0.000339411
2 *1518:X 0.000339411
3 group_state_unlocked group_timeout_count[10] 3.71658e-05
4 group_state_unlocked group_timeout_count[13] 3.71658e-05
5 *3:11 group_state_unlocked 9.16506e-05
*RES
1 *1518:X group_state_unlocked 22.1732 
*END

*D_NET *49 0.00113233
*CONN
*P group_suspended O
*I *1519:X O *D sky130_fd_sc_hd__buf_2
*CAP
1 group_suspended 0.000566167
2 *1519:X 0.000566167
3 group_suspended unlock_enable 0
4 group_state_suspended group_suspended 0
*RES
1 *1519:X group_suspended 23.8714 
*END

*D_NET *50 0.0016611
*CONN
*P group_timeout_count[0] O
*I *1520:X O *D sky130_fd_sc_hd__buf_2
*CAP
1 group_timeout_count[0] 0.000422853
2 *1520:X 0.000422853
3 group_timeout_count[0] group_timeout_count[1] 0.000364624
4 group_timeout_count[0] group_timeout_count[6] 0
5 group_timeout_count[0] *1510:A 5.52238e-05
6 group_timeout_count[0] *1527:A 0.000170964
7 group_locked group_timeout_count[0] 0.000224579
*RES
1 *1520:X group_timeout_count[0] 25.9073 
*END

*D_NET *51 0.000726077
*CONN
*P group_timeout_count[10] O
*I *1521:X O *D sky130_fd_sc_hd__buf_2
*CAP
1 group_timeout_count[10] 0.000325872
2 *1521:X 0.000325872
3 group_timeout_count[10] group_timeout_count[12] 3.71658e-05
4 group_timeout_count[10] group_timeout_count[13] 0
5 group_timeout_count[10] *1518:A 0
6 group_state_unlocked group_timeout_count[10] 3.71658e-05
7 *1478:A group_timeout_count[10] 0
8 *3:11 group_timeout_count[10] 0
*RES
1 *1521:X group_timeout_count[10] 19.4092 
*END

*D_NET *52 0.00100822
*CONN
*P group_timeout_count[11] O
*I *1522:X O *D sky130_fd_sc_hd__buf_2
*CAP
1 group_timeout_count[11] 0.000443315
2 *1522:X 0.000443315
3 group_timeout_count[11] group_timeout_count[13] 5.17635e-05
4 group_timeout_count[11] group_timeout_count[14] 3.45861e-05
5 *3:11 group_timeout_count[11] 3.52391e-05
*RES
1 *1522:X group_timeout_count[11] 22.6018 
*END

*D_NET *53 0.000721909
*CONN
*P group_timeout_count[12] O
*I *1523:X O *D sky130_fd_sc_hd__buf_2
*CAP
1 group_timeout_count[12] 0.000290235
2 *1523:X 0.000290235
3 group_timeout_count[12] *348:12 3.18676e-05
4 group_timeout_count[10] group_timeout_count[12] 3.71658e-05
5 *1478:A group_timeout_count[12] 3.71658e-05
6 *3:11 group_timeout_count[12] 3.52391e-05
*RES
1 *1523:X group_timeout_count[12] 20.9589 
*END

*D_NET *54 0.000742391
*CONN
*P group_timeout_count[13] O
*I *1524:X O *D sky130_fd_sc_hd__buf_2
*CAP
1 group_timeout_count[13] 0.000293882
2 *1524:X 0.000293882
3 group_timeout_count[13] *1524:A 0
4 group_state_unlocked group_timeout_count[13] 3.71658e-05
5 group_timeout_count[10] group_timeout_count[13] 0
6 group_timeout_count[11] group_timeout_count[13] 5.17635e-05
7 *3:11 group_timeout_count[13] 6.56976e-05
*RES
1 *1524:X group_timeout_count[13] 19.943 
*END

*D_NET *55 0.000794439
*CONN
*P group_timeout_count[14] O
*I *1525:X O *D sky130_fd_sc_hd__buf_2
*CAP
1 group_timeout_count[14] 0.000330911
2 *1525:X 0.000330911
3 debug_enable group_timeout_count[14] 3.45861e-05
4 group_timeout_count[11] group_timeout_count[14] 3.45861e-05
5 *3:11 group_timeout_count[14] 6.34448e-05
*RES
1 *1525:X group_timeout_count[14] 21.5661 
*END

*D_NET *56 0.000941706
*CONN
*P group_timeout_count[15] O
*I *1526:X O *D sky130_fd_sc_hd__buf_2
*CAP
1 group_timeout_count[15] 0.000421332
2 *1526:X 0.000421332
3 group_timeout_count[15] *1249:B1 9.90431e-05
4 global_timeout_count[0] group_timeout_count[15] 0
*RES
1 *1526:X group_timeout_count[15] 21.6393 
*END

*D_NET *57 0.00126231
*CONN
*P group_timeout_count[1] O
*I *1527:X O *D sky130_fd_sc_hd__buf_2
*CAP
1 group_timeout_count[1] 0.000292154
2 *1527:X 0.000292154
3 group_timeout_count[1] group_timeout_count[6] 3.71658e-05
4 group_timeout_count[1] *1527:A 0
5 group_timeout_count[1] *1532:A 0
6 group_locked group_timeout_count[1] 0.000276211
7 group_timeout_count[0] group_timeout_count[1] 0.000364624
*RES
1 *1527:X group_timeout_count[1] 23.8161 
*END

*D_NET *58 0.000879847
*CONN
*P group_timeout_count[2] O
*I *1528:X O *D sky130_fd_sc_hd__buf_2
*CAP
1 group_timeout_count[2] 0.000354526
2 *1528:X 0.000354526
3 group_timeout_count[2] group_timeout_count[3] 3.71658e-05
4 group_timeout_count[2] group_timeout_count[6] 3.45861e-05
5 group_timeout_count[2] *1529:A 9.90431e-05
*RES
1 *1528:X group_timeout_count[2] 21.9947 
*END

*D_NET *59 0.000991358
*CONN
*P group_timeout_count[3] O
*I *1529:X O *D sky130_fd_sc_hd__buf_2
*CAP
1 group_timeout_count[3] 0.000294192
2 *1529:X 0.000294192
3 group_timeout_count[3] group_timeout_count[6] 0
4 group_timeout_count[3] group_timeout_count[8] 3.19385e-05
5 group_timeout_count[3] group_timeout_count[9] 0
6 group_timeout_count[3] *1532:A 3.01894e-05
7 group_timeout_count[3] *345:37 5.59013e-05
8 group_timeout_count[3] *345:53 9.4724e-05
9 group_timeout_count[3] *353:45 0.000153054
10 group_timeout_count[2] group_timeout_count[3] 3.71658e-05
*RES
1 *1529:X group_timeout_count[3] 20.6235 
*END

*D_NET *60 0.00077932
*CONN
*P group_timeout_count[4] O
*I *1530:X O *D sky130_fd_sc_hd__buf_2
*CAP
1 group_timeout_count[4] 0.000306294
2 *1530:X 0.000306294
3 group_timeout_count[4] group_unlocked 0
4 group_timeout_count[4] *1342:A_N 0.000115369
5 group_timeout_count[4] *1471:A 0
6 group_timeout_count[4] *1479:A 2.87684e-05
7 group_state_locked group_timeout_count[4] 2.25951e-05
*RES
1 *1530:X group_timeout_count[4] 19.4092 
*END

*D_NET *61 0.000600361
*CONN
*P group_timeout_count[5] O
*I *1531:X O *D sky130_fd_sc_hd__buf_2
*CAP
1 group_timeout_count[5] 0.000242927
2 *1531:X 0.000242927
3 group_timeout_count[5] group_unlocked 7.03253e-05
4 *1477:A group_timeout_count[5] 3.45861e-05
5 *3:11 group_timeout_count[5] 9.59532e-06
*RES
1 *1531:X group_timeout_count[5] 18.9972 
*END

*D_NET *62 0.0012211
*CONN
*P group_timeout_count[6] O
*I *1532:X O *D sky130_fd_sc_hd__buf_2
*CAP
1 group_timeout_count[6] 0.000288907
2 *1532:X 0.000288907
3 group_timeout_count[6] *1322:A 0.000187622
4 group_timeout_count[6] *1527:A 0.000129868
5 group_timeout_count[6] *1532:A 6.39901e-05
6 group_timeout_count[6] *353:56 0.000190051
7 group_timeout_count[0] group_timeout_count[6] 0
8 group_timeout_count[1] group_timeout_count[6] 3.71658e-05
9 group_timeout_count[2] group_timeout_count[6] 3.45861e-05
10 group_timeout_count[3] group_timeout_count[6] 0
*RES
1 *1532:X group_timeout_count[6] 21.8378 
*END

*D_NET *63 0.000743158
*CONN
*P group_timeout_count[7] O
*I *1533:X O *D sky130_fd_sc_hd__buf_2
*CAP
1 group_timeout_count[7] 0.000308793
2 *1533:X 0.000308793
3 group_timeout_count[7] group_timeout_count[9] 6.37275e-05
4 group_timeout_count[7] *1342:A_N 0
5 group_timeout_count[7] *1471:A 6.18446e-05
*RES
1 *1533:X group_timeout_count[7] 20.5501 
*END

*D_NET *64 0.000716128
*CONN
*P group_timeout_count[8] O
*I *1534:X O *D sky130_fd_sc_hd__buf_2
*CAP
1 group_timeout_count[8] 0.000330797
2 *1534:X 0.000330797
3 group_timeout_count[8] group_timeout_count[9] 2.25951e-05
4 group_timeout_count[3] group_timeout_count[8] 3.19385e-05
*RES
1 *1534:X group_timeout_count[8] 20.891 
*END

*D_NET *65 0.000645277
*CONN
*P group_timeout_count[9] O
*I *1535:X O *D sky130_fd_sc_hd__buf_2
*CAP
1 group_timeout_count[9] 0.000249864
2 *1535:X 0.000249864
3 group_timeout_count[9] *1532:A 5.92267e-05
4 group_timeout_count[3] group_timeout_count[9] 0
5 group_timeout_count[7] group_timeout_count[9] 6.37275e-05
6 group_timeout_count[8] group_timeout_count[9] 2.25951e-05
*RES
1 *1535:X group_timeout_count[9] 19.4092 
*END

*D_NET *66 0.000520177
*CONN
*P group_unlocked O
*I *1536:X O *D sky130_fd_sc_hd__buf_2
*CAP
1 group_unlocked 0.000208827
2 *1536:X 0.000208827
3 group_unlocked *1479:A 2.25951e-05
4 group_unlocked *1536:A 9.60337e-06
5 group_timeout_count[4] group_unlocked 0
6 group_timeout_count[5] group_unlocked 7.03253e-05
*RES
1 *1536:X group_unlocked 18.1949 
*END

*D_NET *67 0.000758152
*CONN
*P hdr_parse_fail I
*I *1479:A I *D sky130_fd_sc_hd__buf_1
*CAP
1 hdr_parse_fail 0.000353394
2 *1479:A 0.000353394
3 *1479:A *1342:A_N 0
4 group_timeout_count[4] *1479:A 2.87684e-05
5 group_unlocked *1479:A 2.25951e-05
*RES
1 hdr_parse_fail *1479:A 22.3017 
*END

*D_NET *68 0.00122101
*CONN
*P illegal_in I
*I *1480:A I *D sky130_fd_sc_hd__clkbuf_1
*CAP
1 illegal_in 0.000538119
2 *1480:A 0.000538119
3 *1480:A sticky_illegal 0
4 *1480:A *1509:A 0
5 *1480:A *1540:A 0.000144773
6 group_error *1480:A 0
*RES
1 illegal_in *1480:A 24.7821 
*END

*D_NET *69 0.000548541
*CONN
*P power_glitch I
*I *1467:A I *D sky130_fd_sc_hd__clkbuf_1
*CAP
1 power_glitch 0.000175632
2 *1467:A 0.000175632
3 *1467:A *1225:A 3.80952e-05
4 *1467:A *1226:A 0
5 *1467:A *1469:A 0
6 *1466:A *1467:A 8.31618e-05
7 *1475:A *1467:A 7.60209e-05
*RES
1 power_glitch *1467:A 19.0336 
*END

*D_NET *70 0.00107586
*CONN
*P reset I
*I *1468:A I *D sky130_fd_sc_hd__buf_1
*CAP
1 reset 0.000509355
2 *1468:A 0.000509355
3 *1468:A *1451:A 5.71472e-05
*RES
1 reset *1468:A 23.9607 
*END

*D_NET *71 0.000638601
*CONN
*P safe_led O
*I *1537:X O *D sky130_fd_sc_hd__buf_2
*CAP
1 safe_led 0.000194097
2 *1537:X 0.000194097
3 safe_led security_breach 9.54485e-05
4 safe_led *364:10 6.20827e-05
5 global_state_escalated safe_led 9.28756e-05
*RES
1 *1537:X safe_led 19.4092 
*END

*D_NET *72 0.000553562
*CONN
*P security_breach O
*I *1538:X O *D sky130_fd_sc_hd__buf_2
*CAP
1 security_breach 0.000169888
2 *1538:X 0.000169888
3 security_breach *1538:A 2.28904e-05
4 global_state_bits[3] security_breach 9.54485e-05
5 safe_led security_breach 9.54485e-05
*RES
1 *1538:X security_breach 18.8021 
*END

*D_NET *73 0.00101214
*CONN
*P size_mismatch I
*I *1469:A I *D sky130_fd_sc_hd__clkbuf_1
*CAP
1 size_mismatch 0.000362382
2 *1469:A 0.000362382
3 *1469:A *1226:B 0
4 *1469:A *1454:A 6.5185e-05
5 *1469:A *308:21 2.46649e-05
6 global_state_bits[2] *1469:A 8.31618e-05
7 *1467:A *1469:A 0
8 *1475:A *1469:A 0.000114368
*RES
1 size_mismatch *1469:A 22.3729 
*END

*D_NET *74 0.00113195
*CONN
*P sticky_illegal O
*I *1539:X O *D sky130_fd_sc_hd__buf_2
*CAP
1 sticky_illegal 0.000543073
2 *1539:X 0.000543073
3 sticky_illegal sticky_tamper 0
4 sticky_illegal *1539:A 1.92905e-05
5 sticky_illegal *1540:A 2.65105e-05
6 *1480:A sticky_illegal 0
*RES
1 *1539:X sticky_illegal 23.8714 
*END

*D_NET *75 0.0011246
*CONN
*P sticky_tamper O
*I *1540:X O *D sky130_fd_sc_hd__buf_2
*CAP
1 sticky_tamper 0.000553657
2 *1540:X 0.000553657
3 sticky_tamper *1540:A 1.72894e-05
4 fsm_error sticky_tamper 0
5 sticky_illegal sticky_tamper 0
*RES
1 *1540:X sticky_tamper 23.8714 
*END

*D_NET *76 0.00122101
*CONN
*P tamper_in I
*I *1470:A I *D sky130_fd_sc_hd__clkbuf_1
*CAP
1 tamper_in 0.000538119
2 *1470:A 0.000538119
3 *1470:A *1433:A 0
4 *1470:A *367:12 0.000144773
5 global_state_authorized *1470:A 0
6 group_error *1470:A 0
*RES
1 tamper_in *1470:A 24.7821 
*END

*D_NET *77 0.00113233
*CONN
*P unlock_enable O
*I *1541:X O *D sky130_fd_sc_hd__buf_2
*CAP
1 unlock_enable 0.000566167
2 *1541:X 0.000566167
3 global_state_authorized unlock_enable 0
4 group_suspended unlock_enable 0
*RES
1 *1541:X unlock_enable 23.8714 
*END

*D_NET *78 0.00121186
*CONN
*P unlock_req I
*I *1471:A I *D sky130_fd_sc_hd__buf_1
*CAP
1 unlock_req 0.000517498
2 *1471:A 0.000517498
3 *1471:A *1345:B 3.2026e-05
4 *1471:A *1434:A 5.10602e-05
5 group_state_locked *1471:A 3.19385e-05
6 group_timeout_count[4] *1471:A 0
7 group_timeout_count[7] *1471:A 6.18446e-05
*RES
1 unlock_req *1471:A 19.7542 
*END

*D_NET *79 0.00111528
*CONN
*P warm_reset_req I
*I *1472:A I *D sky130_fd_sc_hd__buf_1
*CAP
1 warm_reset_req 0.000388702
2 *1472:A 0.000388702
3 *1472:A *318:10 3.22243e-05
4 *1472:A *339:10 3.18676e-05
5 global_state_locked *1472:A 0
6 global_timeout_count[11] *1472:A 9.28756e-05
7 *1476:A *1472:A 0.000180906
*RES
1 warm_reset_req *1472:A 23.0878 
*END

*D_NET *80 0.000820867
*CONN
*I *1381:D I *D sky130_fd_sc_hd__dfxtp_1
*I *1192:X O *D sky130_fd_sc_hd__o31a_1
*CAP
1 *1381:D 0.000204773
2 *1192:X 0.000204773
3 *1381:D *294:125 0.000142307
4 *1381:D *294:129 5.05572e-05
5 *1381:D *366:8 3.12916e-05
6 *1381:D *366:10 0.000120636
7 *1381:D *366:14 6.65302e-05
*RES
1 *1192:X *1381:D 33.3723 
*END

*D_NET *81 0.00118287
*CONN
*I *1382:D I *D sky130_fd_sc_hd__dfxtp_2
*I *1215:Y O *D sky130_fd_sc_hd__a21oi_1
*CAP
1 *1382:D 0.000390078
2 *1215:Y 0.000390078
3 *1382:D *1215:B1 0.000129595
4 *1382:D *293:118 0.000146053
5 *1382:D *293:126 0.000127067
*RES
1 *1215:Y *1382:D 25.3321 
*END

*D_NET *82 0.0013374
*CONN
*I *1383:D I *D sky130_fd_sc_hd__dfxtp_1
*I *1219:Y O *D sky130_fd_sc_hd__nor2_1
*CAP
1 *1383:D 0.000447231
2 *1219:Y 0.000447231
3 *1383:D *1219:B 2.37575e-05
4 *1383:D *1383:CLK 4.8224e-05
5 *1383:D *307:23 0.000186669
6 *1383:D *307:34 4.38128e-05
7 *1383:D *314:12 0.000140471
*RES
1 *1219:Y *1383:D 27.2786 
*END

*D_NET *83 0.00212685
*CONN
*I *1384:D I *D sky130_fd_sc_hd__dfxtp_1
*I *1229:X O *D sky130_fd_sc_hd__and2b_1
*CAP
1 *1384:D 0.000605365
2 *1229:X 0.000605365
3 *1384:D *1286:A2 0
4 *1384:D *1384:CLK 0.000322387
5 *1384:D *1442:A 2.89016e-05
6 *1384:D *1443:A 0.000564832
7 *1384:D *225:14 0
*RES
1 *1229:X *1384:D 41.2652 
*END

*D_NET *84 0.0003845
*CONN
*I *1385:D I *D sky130_fd_sc_hd__dfxtp_1
*I *1247:Y O *D sky130_fd_sc_hd__a21oi_1
*CAP
1 *1385:D 0.000144051
2 *1247:Y 0.000144051
3 *1385:D *1386:CLK 4.06875e-05
4 *1385:D *1526:A 0
5 *1385:D *291:89 1.64343e-05
6 *1385:D *373:92 3.92757e-05
*RES
1 *1247:Y *1385:D 30.3188 
*END

*D_NET *85 0.000575155
*CONN
*I *1386:D I *D sky130_fd_sc_hd__dfxtp_1
*I *1249:Y O *D sky130_fd_sc_hd__a21oi_1
*CAP
1 *1386:D 0.000109907
2 *1249:Y 0.000109907
3 *1386:D *1526:A 0.000152333
4 *1386:D *315:14 0.000147142
5 *1386:D *323:30 5.58666e-05
6 *1386:D *373:92 0
*RES
1 *1249:Y *1386:D 30.9438 
*END

*D_NET *86 0.00131387
*CONN
*I *1387:D I *D sky130_fd_sc_hd__dfxtp_1
*I *1252:Y O *D sky130_fd_sc_hd__a21oi_1
*CAP
1 *1387:D 0.000460942
2 *1252:Y 0.000460942
3 *1387:D *1502:A 5.5782e-05
4 *1387:D *371:76 0.00010096
5 *1387:D *371:87 0.000235242
*RES
1 *1252:Y *1387:D 34.7652 
*END

*D_NET *87 0.000461845
*CONN
*I *1388:D I *D sky130_fd_sc_hd__dfxtp_1
*I *1255:Y O *D sky130_fd_sc_hd__a21oi_1
*CAP
1 *1388:D 0.000193391
2 *1255:Y 0.000193391
3 *1388:D *1255:B1 1.24368e-05
4 *1388:D *1388:CLK 6.26276e-05
*RES
1 *1255:Y *1388:D 21.6313 
*END

*D_NET *88 0.000551956
*CONN
*I *1389:D I *D sky130_fd_sc_hd__dfxtp_1
*I *1257:Y O *D sky130_fd_sc_hd__a21oi_1
*CAP
1 *1389:D 0.000186209
2 *1257:Y 0.000186209
3 *1389:D *1256:A 4.87669e-06
4 *1389:D *1256:B 0
5 *1389:D *1257:A2 0
6 *1389:D *1503:A 7.6644e-05
7 *1389:D *196:22 9.80173e-05
*RES
1 *1257:Y *1389:D 30.658 
*END

*D_NET *89 0.000347074
*CONN
*I *1390:D I *D sky130_fd_sc_hd__dfxtp_1
*I *1260:Y O *D sky130_fd_sc_hd__a21oi_1
*CAP
1 *1390:D 0.000127263
2 *1260:Y 0.000127263
3 *1390:D *371:24 2.72083e-05
4 *1390:D *371:32 6.534e-05
*RES
1 *1260:Y *1390:D 30.3188 
*END

*D_NET *90 0.000265571
*CONN
*I *1391:D I *D sky130_fd_sc_hd__dfxtp_1
*I *1262:X O *D sky130_fd_sc_hd__o21ba_1
*CAP
1 *1391:D 0.000106091
2 *1262:X 0.000106091
3 *1391:D *1262:B1_N 5.33882e-05
*RES
1 *1262:X *1391:D 29.5152 
*END

*D_NET *91 0.000538661
*CONN
*I *1392:D I *D sky130_fd_sc_hd__dfxtp_1
*I *1266:Y O *D sky130_fd_sc_hd__a21oi_1
*CAP
1 *1392:D 9.44674e-05
2 *1266:Y 9.44674e-05
3 *1392:D *1261:A3 0.000151333
4 *1392:D *1266:B1 0.000153047
5 *1392:D *293:79 1.64343e-05
6 *1392:D *371:87 2.89114e-05
*RES
1 *1266:Y *1392:D 30.2473 
*END

*D_NET *92 0.000918993
*CONN
*I *1393:D I *D sky130_fd_sc_hd__dfxtp_1
*I *1268:Y O *D sky130_fd_sc_hd__a21oi_1
*CAP
1 *1393:D 0.000282301
2 *1268:Y 0.000282301
3 *1393:D *1268:B1 0.000122055
4 *1393:D *1285:A 0.000153047
5 *1393:D *293:73 7.92879e-05
*RES
1 *1268:Y *1393:D 32.7116 
*END

*D_NET *93 0.000255172
*CONN
*I *1394:D I *D sky130_fd_sc_hd__dfxtp_1
*I *1271:X O *D sky130_fd_sc_hd__and3_1
*CAP
1 *1394:D 0.000119369
2 *1271:X 0.000119369
3 *1394:D *1270:C 0
4 *1394:D *293:73 0
5 *1394:D *293:79 1.64343e-05
*RES
1 *1271:X *1394:D 29.408 
*END

*D_NET *94 0.00118101
*CONN
*I *1395:D I *D sky130_fd_sc_hd__dfxtp_1
*I *1274:Y O *D sky130_fd_sc_hd__a21oi_1
*CAP
1 *1395:D 0.000258635
2 *1274:Y 0.000258635
3 *1395:D *1285:A 0
4 *1395:D *161:14 0.000418073
5 *1395:D *198:22 4.87669e-06
6 *1395:D *293:56 1.64343e-05
7 *1395:D *293:67 0
8 *1395:D *373:27 0.000224356
*RES
1 *1274:Y *1395:D 34.5687 
*END

*D_NET *95 0.000641648
*CONN
*I *1396:D I *D sky130_fd_sc_hd__dfxtp_1
*I *1276:Y O *D sky130_fd_sc_hd__a21oi_1
*CAP
1 *1396:D 0.000268011
2 *1276:Y 0.000268011
3 *1396:D *371:14 0.000105626
*RES
1 *1276:Y *1396:D 23.5688 
*END

*D_NET *96 0.000695356
*CONN
*I *1397:D I *D sky130_fd_sc_hd__dfxtp_1
*I *1279:Y O *D sky130_fd_sc_hd__a21oi_1
*CAP
1 *1397:D 0.000180925
2 *1279:Y 0.000180925
3 *1397:D *1279:B1 6.05161e-06
4 *1397:D *1449:A 2.15245e-05
5 *1397:D *293:134 4.78056e-05
6 *1397:D *293:138 3.51442e-05
7 *1397:D *306:14 0.000148903
8 *1397:D *318:22 2.7626e-05
9 *1397:D *319:10 4.64501e-05
*RES
1 *1279:Y *1397:D 31.35 
*END

*D_NET *97 0.000636316
*CONN
*I *1398:D I *D sky130_fd_sc_hd__dfxtp_1
*I *1281:X O *D sky130_fd_sc_hd__o211a_1
*CAP
1 *1398:D 0.00019679
2 *1281:X 0.00019679
3 *1398:D *1281:A1 1.74352e-05
4 *1398:D *1281:B1 0.000177268
5 *1398:D *320:10 4.8032e-05
*RES
1 *1281:X *1398:D 31.35 
*END

*D_NET *98 0.000415429
*CONN
*I *1399:D I *D sky130_fd_sc_hd__dfxtp_1
*I *1283:X O *D sky130_fd_sc_hd__o211a_1
*CAP
1 *1399:D 0.000207714
2 *1283:X 0.000207714
3 *1399:D *1283:B1 0
4 *1399:D *321:12 0
5 global_timeout_count[14] *1399:D 0
*RES
1 *1283:X *1399:D 30.7473 
*END

*D_NET *99 0.000689413
*CONN
*I *1400:D I *D sky130_fd_sc_hd__dfxtp_1
*I *1285:Y O *D sky130_fd_sc_hd__nor2_1
*CAP
1 *1400:D 0.000220843
2 *1285:Y 0.000220843
3 *1400:D *1282:B 1.24368e-05
4 *1400:D *1284:B1 5.81058e-05
5 *1400:D *1285:B 2.28499e-05
6 *1400:D *293:73 5.10822e-05
7 *1400:D *321:34 0.000103253
8 *1400:D *321:58 0
*RES
1 *1285:Y *1400:D 31.1759 
*END

*D_NET *100 0.000528854
*CONN
*I *1401:D I *D sky130_fd_sc_hd__dfxtp_1
*I *1290:X O *D sky130_fd_sc_hd__o211a_1
*CAP
1 *1401:D 0.000176568
2 *1290:X 0.000176568
3 *1401:D *1290:A1 0
4 *1401:D *1401:CLK 1.64343e-05
5 *1401:D *171:18 1.64343e-05
6 *1401:D *392:10 0
7 *1401:D *392:28 0.00014285
*RES
1 *1290:X *1401:D 30.7652 
*END

*D_NET *101 0.000860995
*CONN
*I *1402:D I *D sky130_fd_sc_hd__dfxtp_1
*I *1291:X O *D sky130_fd_sc_hd__o221a_1
*CAP
1 *1402:D 0.000396752
2 *1291:X 0.000396752
3 *1402:D *1291:A1 6.74911e-05
4 *1402:D *1465:A 0
5 *1402:D *392:10 0
*RES
1 *1291:X *1402:D 34.6045 
*END

*D_NET *102 0.00033386
*CONN
*I *1403:D I *D sky130_fd_sc_hd__dfxtp_1
*I *1210:X O *D sky130_fd_sc_hd__or2_1
*CAP
1 *1403:D 9.04066e-05
2 *1210:X 9.04066e-05
3 *1403:D *1458:A 0
4 *1403:D *375:8 0.000153047
*RES
1 *1210:X *1403:D 29.7116 
*END

*D_NET *103 0.000546138
*CONN
*I *1404:D I *D sky130_fd_sc_hd__dfxtp_1
*I *1292:Y O *D sky130_fd_sc_hd__nor2_1
*CAP
1 *1404:D 8.17321e-05
2 *1292:Y 8.17321e-05
3 *1404:D *1234:A2 0.000144186
4 *1404:D *1238:B 3.6841e-05
5 *1404:D *133:45 0.000100823
6 *1404:D *305:14 0.000100823
*RES
1 *1292:Y *1404:D 30.3366 
*END

*D_NET *104 0.00070921
*CONN
*I *1405:D I *D sky130_fd_sc_hd__dfxtp_1
*I *1293:Y O *D sky130_fd_sc_hd__nor2_1
*CAP
1 *1405:D 0.000257111
2 *1293:Y 0.000257111
3 *1405:D *297:21 0.000100823
4 *1405:D *395:12 9.41642e-05
*RES
1 *1293:Y *1405:D 31.9795 
*END

*D_NET *105 0.000379167
*CONN
*I *1406:D I *D sky130_fd_sc_hd__dfxtp_1
*I *1294:X O *D sky130_fd_sc_hd__and2_1
*CAP
1 *1406:D 9.1264e-05
2 *1294:X 9.1264e-05
3 *1406:D *1406:CLK 3.79467e-05
4 *1406:D *135:21 0.000101545
5 *1406:D *302:74 5.71472e-05
*RES
1 *1294:X *1406:D 29.6402 
*END

*D_NET *106 0.000411951
*CONN
*I *1407:D I *D sky130_fd_sc_hd__dfxtp_1
*I *1237:Y O *D sky130_fd_sc_hd__nor2_1
*CAP
1 *1407:D 0.000157905
2 *1237:Y 0.000157905
3 *1407:D *1161:A 0
4 *1407:D *1237:A 2.56601e-05
5 *1407:D *1488:A 0
6 *1407:D *375:14 5.71472e-05
7 *1407:D *375:20 1.33343e-05
*RES
1 *1237:Y *1407:D 30.2473 
*END

*D_NET *107 0.000347528
*CONN
*I *1408:D I *D sky130_fd_sc_hd__dfxtp_1
*I *1297:X O *D sky130_fd_sc_hd__o21a_1
*CAP
1 *1408:D 0.000142891
2 *1297:X 0.000142891
3 *1408:D *1297:A1 0
4 *1408:D *1408:CLK 6.05161e-06
5 *1408:D *135:40 0
6 *1408:D *302:104 5.56943e-05
*RES
1 *1297:X *1408:D 30.158 
*END

*D_NET *108 0.000998176
*CONN
*I *1409:D I *D sky130_fd_sc_hd__dfxtp_1
*I *1321:X O *D sky130_fd_sc_hd__and2b_1
*CAP
1 *1409:D 0.000329901
2 *1321:X 0.000329901
3 *1409:D *1321:B 0.000187042
4 *1409:D *1520:A 0
5 *1409:D *369:12 0.000151333
*RES
1 *1321:X *1409:D 33.1223 
*END

*D_NET *109 0.00033343
*CONN
*I *1410:D I *D sky130_fd_sc_hd__dfxtp_1
*I *1324:X O *D sky130_fd_sc_hd__and3_1
*CAP
1 *1410:D 0.000100934
2 *1324:X 0.000100934
3 *1410:D *1324:A 0.000131562
*RES
1 *1324:X *1410:D 20.658 
*END

*D_NET *110 0.000253971
*CONN
*I *1411:D I *D sky130_fd_sc_hd__dfxtp_1
*I *1327:X O *D sky130_fd_sc_hd__and3_1
*CAP
1 *1411:D 4.7505e-05
2 *1327:X 4.7505e-05
3 *1411:D *1510:A 0.000103267
4 *1411:D *292:54 5.56943e-05
*RES
1 *1327:X *1411:D 29.1045 
*END

*D_NET *111 0.00028608
*CONN
*I *1412:D I *D sky130_fd_sc_hd__dfxtp_1
*I *1330:X O *D sky130_fd_sc_hd__and3b_1
*CAP
1 *1412:D 0.000127607
2 *1330:X 0.000127607
3 *1412:D *292:46 3.08664e-05
*RES
1 *1330:X *1412:D 20.658 
*END

*D_NET *112 0.000735107
*CONN
*I *1413:D I *D sky130_fd_sc_hd__dfxtp_1
*I *1333:X O *D sky130_fd_sc_hd__and3_1
*CAP
1 *1413:D 0.000326756
2 *1333:X 0.000326756
3 *1413:D *1333:C 8.15939e-05
4 *1413:D *1441:A 0
*RES
1 *1333:X *1413:D 33.408 
*END

*D_NET *113 0.000466809
*CONN
*I *1414:D I *D sky130_fd_sc_hd__dfxtp_1
*I *1336:X O *D sky130_fd_sc_hd__and3b_1
*CAP
1 *1414:D 0.000140873
2 *1336:X 0.000140873
3 *1439:A *1414:D 0.000185062
*RES
1 *1336:X *1414:D 20.9616 
*END

*D_NET *114 0.000416026
*CONN
*I *1415:D I *D sky130_fd_sc_hd__dfxtp_1
*I *1339:X O *D sky130_fd_sc_hd__and3_1
*CAP
1 *1415:D 7.2612e-05
2 *1339:X 7.2612e-05
3 *1415:D *1339:A 0.000186542
4 *1415:D *1415:CLK 8.42606e-05
*RES
1 *1339:X *1415:D 21.0107 
*END

*D_NET *115 0.000262238
*CONN
*I *1416:D I *D sky130_fd_sc_hd__dfxtp_1
*I *1342:X O *D sky130_fd_sc_hd__and3b_1
*CAP
1 *1416:D 5.40764e-05
2 *1342:X 5.40764e-05
3 *1416:D *1342:B 5.24274e-05
4 *1416:D *262:73 6.8646e-06
5 *1416:D *372:12 9.47931e-05
*RES
1 *1342:X *1416:D 29.1045 
*END

*D_NET *116 0.000366745
*CONN
*I *1417:D I *D sky130_fd_sc_hd__dfxtp_1
*I *1345:X O *D sky130_fd_sc_hd__and3_1
*CAP
1 *1417:D 0.000105876
2 *1345:X 0.000105876
3 *1417:D *1345:A 5.71472e-05
4 *1417:D *1345:B 3.0285e-05
5 *1417:D *1434:A 4.78056e-05
6 *1417:D *266:10 1.64343e-05
7 *1417:D *360:8 3.32132e-06
*RES
1 *1345:X *1417:D 29.6402 
*END

*D_NET *117 0.000362362
*CONN
*I *1418:D I *D sky130_fd_sc_hd__dfxtp_1
*I *1348:X O *D sky130_fd_sc_hd__and3_1
*CAP
1 *1418:D 0.0001326
2 *1348:X 0.0001326
3 *1418:D *1414:CLK 3.00522e-05
4 *1418:D *1418:CLK 3.07806e-05
5 *1418:D *231:14 3.63281e-05
6 *1418:D *239:12 0
*RES
1 *1348:X *1418:D 30.158 
*END

*D_NET *118 0.000386889
*CONN
*I *1419:D I *D sky130_fd_sc_hd__dfxtp_1
*I *1352:X O *D sky130_fd_sc_hd__and3b_1
*CAP
1 *1419:D 0.00010842
2 *1352:X 0.00010842
3 *1419:D *361:12 0.000170049
*RES
1 *1352:X *1419:D 20.658 
*END

*D_NET *119 0.000868251
*CONN
*I *1420:D I *D sky130_fd_sc_hd__dfxtp_1
*I *1355:X O *D sky130_fd_sc_hd__and3_1
*CAP
1 *1420:D 0.000364082
2 *1355:X 0.000364082
3 *1420:D *1353:A 0.000140088
*RES
1 *1355:X *1420:D 24.533 
*END

*D_NET *120 0.000479437
*CONN
*I *1421:D I *D sky130_fd_sc_hd__dfxtp_1
*I *1358:X O *D sky130_fd_sc_hd__and3b_1
*CAP
1 *1421:D 0.000187825
2 *1358:X 0.000187825
3 *1421:D *1421:CLK 2.8266e-06
4 *1421:D *1518:A 0
5 *1421:D *1521:A 0
6 *1421:D *278:10 0.00010096
*RES
1 *1358:X *1421:D 30.658 
*END

*D_NET *121 0.000345755
*CONN
*I *1422:D I *D sky130_fd_sc_hd__dfxtp_1
*I *1361:X O *D sky130_fd_sc_hd__and3b_1
*CAP
1 *1422:D 9.34957e-05
2 *1361:X 9.34957e-05
3 *1422:D *1361:B 2.51343e-06
4 *1422:D *1422:CLK 3.10996e-05
5 *1422:D *349:29 0.00012515
*RES
1 *1361:X *1422:D 20.658 
*END

*D_NET *122 0.00124407
*CONN
*I *1423:D I *D sky130_fd_sc_hd__dfxtp_1
*I *1364:X O *D sky130_fd_sc_hd__and3b_1
*CAP
1 *1423:D 0.00052498
2 *1364:X 0.00052498
3 *1423:D *1362:A 0
4 *1423:D *1423:CLK 0.000129877
5 *1423:D *1522:A 6.42338e-05
6 *1423:D *1525:A 0
*RES
1 *1364:X *1423:D 36.783 
*END

*D_NET *123 0.00043982
*CONN
*I *1424:D I *D sky130_fd_sc_hd__dfxtp_1
*I *1366:X O *D sky130_fd_sc_hd__and2_1
*CAP
1 *1424:D 0.000147522
2 *1366:X 0.000147522
3 *1424:D *1366:B 5.56943e-05
4 *1424:D *1422:CLK 5.33659e-05
5 *1424:D *233:10 3.57163e-05
*RES
1 *1366:X *1424:D 30.7473 
*END

*D_NET *124 0.000725821
*CONN
*I *1425:D I *D sky130_fd_sc_hd__dfxtp_1
*I *1367:X O *D sky130_fd_sc_hd__o21a_1
*CAP
1 *1425:D 0.000143707
2 *1367:X 0.000143707
3 *1425:D *1433:A 0.000153047
4 *1425:D *1541:A 5.35423e-05
5 *1425:D *294:142 0.000231818
*RES
1 *1367:X *1425:D 31.7652 
*END

*D_NET *125 0.000548458
*CONN
*I *1426:D I *D sky130_fd_sc_hd__dfxtp_1
*I *1368:X O *D sky130_fd_sc_hd__o21a_1
*CAP
1 *1426:D 0.000136574
2 *1368:X 0.000136574
3 *1426:D *1367:A2 5.5782e-05
4 *1426:D *135:72 5.17614e-05
5 *1426:D *294:138 1.64343e-05
6 *1426:D *367:20 0.000151333
*RES
1 *1368:X *1426:D 30.658 
*END

*D_NET *126 0.000535628
*CONN
*I *1427:D I *D sky130_fd_sc_hd__dfxtp_1
*I *1369:X O *D sky130_fd_sc_hd__a31o_1
*CAP
1 *1427:D 0.000161751
2 *1369:X 0.000161751
3 *1427:D *1369:A3 2.89016e-05
4 *1427:D *1371:A2 6.65398e-05
5 *1427:D *1413:CLK 2.84494e-05
6 *1427:D *138:16 0
7 *1427:D *292:156 8.82363e-05
*RES
1 *1369:X *1427:D 30.6357 
*END

*D_NET *127 0.000531082
*CONN
*I *1428:D I *D sky130_fd_sc_hd__dfxtp_1
*I *1370:Y O *D sky130_fd_sc_hd__nor2_1
*CAP
1 *1428:D 0.000189014
2 *1370:Y 0.000189014
3 *1428:D *1370:B 0.000153054
4 *1428:D *292:111 0
*RES
1 *1370:Y *1428:D 31.3545 
*END

*D_NET *128 0.000587384
*CONN
*I *1429:D I *D sky130_fd_sc_hd__dfxtp_1
*I *1372:Y O *D sky130_fd_sc_hd__nor3_1
*CAP
1 *1429:D 0.000284902
2 *1372:Y 0.000284902
3 *1429:D *1372:B 1.15281e-05
4 *1429:D *1372:C 6.05161e-06
*RES
1 *1372:Y *1429:D 22.4259 
*END

*D_NET *129 0.000524872
*CONN
*I *1430:D I *D sky130_fd_sc_hd__dfxtp_1
*I *1373:X O *D sky130_fd_sc_hd__and2_1
*CAP
1 *1430:D 0.000176301
2 *1373:X 0.000176301
3 *1430:D *1185:A 8.82363e-05
4 *1430:D *1370:A 0
5 *1430:D *1373:B 3.69047e-06
6 *1430:D *1514:A 4.00025e-05
7 *1430:D *338:8 1.05442e-06
8 *1430:D *338:10 3.92854e-05
*RES
1 *1373:X *1430:D 30.9393 
*END

*D_NET *130 0.000511674
*CONN
*I *1461:A I *D sky130_fd_sc_hd__dlygate4sd3_1
*I *1378:Y O *D sky130_fd_sc_hd__o31ai_1
*CAP
1 *1461:A 0.000246197
2 *1378:Y 0.000246197
3 *1461:A *1378:B1 1.92789e-05
*RES
1 *1378:Y *1461:A 22.4393 
*END

*D_NET *131 0.000938635
*CONN
*I *1432:D I *D sky130_fd_sc_hd__dfxtp_2
*I *1380:Y O *D sky130_fd_sc_hd__a21oi_1
*CAP
1 *1432:D 0.000316086
2 *1380:Y 0.000316086
3 *1432:D *1192:A3 6.04162e-05
4 *1432:D *1194:B 9.32873e-05
5 *1432:D *1379:C 0
6 *1432:D *1379:D 4.1331e-06
7 *1432:D *1380:B1 9.67416e-05
8 *1432:D *294:29 5.18845e-05
9 *1432:D *302:16 0
10 *1432:D *375:26 0
*RES
1 *1380:Y *1432:D 34.5866 
*END

*D_NET *132 0.000522452
*CONN
*I *1237:A I *D sky130_fd_sc_hd__nor2_1
*I *1161:Y O *D sky130_fd_sc_hd__inv_2
*CAP
1 *1237:A 0.000148694
2 *1161:Y 0.000148694
3 *1237:A *1161:A 0.000150618
4 *1237:A *1407:CLK 4.87854e-05
5 *1237:A *1488:A 0
6 *1407:D *1237:A 2.56601e-05
*RES
1 *1161:Y *1237:A 30.4929 
*END

*D_NET *133 0.0083202
*CONN
*I *1293:A I *D sky130_fd_sc_hd__nor2_1
*I *1231:A1 I *D sky130_fd_sc_hd__a21o_1
*I *1236:B2 I *D sky130_fd_sc_hd__o221a_1
*I *1187:B I *D sky130_fd_sc_hd__and3_1
*I *1178:B I *D sky130_fd_sc_hd__or3b_2
*I *1217:A I *D sky130_fd_sc_hd__or3_1
*I *1162:Y O *D sky130_fd_sc_hd__inv_2
*CAP
1 *1293:A 0.000135965
2 *1231:A1 0
3 *1236:B2 0.000271519
4 *1187:B 4.16687e-05
5 *1178:B 3.92359e-05
6 *1217:A 0
7 *1162:Y 0.000918426
8 *133:62 0.000826099
9 *133:45 0.00120396
10 *133:34 0.000338289
11 *133:23 0.000475397
12 *133:10 0.00130027
13 *1178:B *152:8 5.52238e-05
14 *1187:B *305:14 2.89016e-05
15 *1236:B2 *1234:A2 0.000137983
16 *1236:B2 *1236:A1 1.3701e-05
17 *1236:B2 *1236:A2 6.62868e-05
18 *1236:B2 *1238:B 9.10731e-05
19 *1293:A *1236:B1 2.8428e-05
20 *133:10 *1207:B2 0.000123145
21 *133:10 *1217:B 7.72966e-05
22 *133:10 *1221:A3 3.18676e-05
23 *133:10 *1228:A2 4.87854e-05
24 *133:10 *301:27 1.65169e-05
25 *133:10 *301:33 9.22103e-06
26 *133:10 *306:52 2.77258e-05
27 *133:23 *1163:A 0
28 *133:23 *1207:B2 0.000247057
29 *133:23 *1218:A1 0
30 *133:23 *1218:B2 0
31 *133:23 *1379:A 0.000113113
32 *133:23 *147:16 0
33 *133:23 *310:30 2.10446e-05
34 *133:23 *310:36 8.96143e-05
35 *133:34 *310:30 2.37761e-05
36 *133:45 *1163:A 0
37 *133:45 *305:14 0.000236284
38 *133:45 *310:30 1.5942e-05
39 *133:45 *310:73 0.000103032
40 *133:45 *310:84 9.42015e-05
41 *133:45 *312:12 0.000197269
42 *133:62 *1236:B1 0.000337449
43 *133:62 *1459:A 9.71197e-05
44 *133:62 *1488:A 1.08359e-05
45 *133:62 *305:14 0.000141132
46 *133:62 *310:84 0.000132442
47 *1404:D *133:45 0.000100823
48 *1475:A *133:10 5.20692e-05
*RES
1 *1162:Y *133:10 25.425 
2 *133:10 *1217:A 13.8 
3 *133:10 *133:23 8.98214 
4 *133:23 *1178:B 14.3357 
5 *133:23 *133:34 1.03571 
6 *133:34 *1187:B 14.3357 
7 *133:34 *133:45 7.71429 
8 *133:45 *1236:B2 19.2821 
9 *133:45 *133:62 18.3571 
10 *133:62 *1231:A1 9.3 
11 *133:62 *1293:A 11.4964 
*END

*D_NET *134 0.00523626
*CONN
*I *1181:B I *D sky130_fd_sc_hd__or3_2
*I *1236:A1 I *D sky130_fd_sc_hd__o221a_1
*I *1235:A1_N I *D sky130_fd_sc_hd__o2bb2a_1
*I *1292:A I *D sky130_fd_sc_hd__nor2_1
*I *1163:Y O *D sky130_fd_sc_hd__inv_2
*CAP
1 *1181:B 0.000398678
2 *1236:A1 0.000161625
3 *1235:A1_N 0
4 *1292:A 0.000107946
5 *1163:Y 0.000351646
6 *134:14 0.000216549
7 *134:10 0.000338821
8 *134:6 0.000818918
9 *1181:B *1188:A 0
10 *1181:B *193:10 0
11 *1181:B *305:57 0.000104974
12 *1181:B *312:12 0.000269422
13 *1181:B *314:44 0
14 *1236:A1 *1238:B 2.15245e-05
15 *1236:A1 *1238:C_N 5.52302e-05
16 *1236:A1 *1485:A 0.000116481
17 *1236:A1 *193:10 0.000125731
18 *1292:A *1235:B2 9.90431e-05
19 *1292:A *297:31 0.000312682
20 *1292:A *309:38 0.000125248
21 *134:6 *312:12 0.00052833
22 *134:10 *1485:A 0.00027338
23 *134:10 *193:10 0.00027338
24 *134:14 *297:31 0.00041555
25 *134:14 *309:38 0.000107403
26 *1236:B2 *1236:A1 1.3701e-05
*RES
1 *1163:Y *134:6 14.3536 
2 *134:6 *134:10 7.96429 
3 *134:10 *134:14 8.46875 
4 *134:14 *1292:A 13.9563 
5 *134:14 *1235:A1_N 9.3 
6 *134:10 *1236:A1 17.6571 
7 *134:6 *1181:B 24.3536 
*END

*D_NET *135 0.0166148
*CONN
*I *1227:A1 I *D sky130_fd_sc_hd__a31o_1
*I *1211:A1 I *D sky130_fd_sc_hd__a31o_1
*I *1202:A1 I *D sky130_fd_sc_hd__a41o_1
*I *1368:B1 I *D sky130_fd_sc_hd__o21a_1
*I *1367:B1 I *D sky130_fd_sc_hd__o21a_1
*I *1373:A I *D sky130_fd_sc_hd__and2_1
*I *1192:B1 I *D sky130_fd_sc_hd__o31a_1
*I *1378:B1 I *D sky130_fd_sc_hd__o31ai_1
*I *1297:B1 I *D sky130_fd_sc_hd__o21a_1
*I *1294:B I *D sky130_fd_sc_hd__and2_1
*I *1164:Y O *D sky130_fd_sc_hd__inv_2
*CAP
1 *1227:A1 0.000377486
2 *1211:A1 2.65992e-05
3 *1202:A1 0.000192123
4 *1368:B1 6.02395e-05
5 *1367:B1 2.23854e-05
6 *1373:A 0.000625844
7 *1192:B1 0.000195327
8 *1378:B1 0.000270445
9 *1297:B1 0.000279061
10 *1294:B 0
11 *1164:Y 0.000324122
12 *135:103 0.000438105
13 *135:101 0.00136347
14 *135:72 0.000947638
15 *135:70 0.000416354
16 *135:57 0.000366437
17 *135:40 0.000684588
18 *135:21 0.00114394
19 *135:10 0.000660073
20 *135:6 0.00118565
21 *1192:B1 *1460:A 9.80173e-05
22 *1192:B1 *366:28 0.00036192
23 *1192:B1 *367:20 1.33343e-05
24 *1202:A1 *1202:A4 0.000229456
25 *1202:A1 *1211:A3 0
26 *1202:A1 *1213:A 1.52978e-05
27 *1202:A1 *1214:B 3.06406e-05
28 *1202:A1 *1401:CLK 0
29 *1202:A1 *1446:A 0
30 *1202:A1 *162:10 0.000402784
31 *1202:A1 *302:30 7.32955e-05
32 *1202:A1 *313:10 3.17148e-05
33 *1211:A1 *1211:A2 5.52238e-05
34 *1211:A1 *1222:C_N 5.52238e-05
35 *1211:A1 *163:14 4.08637e-05
36 *1211:A1 *313:21 5.33005e-05
37 *1227:A1 *1228:A1 0.000126468
38 *1227:A1 *1228:A2 1.02821e-05
39 *1227:A1 *1228:B1 5.52302e-05
40 *1227:A1 *1377:B1 5.86416e-05
41 *1227:A1 *1442:A 2.66706e-05
42 *1227:A1 *154:23 4.18895e-05
43 *1227:A1 *162:21 0.000123288
44 *1297:B1 *1296:A 1.33343e-05
45 *1297:B1 *1296:C 0.000139482
46 *1373:A *1433:A 0.000359997
47 *1373:A *1519:A 7.77751e-05
48 *1373:A *1541:A 5.62995e-05
49 *1373:A *302:104 5.33005e-05
50 *1373:A *342:6 0.000139907
51 *1378:B1 *1378:A1 1.62121e-05
52 *1378:B1 *1378:A2 0.00013438
53 *1378:B1 *366:28 1.74352e-05
54 *1378:B1 *367:32 0.00012401
55 *135:6 *1369:A1 0.000271648
56 *135:10 *1406:CLK 0
57 *135:10 *294:35 0
58 *135:10 *309:10 7.83366e-05
59 *135:21 *1297:A1 0
60 *135:21 *1378:A2 0
61 *135:21 *1406:CLK 0
62 *135:21 *153:10 0
63 *135:21 *309:10 5.80706e-06
64 *135:21 *309:23 0.000223443
65 *135:40 *1297:A1 0.000274294
66 *135:40 *333:8 0.000170955
67 *135:57 *1378:A2 7.57806e-05
68 *135:57 *1509:A 1.91414e-05
69 *135:57 *367:20 3.34366e-05
70 *135:57 *367:32 0.00020042
71 *135:70 *1509:A 0.000201127
72 *135:70 *367:20 0.000103993
73 *135:72 *1367:A2 0.000178459
74 *135:101 *1194:C_N 5.7616e-05
75 *135:101 *1222:A 9.77491e-05
76 *135:101 *1369:A1 0.000139087
77 *135:101 *1377:C1 0
78 *135:101 *1378:A3 0.000135264
79 *135:101 *1442:A 2.91193e-05
80 *135:101 *153:23 0.000257073
81 *135:101 *154:10 0
82 *135:101 *302:8 3.92757e-05
83 *135:101 *302:74 6.19181e-05
84 *135:101 *313:10 0.000384748
85 *135:103 *1213:A 8.359e-05
86 *135:103 *1213:B 0.000146474
87 *135:103 *1442:A 6.22333e-05
88 *135:103 *313:10 0.000495671
89 *1406:D *135:21 0.000101545
90 *1408:D *135:40 0
91 *1426:D *135:72 5.17614e-05
92 *1461:A *1378:B1 1.92789e-05
*RES
1 *1164:Y *135:6 13.9429 
2 *135:6 *135:10 6.44643 
3 *135:10 *1294:B 13.8 
4 *135:10 *135:21 10.9821 
5 *135:21 *1297:B1 17.9429 
6 *135:21 *135:40 15.3929 
7 *135:40 *1378:B1 19.2643 
8 *135:40 *135:57 3.69643 
9 *135:57 *1192:B1 18.4429 
10 *135:57 *135:70 7.05357 
11 *135:70 *135:72 6.28571 
12 *135:72 *1373:A 21.7464 
13 *135:72 *1367:B1 9.72857 
14 *135:70 *1368:B1 10.2643 
15 *135:6 *135:101 20.6518 
16 *135:101 *135:103 6.65179 
17 *135:103 *1202:A1 19.8714 
18 *135:103 *1211:A1 14.7464 
19 *135:101 *1227:A1 28.2554 
*END

*D_NET *136 0.00299198
*CONN
*I *1234:A2 I *D sky130_fd_sc_hd__a221o_1
*I *1235:B1 I *D sky130_fd_sc_hd__o2bb2a_1
*I *1165:Y O *D sky130_fd_sc_hd__inv_2
*CAP
1 *1234:A2 0.000544455
2 *1235:B1 7.33266e-05
3 *1165:Y 0.000358303
4 *136:10 0.000976084
5 *1234:A2 *1234:C1 0
6 *1234:A2 *1238:B 1.56394e-05
7 *1234:A2 *1404:CLK 0.000102207
8 *1235:B1 *1235:A2_N 0
9 *1235:B1 *310:84 0.000125724
10 *136:10 *1235:A2_N 0
11 *136:10 *1236:B1 0
12 *136:10 *1488:A 0.000125731
13 *136:10 *305:101 0.000126639
14 *136:10 *310:84 0.0002617
15 *1236:B2 *1234:A2 0.000137983
16 *1404:D *1234:A2 0.000144186
*RES
1 *1165:Y *136:10 20.9607 
2 *136:10 *1235:B1 15.4429 
3 *136:10 *1234:A2 21.3312 
*END

*D_NET *137 0.00343022
*CONN
*I *1204:A2 I *D sky130_fd_sc_hd__a21o_1
*I *1376:A I *D sky130_fd_sc_hd__or3_1
*I *1166:Y O *D sky130_fd_sc_hd__inv_2
*CAP
1 *1204:A2 0
2 *1376:A 0.000770814
3 *1166:Y 1.37766e-05
4 *137:6 0.000784591
5 *1376:A *1206:A2 0.000288644
6 *1376:A *1206:B1 5.52238e-05
7 *1376:A *1207:C1 0.000747395
8 *1376:A *1214:C 5.33005e-05
9 *1376:A *1377:B1 2.27416e-05
10 *1376:A *193:10 0
11 *1376:A *307:10 1.02504e-05
12 *1376:A *307:23 0.000148189
13 *1376:A *372:34 0.000335295
14 *137:6 *306:29 9.90431e-05
15 *137:6 *339:14 0.00010096
*RES
1 *1166:Y *137:6 10.2464 
2 *137:6 *1376:A 36.5321 
3 *137:6 *1204:A2 9.3 
*END

*D_NET *138 0.00579362
*CONN
*I *1295:A I *D sky130_fd_sc_hd__and4_1
*I *1314:A1 I *D sky130_fd_sc_hd__a31o_1
*I *1371:A1 I *D sky130_fd_sc_hd__o221a_1
*I *1291:A1 I *D sky130_fd_sc_hd__o221a_1
*I *1168:A I *D sky130_fd_sc_hd__inv_2
*I *1167:X O *D sky130_fd_sc_hd__or4b_2
*CAP
1 *1295:A 0
2 *1314:A1 0.00010315
3 *1371:A1 5.21666e-05
4 *1291:A1 0.000213743
5 *1168:A 0
6 *1167:X 0.000267483
7 *138:49 0.000222876
8 *138:16 0.000787122
9 *138:12 0.000955236
10 *138:10 0.0007169
11 *1291:A1 *290:8 0.000261178
12 *1291:A1 *392:10 9.24395e-05
13 *1314:A1 *1295:C 0.000142856
14 *1314:A1 *1314:A3 5.80706e-06
15 *1314:A1 *1320:B 0
16 *1314:A1 *230:22 0
17 *1314:A1 *230:24 0
18 *1371:A1 *1369:A2 5.33334e-05
19 *1371:A1 *302:78 0.000186662
20 *138:10 *1169:D_N 9.71197e-05
21 *138:10 *1171:B 1.87955e-05
22 *138:10 *1171:C 5.7616e-05
23 *138:10 *247:10 0
24 *138:10 *336:36 0.000140933
25 *138:10 *338:16 0
26 *138:10 *375:54 6.41079e-05
27 *138:12 *1320:B 0
28 *138:12 *1371:B1 0
29 *138:12 *1372:B 7.92975e-05
30 *138:12 *1372:C 6.74911e-05
31 *138:12 *230:22 2.61337e-05
32 *138:12 *230:24 0.000104236
33 *138:12 *375:41 4.94455e-05
34 *138:12 *375:54 0.000170001
35 *138:16 *1291:B2 0
36 *138:16 *1369:A2 8.15939e-05
37 *138:16 *1371:A2 0
38 *138:16 *1371:B1 0
39 *138:16 *1413:CLK 0.000195357
40 *138:16 *1429:CLK 0
41 *138:16 *1465:A 0
42 *138:16 *250:10 0
43 *138:16 *375:41 8.04913e-05
44 *138:49 *1295:C 1.54142e-05
45 *138:49 *230:22 9.71197e-05
46 *1402:D *1291:A1 6.74911e-05
47 *1427:D *138:16 0
48 *1439:A *1291:A1 0.000320024
*RES
1 *1167:X *138:10 18.5321 
2 *138:10 *138:12 8.01786 
3 *138:12 *138:16 17.0714 
4 *138:16 *1168:A 9.3 
5 *138:16 *1291:A1 25.1929 
6 *138:12 *1371:A1 15.5679 
7 *138:10 *138:49 6.28571 
8 *138:49 *1314:A1 20.3893 
9 *138:49 *1295:A 9.3 
*END

*D_NET *139 0.00614719
*CONN
*I *1295:B I *D sky130_fd_sc_hd__and4_1
*I *1310:A I *D sky130_fd_sc_hd__or3_1
*I *1312:D1 I *D sky130_fd_sc_hd__a2111o_1
*I *1170:A I *D sky130_fd_sc_hd__inv_2
*I *1169:X O *D sky130_fd_sc_hd__or4b_2
*CAP
1 *1295:B 0
2 *1310:A 2.23854e-05
3 *1312:D1 9.44202e-05
4 *1170:A 0.000332125
5 *1169:X 0.000345925
6 *139:26 0.000503795
7 *139:24 0.000858448
8 *139:12 0.00110474
9 *1170:A *1310:B 5.33005e-05
10 *1170:A *1316:A 3.67257e-05
11 *1170:A *1316:C 0.00018372
12 *1170:A *1542:A 5.52302e-05
13 *1170:A *240:6 9.63925e-05
14 *1170:A *362:23 0.000173812
15 *1170:A *362:34 9.63925e-05
16 *1170:A *369:25 9.24395e-05
17 *1312:D1 *1310:C 3.57844e-05
18 *1312:D1 *1312:B1 0.00010096
19 *1312:D1 *1313:A3 0.000176226
20 *1312:D1 *238:16 0.000222878
21 *1312:D1 *238:27 3.17148e-05
22 *1312:D1 *300:10 9.71197e-05
23 *139:12 *1295:C 2.89016e-05
24 *139:12 *1295:D 0.000185643
25 *139:12 *1318:B 3.34366e-05
26 *139:12 *229:10 0.000171375
27 *139:12 *230:22 3.98577e-05
28 *139:12 *335:10 0.000171375
29 *139:12 *335:32 7.15521e-05
30 *139:12 *335:43 4.73656e-05
31 *139:12 *337:18 9.14944e-05
32 *139:24 *1295:C 3.98577e-05
33 *139:24 *1308:B1 3.57163e-05
34 *139:24 *1314:B1 7.77652e-05
35 *139:24 *1316:B 0
36 *139:24 *1320:B 0
37 *139:24 *140:18 1.66955e-05
38 *139:24 *140:38 0.000172474
39 *139:24 *237:20 0.000153054
40 *139:24 *374:8 0
41 *139:26 *1310:B 9.60939e-05
*RES
1 *1169:X *139:12 26.7107 
2 *139:12 *139:24 20.8393 
3 *139:24 *139:26 1.35714 
4 *139:26 *1170:A 26.55 
5 *139:26 *1312:D1 22.4071 
6 *139:24 *1310:A 9.72857 
7 *139:12 *1295:B 9.3 
*END

*D_NET *140 0.00371759
*CONN
*I *1295:C I *D sky130_fd_sc_hd__and4_1
*I *1314:A2 I *D sky130_fd_sc_hd__a31o_1
*I *1172:A I *D sky130_fd_sc_hd__inv_2
*I *1316:B I *D sky130_fd_sc_hd__nor4_1
*I *1171:X O *D sky130_fd_sc_hd__or4b_2
*CAP
1 *1295:C 9.09488e-05
2 *1314:A2 0
3 *1172:A 0
4 *1316:B 0.000361689
5 *1171:X 0.000593736
6 *140:38 0.000262549
7 *140:18 0.000521961
8 *140:14 0.000925609
9 *1295:C *1314:B1 0.00014285
10 *1295:C *230:22 9.71197e-05
11 *1295:C *247:10 7.43578e-06
12 *1316:B *1308:B1 0
13 *1316:B *1316:D 2.56601e-05
14 *1316:B *1542:A 0
15 *1316:B *246:10 0
16 *1316:B *362:23 5.48581e-05
17 *1316:B *369:25 0
18 *140:14 *1171:D_N 2.55587e-05
19 *140:14 *1308:B1 2.19684e-05
20 *140:14 *1320:B 0
21 *140:14 *1515:A 7.58571e-05
22 *140:18 *340:8 1.58163e-05
23 *140:38 *247:10 7.77751e-05
24 *1314:A1 *1295:C 0.000142856
25 *138:49 *1295:C 1.54142e-05
26 *139:12 *1295:C 2.89016e-05
27 *139:24 *1295:C 3.98577e-05
28 *139:24 *1316:B 0
29 *139:24 *140:18 1.66955e-05
30 *139:24 *140:38 0.000172474
*RES
1 *1171:X *140:14 26.8446 
2 *140:14 *140:18 2.8125 
3 *140:18 *1316:B 24.55 
4 *140:18 *1172:A 9.3 
5 *140:14 *140:38 4.4375 
6 *140:38 *1314:A2 9.3 
7 *140:38 *1295:C 12.7286 
*END

*D_NET *141 0.000413451
*CONN
*I *1189:A I *D sky130_fd_sc_hd__nand2_1
*I *1173:Y O *D sky130_fd_sc_hd__nor2_1
*CAP
1 *1189:A 0.000135797
2 *1173:Y 0.000135797
3 *1189:A *1181:C 3.51442e-05
4 *1189:A *1189:B 3.51442e-05
5 *1189:A *1489:A 0
6 *1189:A *305:57 7.15687e-05
7 *1189:A *314:44 0
*RES
1 *1173:Y *1189:A 30.3232 
*END

*D_NET *142 0.00220993
*CONN
*I *1191:B2 I *D sky130_fd_sc_hd__a32o_1
*I *1180:B I *D sky130_fd_sc_hd__or2_1
*I *1175:C I *D sky130_fd_sc_hd__or4b_2
*I *1174:X O *D sky130_fd_sc_hd__or2_1
*CAP
1 *1191:B2 7.92186e-05
2 *1180:B 7.32638e-05
3 *1175:C 0.000165264
4 *1174:X 2.11774e-05
5 *142:17 0.000260093
6 *142:6 0.000294052
7 *1175:C *1175:D_N 0.000144773
8 *1175:C *314:16 6.57815e-05
9 *1175:C *314:44 3.97677e-05
10 *1180:B *1183:A 0.000137983
11 *1180:B *1190:B1 4.43256e-05
12 *1180:B *148:8 0.000309266
13 *1180:B *310:36 3.30237e-05
14 *1191:B2 *1183:C_N 0
15 *1191:B2 *1489:A 3.0285e-05
16 *1191:B2 *193:10 0.00013651
17 *142:6 *314:44 2.89114e-05
18 *142:17 *1174:A 8.68665e-05
19 *142:17 *1489:A 2.05938e-05
20 *142:17 *193:10 0.000238769
*RES
1 *1174:X *142:6 9.83571 
2 *142:6 *1175:C 12.7107 
3 *142:6 *142:17 7.66071 
4 *142:17 *1180:B 16.8 
5 *142:17 *1191:B2 15.7464 
*END

*D_NET *143 0.0028041
*CONN
*I *1375:B1 I *D sky130_fd_sc_hd__o31a_1
*I *1176:A I *D sky130_fd_sc_hd__inv_2
*I *1221:A3 I *D sky130_fd_sc_hd__o32a_1
*I *1175:X O *D sky130_fd_sc_hd__or4b_2
*CAP
1 *1375:B1 0.000559707
2 *1176:A 0
3 *1221:A3 0.000186524
4 *1175:X 8.99312e-05
5 *143:12 0.000227908
6 *143:10 0.000691022
7 *1221:A3 *1217:C 5.36308e-05
8 *1221:A3 *1219:A 9.11365e-06
9 *1221:A3 *148:10 0
10 *1221:A3 *301:27 2.89016e-05
11 *1221:A3 *301:33 2.75717e-05
12 *1375:B1 *1218:A2 1.32552e-05
13 *1375:B1 *1383:CLK 0.000745478
14 *143:10 *1163:A 7.6644e-05
15 *143:10 *1207:B2 0
16 *143:10 *1374:A1 5.33005e-05
17 *143:12 *1163:A 9.25014e-06
18 *143:12 *1207:B2 0
19 *143:12 *148:10 0
20 *133:10 *1221:A3 3.18676e-05
*RES
1 *1175:X *143:10 15.3714 
2 *143:10 *143:12 0.732143 
3 *143:12 *1221:A3 17.0143 
4 *143:12 *1176:A 13.8 
5 *143:10 *1375:B1 22.05 
*END

*D_NET *144 0.00171294
*CONN
*I *1187:C I *D sky130_fd_sc_hd__and3_1
*I *1178:C_N I *D sky130_fd_sc_hd__or3b_2
*I *1177:Y O *D sky130_fd_sc_hd__nor3_1
*CAP
1 *1187:C 0
2 *1178:C_N 0.000319018
3 *1177:Y 0.000184117
4 *144:6 0.000503135
5 *1178:C_N *1380:B1 0.000247778
6 *1178:C_N *310:21 0.000184745
7 *1178:C_N *310:30 0
8 *1178:C_N *310:36 0
9 *1178:C_N *310:73 0.000108476
10 *144:6 *1177:C 7.43578e-06
11 *144:6 *305:21 4.69993e-05
12 *144:6 *310:73 0.000111235
*RES
1 *1177:Y *144:6 11.7732 
2 *144:6 *1178:C_N 24.1661 
3 *144:6 *1187:C 9.3 
*END

*D_NET *145 0.00490606
*CONN
*I *1179:A I *D sky130_fd_sc_hd__inv_2
*I *1222:A I *D sky130_fd_sc_hd__or3b_1
*I *1286:A1 I *D sky130_fd_sc_hd__a21oi_1
*I *1375:A1 I *D sky130_fd_sc_hd__o31a_1
*I *1178:X O *D sky130_fd_sc_hd__or3b_2
*CAP
1 *1179:A 0
2 *1222:A 0.000274191
3 *1286:A1 5.35602e-05
4 *1375:A1 0.000197342
5 *1178:X 0.000355964
6 *145:36 0.000296577
7 *145:27 0.000438648
8 *145:10 0.000916009
9 *1222:A *1222:B 8.00806e-05
10 *1222:A *1222:C_N 4.1331e-06
11 *1222:A *1228:A1 1.02504e-05
12 *1222:A *1286:A2 0.000225314
13 *1222:A *225:14 0
14 *1222:A *313:10 0.000136276
15 *1286:A1 *1286:B1 4.87854e-05
16 *1375:A1 *1374:A1 0.000154762
17 *1375:A1 *1377:A1 9.25014e-06
18 *1375:A1 *1383:CLK 0
19 *1375:A1 *302:16 0.000125724
20 *1375:A1 *302:22 0.000284743
21 *145:10 *1380:B1 7.47367e-05
22 *145:10 *147:16 0.000142856
23 *145:10 *294:8 9.90367e-05
24 *145:10 *302:16 6.73939e-05
25 *145:27 *1286:B1 0.00019501
26 *145:27 *1379:A 6.37237e-05
27 *145:27 *1379:C 1.4487e-05
28 *145:27 *1379:D 2.58821e-05
29 *145:27 *1380:A1 0.000392026
30 *145:27 *1380:A2 2.44318e-05
31 *145:27 *1380:B1 9.71197e-05
32 *145:36 *1286:B1 0
33 *135:101 *1222:A 9.77491e-05
*RES
1 *1178:X *145:10 19.0679 
2 *145:10 *1375:A1 19.3893 
3 *145:10 *145:27 12.5714 
4 *145:27 *1286:A1 10.2464 
5 *145:27 *145:36 0.428571 
6 *145:36 *1222:A 26.0143 
7 *145:36 *1179:A 9.3 
*END

*D_NET *146 0.00184682
*CONN
*I *1189:B I *D sky130_fd_sc_hd__nand2_1
*I *1181:C I *D sky130_fd_sc_hd__or3_2
*I *1183:B I *D sky130_fd_sc_hd__or3b_2
*I *1180:X O *D sky130_fd_sc_hd__or2_1
*CAP
1 *1189:B 0.000130575
2 *1181:C 1.49866e-05
3 *1183:B 0
4 *1180:X 0.000132798
5 *146:17 0.000421607
6 *146:6 0.000408843
7 *1181:C *1183:C_N 6.03126e-05
8 *1181:C *305:57 1.02504e-05
9 *1189:B *1191:A3 3.69047e-06
10 *1189:B *1489:A 2.89114e-05
11 *1189:B *314:44 2.31704e-05
12 *146:6 *310:36 0.000180777
13 *146:17 *1183:C_N 0.000114485
14 *146:17 *1190:A1 0.000169359
15 *146:17 *1489:A 2.15363e-05
16 *146:17 *310:36 5.52238e-05
17 *146:17 *314:44 0
18 *1189:A *1181:C 3.51442e-05
19 *1189:A *1189:B 3.51442e-05
*RES
1 *1180:X *146:6 11.0679 
2 *146:6 *1183:B 9.3 
3 *146:6 *146:17 9.08036 
4 *146:17 *1181:C 14.6839 
5 *146:17 *1189:B 16.1661 
*END

*D_NET *147 0.00547329
*CONN
*I *1191:A1 I *D sky130_fd_sc_hd__a32o_1
*I *1182:A I *D sky130_fd_sc_hd__inv_2
*I *1286:A2 I *D sky130_fd_sc_hd__a21oi_1
*I *1218:B2 I *D sky130_fd_sc_hd__o32a_1
*I *1181:X O *D sky130_fd_sc_hd__or3_2
*CAP
1 *1191:A1 2.23854e-05
2 *1182:A 0
3 *1286:A2 0.000148742
4 *1218:B2 0.000120549
5 *1181:X 0.000155643
6 *147:29 0.000626448
7 *147:16 0.00142729
8 *147:6 0.00100706
9 *1218:B2 *1218:A1 4.1331e-06
10 *1218:B2 *1218:B1 5.80706e-06
11 *1218:B2 *1374:A1 0
12 *1218:B2 *1383:CLK 4.71964e-05
13 *1286:A2 *225:14 5.80217e-05
14 *147:6 *1191:A3 2.27017e-05
15 *147:6 *1191:B1 0.000160787
16 *147:16 *1191:A2 0.000271352
17 *147:16 *1191:A3 1.39726e-05
18 *147:16 *1380:B1 6.05161e-06
19 *147:16 *1383:CLK 0.00012838
20 *147:16 *152:8 0.000280952
21 *147:16 *294:23 2.8266e-06
22 *147:16 *310:36 0
23 *147:29 *1374:A1 0.000269428
24 *147:29 *1379:C 0.000325397
25 *1222:A *1286:A2 0.000225314
26 *1384:D *1286:A2 0
27 *133:23 *1218:B2 0
28 *133:23 *147:16 0
29 *145:10 *147:16 0.000142856
*RES
1 *1181:X *147:6 11.4786 
2 *147:6 *147:16 20.125 
3 *147:16 *1218:B2 16.05 
4 *147:16 *147:29 14.4821 
5 *147:29 *1286:A2 22.1036 
6 *147:29 *1182:A 9.3 
7 *147:6 *1191:A1 9.72857 
*END

*D_NET *148 0.00476527
*CONN
*I *1191:A2 I *D sky130_fd_sc_hd__a32o_1
*I *1221:B1 I *D sky130_fd_sc_hd__o32a_1
*I *1184:A I *D sky130_fd_sc_hd__inv_2
*I *1226:C I *D sky130_fd_sc_hd__or4_1
*I *1183:X O *D sky130_fd_sc_hd__or3b_2
*CAP
1 *1191:A2 0.000134188
2 *1221:B1 0
3 *1184:A 0
4 *1226:C 0.000103106
5 *1183:X 0.000407164
6 *148:16 0.000274089
7 *148:10 0.000572827
8 *148:8 0.000943196
9 *1191:A2 *1191:A3 2.89114e-05
10 *1191:A2 *152:8 5.41609e-05
11 *1191:A2 *305:27 9.0573e-05
12 *1226:C *1227:B1 0.000226513
13 *1226:C *311:8 1.74352e-05
14 *148:8 *1183:A 2.28598e-05
15 *148:8 *1190:B1 3.14078e-05
16 *148:8 *310:36 3.65178e-05
17 *148:10 *1163:A 3.52655e-05
18 *148:10 *1175:D_N 0
19 *148:10 *301:33 0
20 *148:10 *305:27 0.000271958
21 *148:10 *307:23 0.000105582
22 *148:10 *307:34 0
23 *148:10 *309:42 0
24 *148:16 *1221:B2 1.31516e-05
25 *148:16 *1227:B1 0.000284106
26 *148:16 *301:27 0.000150618
27 *148:16 *307:23 9.24395e-05
28 *148:16 *311:8 0.000288586
29 *1180:B *148:8 0.000309266
30 *1221:A3 *148:10 0
31 *143:12 *148:10 0
32 *147:16 *1191:A2 0.000271352
*RES
1 *1183:X *148:8 19.2643 
2 *148:8 *148:10 8.32143 
3 *148:10 *148:16 11.8036 
4 *148:16 *1226:C 11.9071 
5 *148:16 *1184:A 9.3 
6 *148:10 *1221:B1 13.8 
7 *148:8 *1191:A2 17.7286 
*END

*D_NET *149 0.00233134
*CONN
*I *1186:A I *D sky130_fd_sc_hd__inv_2
*I *1295:D I *D sky130_fd_sc_hd__and4_1
*I *1185:X O *D sky130_fd_sc_hd__or4b_1
*CAP
1 *1186:A 0
2 *1295:D 0.000425173
3 *1185:X 0.000141047
4 *149:10 0.00056622
5 *1295:D *230:22 9.7659e-05
6 *1295:D *336:27 0
7 *1295:D *337:18 9.90477e-05
8 *1295:D *337:27 5.51406e-05
9 *1295:D *337:44 0.000236595
10 *1295:D *338:10 0
11 *1295:D *375:54 0.000198502
12 *149:10 *1185:A 2.95726e-05
13 *149:10 *1185:C 5.52302e-05
14 *149:10 *1185:D_N 5.52302e-05
15 *149:10 *1514:A 0
16 *149:10 *337:44 8.9163e-05
17 *149:10 *338:8 9.71197e-05
18 *149:10 *338:10 0
19 *139:12 *1295:D 0.000185643
*RES
1 *1185:X *149:10 17.4071 
2 *149:10 *1295:D 25.4071 
3 *149:10 *1186:A 13.8 
*END

*D_NET *150 0.00101991
*CONN
*I *1191:A3 I *D sky130_fd_sc_hd__a32o_1
*I *1189:Y O *D sky130_fd_sc_hd__nand2_1
*CAP
1 *1191:A3 0.000399762
2 *1189:Y 0.000399762
3 *1191:A3 *1191:B1 0.000129759
4 *1191:A3 *1489:A 2.13511e-05
5 *1189:B *1191:A3 3.69047e-06
6 *1191:A2 *1191:A3 2.89114e-05
7 *147:6 *1191:A3 2.27017e-05
8 *147:16 *1191:A3 1.39726e-05
*RES
1 *1189:Y *1191:A3 25.35 
*END

*D_NET *151 0.000952502
*CONN
*I *1191:B1 I *D sky130_fd_sc_hd__a32o_1
*I *1190:X O *D sky130_fd_sc_hd__a21o_1
*CAP
1 *1191:B1 0.000198094
2 *1190:X 0.000198094
3 *1191:B1 *1183:C_N 9.91086e-05
4 *1191:B1 *1190:B1 3.67142e-05
5 *1191:B1 *1489:A 0.000129944
6 *1191:A3 *1191:B1 0.000129759
7 *147:6 *1191:B1 0.000160787
*RES
1 *1190:X *1191:B1 32.2696 
*END

*D_NET *152 0.00621662
*CONN
*I *1192:A3 I *D sky130_fd_sc_hd__o31a_1
*I *1194:B I *D sky130_fd_sc_hd__or3b_1
*I *1191:X O *D sky130_fd_sc_hd__a32o_1
*CAP
1 *1192:A3 0.000793139
2 *1194:B 0.000121818
3 *1191:X 0.000813166
4 *152:8 0.00172812
5 *1192:A3 *1234:B2 0
6 *1192:A3 *1378:A3 0.000465291
7 *1192:A3 *1431:D 0.000104974
8 *1192:A3 *366:28 0.000681951
9 *1192:A3 *375:20 0
10 *1192:A3 *375:26 0
11 *1192:A3 *396:12 8.15939e-05
12 *1194:B *1378:A3 6.53353e-05
13 *1194:B *1379:D 0
14 *1194:B *154:10 5.80706e-06
15 *1194:B *375:89 0.000168939
16 *152:8 *1380:B1 0.000529363
17 *152:8 *375:26 0.000113083
18 *1178:B *152:8 5.52238e-05
19 *1191:A2 *152:8 5.41609e-05
20 *1432:D *1192:A3 6.04162e-05
21 *1432:D *1194:B 9.32873e-05
22 *147:16 *152:8 0.000280952
*RES
1 *1191:X *152:8 29.5321 
2 *152:8 *1194:B 17.5679 
3 *152:8 *1192:A3 33.425 
*END

*D_NET *153 0.00614623
*CONN
*I *1380:A1 I *D sky130_fd_sc_hd__a21oi_1
*I *1194:C_N I *D sky130_fd_sc_hd__or3b_1
*I *1369:A1 I *D sky130_fd_sc_hd__a31o_1
*I *1193:Y O *D sky130_fd_sc_hd__nor2_1
*CAP
1 *1380:A1 0.000284206
2 *1194:C_N 2.03833e-05
3 *1369:A1 0.000460512
4 *1193:Y 0.000617637
5 *153:23 0.000441489
6 *153:10 0.00121505
7 *1194:C_N *1378:A3 2.84398e-05
8 *1369:A1 *1369:B1 0.000140933
9 *1369:A1 *375:28 0.00079608
10 *1369:A1 *375:30 0.000618912
11 *153:10 *1378:A3 0
12 *153:10 *302:74 7.73277e-05
13 *153:10 *309:10 0
14 *153:10 *309:23 0
15 *153:23 *1378:A3 7.2754e-05
16 *153:23 *375:28 0.000255062
17 *135:6 *1369:A1 0.000271648
18 *135:21 *153:10 0
19 *135:101 *1194:C_N 5.7616e-05
20 *135:101 *1369:A1 0.000139087
21 *135:101 *153:23 0.000257073
22 *145:27 *1380:A1 0.000392026
*RES
1 *1193:Y *153:10 29.6571 
2 *153:10 *1369:A1 24.2107 
3 *153:10 *153:23 9.03571 
4 *153:23 *1194:C_N 14.5321 
5 *153:23 *1380:A1 17.6214 
*END

*D_NET *154 0.0058787
*CONN
*I *1219:A I *D sky130_fd_sc_hd__nor2_1
*I *1215:B1 I *D sky130_fd_sc_hd__a21oi_1
*I *1228:B1 I *D sky130_fd_sc_hd__a31o_1
*I *1194:X O *D sky130_fd_sc_hd__or3b_1
*CAP
1 *1219:A 9.22137e-05
2 *1215:B1 0.000416653
3 *1228:B1 3.1927e-05
4 *1194:X 0.000348637
5 *154:23 0.000826166
6 *154:10 0.000697863
7 *1215:B1 *1207:A2 0.000153117
8 *1215:B1 *1207:B2 0.000524649
9 *1215:B1 *1214:A 0
10 *1215:B1 *1215:A1 0
11 *1215:B1 *293:118 0.000230475
12 *1215:B1 *301:33 9.25014e-06
13 *1215:B1 *311:25 2.1527e-05
14 *1219:A *1207:B2 0.000228206
15 *1219:A *1217:C 0.000102329
16 *1219:A *301:33 0.00011094
17 *1228:B1 *1228:A1 3.57366e-05
18 *1228:B1 *1228:A2 2.59355e-05
19 *154:10 *1228:A2 2.09897e-05
20 *154:10 *1377:B1 0.000247778
21 *154:10 *1378:A3 0
22 *154:10 *1379:D 0
23 *154:10 *162:21 7.95714e-05
24 *154:23 *1228:A2 0.000317555
25 *154:23 *1374:B1_N 1.40415e-05
26 *154:23 *306:52 0.0001399
27 *154:23 *311:25 0.000961599
28 *1194:B *154:10 5.80706e-06
29 *1221:A3 *1219:A 9.11365e-06
30 *1227:A1 *1228:B1 5.52302e-05
31 *1227:A1 *154:23 4.18895e-05
32 *1382:D *1215:B1 0.000129595
33 *135:101 *154:10 0
*RES
1 *1194:X *154:10 25.4071 
2 *154:10 *1228:B1 10.2643 
3 *154:10 *154:23 15.3036 
4 *154:23 *1215:B1 25.5143 
5 *154:23 *1219:A 16.9607 
*END

*D_NET *155 0.000848444
*CONN
*I *1200:A2 I *D sky130_fd_sc_hd__a31o_1
*I *1195:X O *D sky130_fd_sc_hd__and3_1
*CAP
1 *1200:A2 0.000300608
2 *1195:X 0.000300608
3 *1200:A2 *1199:B 9.22103e-06
4 *1200:A2 *1200:B1 5.33334e-05
5 *1200:A2 *1242:A 1.04232e-05
6 *1200:A2 *1263:A 0.000103275
7 *1200:A2 *1494:A 0
8 *1200:A2 *157:10 0
9 *1200:A2 *211:14 5.16852e-05
10 *1200:A2 *325:49 1.92905e-05
*RES
1 *1195:X *1200:A2 33.8679 
*END

*D_NET *156 0.00346637
*CONN
*I *1243:B I *D sky130_fd_sc_hd__and4_1
*I *1242:A I *D sky130_fd_sc_hd__and2_1
*I *1200:A3 I *D sky130_fd_sc_hd__a31o_1
*I *1264:A2 I *D sky130_fd_sc_hd__a31o_1
*I *1196:X O *D sky130_fd_sc_hd__and2_1
*CAP
1 *1243:B 0
2 *1242:A 0.000156568
3 *1200:A3 0
4 *1264:A2 0.000242461
5 *1196:X 0.000213935
6 *156:25 0.000156568
7 *156:10 0.000332169
8 *156:6 0.000303643
9 *1242:A *1242:B 5.52238e-05
10 *1242:A *197:6 4.43355e-05
11 *1242:A *197:10 2.89016e-05
12 *1242:A *325:49 0.00044942
13 *1264:A2 *1263:A 4.19577e-05
14 *1264:A2 *1264:A1 2.44318e-05
15 *1264:A2 *1264:A3 1.33343e-05
16 *1264:A2 *157:10 0.000315165
17 *1264:A2 *302:36 0.000142897
18 *1264:A2 *329:47 0.000148903
19 *1264:A2 *330:28 3.79467e-05
20 *156:6 *1243:A 4.87854e-05
21 *156:6 *1243:D 0.000310292
22 *156:10 *1202:A3 0.000148911
23 *156:10 *157:10 8.00806e-05
24 *156:10 *157:21 0.000140375
25 *156:10 *302:36 1.9643e-05
26 *1200:A2 *1242:A 1.04232e-05
*RES
1 *1196:X *156:6 13.9429 
2 *156:6 *156:10 7.35714 
3 *156:10 *1264:A2 21.5679 
4 *156:10 *156:25 4.5 
5 *156:25 *1200:A3 9.3 
6 *156:25 *1242:A 13.9607 
7 *156:6 *1243:B 9.3 
*END

*D_NET *157 0.0035143
*CONN
*I *1209:A2 I *D sky130_fd_sc_hd__a31o_1
*I *1223:B1 I *D sky130_fd_sc_hd__o211a_1
*I *1272:A1 I *D sky130_fd_sc_hd__a21oi_1
*I *1243:C I *D sky130_fd_sc_hd__and4_1
*I *1199:B I *D sky130_fd_sc_hd__or3_1
*I *1197:X O *D sky130_fd_sc_hd__and4_1
*CAP
1 *1209:A2 0.000101248
2 *1223:B1 0
3 *1272:A1 4.42861e-05
4 *1243:C 0
5 *1199:B 0.00020062
6 *1197:X 0.000300727
7 *157:43 0.000257929
8 *157:30 0.000247979
9 *157:21 9.22975e-05
10 *157:10 0.000546633
11 *1199:B *1200:B1 5.62995e-05
12 *1199:B *325:49 5.33005e-05
13 *1209:A2 *1202:A3 0.00017309
14 *1209:A2 *1224:C 0
15 *1209:A2 *161:14 0
16 *1272:A1 *373:27 1.40306e-05
17 *157:10 *1197:C 1.58213e-06
18 *157:10 *1197:D 1.58163e-05
19 *157:10 *1223:A2 5.58941e-05
20 *157:10 *1263:A 9.24395e-05
21 *157:10 *1494:A 0
22 *157:10 *329:41 1.92789e-05
23 *157:21 *1223:A2 0.000150625
24 *157:30 *1202:A3 5.97719e-05
25 *157:30 *1223:A2 0.000125724
26 *157:43 *1202:A3 0.000136286
27 *157:43 *1223:A2 0.000223599
28 *157:43 *1273:B 0
29 *1200:A2 *1199:B 9.22103e-06
30 *1200:A2 *157:10 0
31 *1264:A2 *157:10 0.000315165
32 *156:10 *157:10 8.00806e-05
33 *156:10 *157:21 0.000140375
*RES
1 *1197:X *157:10 20.1393 
2 *157:10 *1199:B 16.3893 
3 *157:10 *157:21 1.94643 
4 *157:21 *1243:C 13.8 
5 *157:21 *157:30 1.64286 
6 *157:30 *1272:A1 14.3357 
7 *157:30 *157:43 4 
8 *157:43 *1223:B1 13.8 
9 *157:43 *1209:A2 16.05 
*END

*D_NET *158 0.00276571
*CONN
*I *1201:B I *D sky130_fd_sc_hd__or2_1
*I *1199:C I *D sky130_fd_sc_hd__or3_1
*I *1198:X O *D sky130_fd_sc_hd__or4_1
*CAP
1 *1201:B 9.02954e-05
2 *1199:C 0.000555033
3 *1198:X 0.00042038
4 *158:8 0.00106571
5 *1199:C *1199:A 5.52238e-05
6 *1199:C *1285:A 4.58192e-05
7 *1199:C *293:67 8.15095e-05
8 *1201:B *1285:A 0.000152919
9 *1201:B *293:67 0.00029513
10 *158:8 *322:49 3.69047e-06
*RES
1 *1198:X *158:8 18.4429 
2 *158:8 *1199:C 23.5857 
3 *158:8 *1201:B 17.5679 
*END

*D_NET *159 0.000195348
*CONN
*I *1200:B1 I *D sky130_fd_sc_hd__a31o_1
*I *1199:X O *D sky130_fd_sc_hd__or3_1
*CAP
1 *1200:B1 3.60069e-05
2 *1199:X 3.60069e-05
3 *1200:B1 *325:49 1.3701e-05
4 *1199:B *1200:B1 5.62995e-05
5 *1200:A2 *1200:B1 5.33334e-05
*RES
1 *1199:X *1200:B1 19.975 
*END

*D_NET *160 0.0021048
*CONN
*I *1202:A3 I *D sky130_fd_sc_hd__a41o_1
*I *1200:X O *D sky130_fd_sc_hd__a31o_1
*CAP
1 *1202:A3 0.00042014
2 *1200:X 0.00042014
3 *1202:A3 *1211:A3 0.000145584
4 *1202:A3 *161:27 0
5 *1202:A3 *302:36 0.000543731
6 *1202:A3 *325:49 5.71472e-05
7 *1209:A2 *1202:A3 0.00017309
8 *156:10 *1202:A3 0.000148911
9 *157:30 *1202:A3 5.97719e-05
10 *157:43 *1202:A3 0.000136286
*RES
1 *1200:X *1202:A3 41.3143 
*END

*D_NET *161 0.00432066
*CONN
*I *1202:A4 I *D sky130_fd_sc_hd__a41o_1
*I *1224:B I *D sky130_fd_sc_hd__or3_1
*I *1209:B1 I *D sky130_fd_sc_hd__a31o_1
*I *1201:X O *D sky130_fd_sc_hd__or2_1
*CAP
1 *1202:A4 0.000236425
2 *1224:B 4.16687e-05
3 *1209:B1 6.9737e-05
4 *1201:X 0.000365921
5 *161:27 0.000362115
6 *161:14 0.000519679
7 *1202:A4 *1211:A3 0
8 *1202:A4 *1227:A3 0.000111469
9 *1202:A4 *1446:A 4.46186e-06
10 *1202:A4 *162:10 4.58976e-05
11 *1202:A4 *302:30 0.000315158
12 *1209:B1 *1209:A1 7.61932e-05
13 *1209:B1 *316:72 4.58976e-05
14 *1209:B1 *371:24 0.000227532
15 *1224:B *316:72 2.89016e-05
16 *161:14 *1223:A2 0
17 *161:14 *1224:C 3.0285e-05
18 *161:14 *1272:B1 5.09046e-05
19 *161:14 *1273:A 4.97876e-05
20 *161:14 *1273:B 0.000153047
21 *161:14 *1274:A1 4.18671e-05
22 *161:14 *1274:A2 5.33005e-05
23 *161:14 *1274:B1 0.000461564
24 *161:14 *198:10 0.000150625
25 *161:14 *316:72 0
26 *161:14 *373:27 0.000218746
27 *161:27 *1224:C 9.11365e-06
28 *161:27 *1227:A3 2.8266e-06
29 *161:27 *316:72 0
30 *1202:A1 *1202:A4 0.000229456
31 *1202:A3 *161:27 0
32 *1209:A2 *161:14 0
33 *1395:D *161:14 0.000418073
*RES
1 *1201:X *161:14 26.6571 
2 *161:14 *1209:B1 16.4071 
3 *161:14 *161:27 1.33929 
4 *161:27 *1224:B 14.3357 
5 *161:27 *1202:A4 20.8714 
*END

*D_NET *162 0.00616724
*CONN
*I *1218:A1 I *D sky130_fd_sc_hd__o32a_1
*I *1375:A2 I *D sky130_fd_sc_hd__o31a_1
*I *1222:B I *D sky130_fd_sc_hd__or3b_1
*I *1206:A1 I *D sky130_fd_sc_hd__o21a_1
*I *1202:X O *D sky130_fd_sc_hd__a41o_1
*CAP
1 *1218:A1 0.000352994
2 *1375:A2 2.23854e-05
3 *1222:B 0.000450843
4 *1206:A1 0
5 *1202:X 0.000535279
6 *162:36 0.000628945
7 *162:21 0.000975432
8 *162:10 0.000806302
9 *1218:A1 *1218:A2 0.000315165
10 *1218:A1 *1218:A3 2.78509e-05
11 *1218:A1 *1218:B1 0
12 *1222:B *1377:A1 1.92789e-05
13 *1222:B *1377:A2 1.00073e-05
14 *1222:B *1378:A3 1.57983e-05
15 *1222:B *313:10 7.83587e-05
16 *162:10 *1202:B1 0.00010096
17 *162:10 *1214:B 0.000525381
18 *162:10 *1214:C 0.000179388
19 *162:10 *1446:A 2.89016e-05
20 *162:10 *302:30 3.45599e-05
21 *162:21 *1227:A2 8.59056e-05
22 *162:21 *1227:A3 0
23 *162:21 *1228:A2 1.94945e-05
24 *162:21 *1377:B1 4.84078e-05
25 *162:21 *1379:D 9.48835e-05
26 *162:21 *302:22 0
27 *162:21 *302:30 0
28 *162:36 *1377:A1 7.49615e-05
29 *1202:A1 *162:10 0.000402784
30 *1202:A4 *162:10 4.58976e-05
31 *1218:B2 *1218:A1 4.1331e-06
32 *1222:A *1222:B 8.00806e-05
33 *1227:A1 *162:21 0.000123288
34 *133:23 *1218:A1 0
35 *154:10 *162:21 7.95714e-05
*RES
1 *1202:X *162:10 26.925 
2 *162:10 *1206:A1 13.8 
3 *162:10 *162:21 11.3036 
4 *162:21 *1222:B 23.9786 
5 *162:21 *162:36 3 
6 *162:36 *1375:A2 9.72857 
7 *162:36 *1218:A1 23.1571 
*END

*D_NET *163 0.00672541
*CONN
*I *1216:B I *D sky130_fd_sc_hd__or2_1
*I *1205:B1_N I *D sky130_fd_sc_hd__o21ba_1
*I *1211:B1 I *D sky130_fd_sc_hd__a31o_1
*I *1222:C_N I *D sky130_fd_sc_hd__or3b_1
*I *1203:X O *D sky130_fd_sc_hd__or3_1
*CAP
1 *1216:B 0.00014764
2 *1205:B1_N 0
3 *1211:B1 0
4 *1222:C_N 0.000407121
5 *1203:X 0.000728411
6 *163:14 0.00067782
7 *163:12 0.000441253
8 *163:8 0.0010466
9 *1216:B *1205:A1 0.000186662
10 *1216:B *1218:B1 0
11 *1216:B *1227:B1 0.000186662
12 *1216:B *372:34 0
13 *1222:C_N *1211:A2 2.14757e-05
14 *1222:C_N *1214:B 2.41481e-05
15 *1222:C_N *1228:A1 0
16 *1222:C_N *170:29 2.8046e-05
17 *1222:C_N *171:18 0.000200413
18 *1222:C_N *225:14 0.000245356
19 *1222:C_N *392:28 0.000185258
20 *163:8 *372:34 0.000819454
21 *163:12 *1205:A1 0
22 *163:12 *1206:A2 8.5896e-05
23 *163:12 *372:34 0
24 *163:14 *1491:A 0.000543702
25 *163:14 *313:21 4.43256e-05
26 *163:14 *392:28 0.000604945
27 *1211:A1 *1222:C_N 5.52238e-05
28 *1211:A1 *163:14 4.08637e-05
29 *1222:A *1222:C_N 4.1331e-06
*RES
1 *1203:X *163:8 23.7821 
2 *163:8 *163:12 7.66071 
3 *163:12 *163:14 10.8036 
4 *163:14 *1222:C_N 27.5857 
5 *163:14 *1211:B1 9.3 
6 *163:12 *1205:B1_N 9.3 
7 *163:8 *1216:B 17.5143 
*END

*D_NET *164 0.000919831
*CONN
*I *1207:B1 I *D sky130_fd_sc_hd__a221oi_1
*I *1205:A2 I *D sky130_fd_sc_hd__o21ba_1
*I *1204:X O *D sky130_fd_sc_hd__a21o_1
*CAP
1 *1207:B1 0
2 *1205:A2 8.70966e-05
3 *1204:X 4.15606e-05
4 *164:6 0.000128657
5 *1205:A2 *1207:A1 0
6 *1205:A2 *1491:A 0.00010462
7 *1205:A2 *392:28 0.000264421
8 *164:6 *1207:A1 4.72818e-05
9 *164:6 *1491:A 1.21289e-05
10 *164:6 *306:29 5.33005e-05
11 *164:6 *392:28 0.000180764
*RES
1 *1204:X *164:6 11.0679 
2 *164:6 *1205:A2 12.3179 
3 *164:6 *1207:B1 9.3 
*END

*D_NET *165 0.00129659
*CONN
*I *1206:A2 I *D sky130_fd_sc_hd__o21a_1
*I *1205:X O *D sky130_fd_sc_hd__o21ba_1
*CAP
1 *1206:A2 0.000274362
2 *1205:X 0.000274362
3 *1206:A2 *1206:B1 5.52238e-05
4 *1206:A2 *302:30 0
5 *1206:A2 *372:34 0.000318101
6 *1376:A *1206:A2 0.000288644
7 *163:12 *1206:A2 8.5896e-05
*RES
1 *1205:X *1206:A2 35.3143 
*END

*D_NET *166 0.0020651
*CONN
*I *1207:C1 I *D sky130_fd_sc_hd__a221oi_1
*I *1206:X O *D sky130_fd_sc_hd__o21a_1
*CAP
1 *1207:C1 0.000535565
2 *1206:X 0.000535565
3 *1207:C1 *1205:A1 0.000123288
4 *1207:C1 *1207:B2 0.000123288
5 *1376:A *1207:C1 0.000747395
*RES
1 *1206:X *1207:C1 36.35 
*END

*D_NET *167 0.00078264
*CONN
*I *1215:A1 I *D sky130_fd_sc_hd__a21oi_1
*I *1207:Y O *D sky130_fd_sc_hd__a221oi_1
*CAP
1 *1215:A1 0.000276079
2 *1207:Y 0.000276079
3 *1215:A1 *1491:A 0.000230482
4 *1215:A1 *293:42 0
5 *1215:A1 *293:56 0
6 *1215:B1 *1215:A1 0
*RES
1 *1207:Y *1215:A1 31.725 
*END

*D_NET *168 0.000319506
*CONN
*I *1209:A3 I *D sky130_fd_sc_hd__a31o_1
*I *1208:X O *D sky130_fd_sc_hd__or2_1
*CAP
1 *1209:A3 8.2076e-05
2 *1208:X 8.2076e-05
3 *1209:A3 *1211:A3 3.32631e-05
4 *1209:A3 *371:24 0.000122091
*RES
1 *1208:X *1209:A3 20.7786 
*END

*D_NET *169 0.00123388
*CONN
*I *1211:A3 I *D sky130_fd_sc_hd__a31o_1
*I *1209:X O *D sky130_fd_sc_hd__a31o_1
*CAP
1 *1211:A3 0.000455891
2 *1209:X 0.000455891
3 *1211:A3 *1209:A1 7.43578e-06
4 *1211:A3 *1214:B 0.000129868
5 *1211:A3 *371:24 5.94896e-06
6 *1202:A1 *1211:A3 0
7 *1202:A3 *1211:A3 0.000145584
8 *1202:A4 *1211:A3 0
9 *1209:A3 *1211:A3 3.32631e-05
*RES
1 *1209:X *1211:A3 35.8679 
*END

*D_NET *170 0.00350565
*CONN
*I *1376:B I *D sky130_fd_sc_hd__or3_1
*I *1220:B I *D sky130_fd_sc_hd__nand2b_1
*I *1214:B I *D sky130_fd_sc_hd__or3_1
*I *1211:X O *D sky130_fd_sc_hd__a31o_1
*CAP
1 *1376:B 0.000222607
2 *1220:B 0
3 *1214:B 0.000673383
4 *1211:X 7.03212e-05
5 *170:29 0.000321676
6 *170:8 0.000842772
7 *1214:B *1214:C 8.18783e-05
8 *1214:B *313:10 4.51251e-05
9 *1376:B *1220:A_N 0.00011921
10 *1376:B *1228:A1 5.73367e-05
11 *1376:B *1401:CLK 8.40055e-06
12 *1376:B *172:21 6.27679e-05
13 *170:8 *392:28 9.71197e-05
14 *170:29 *1228:A1 1.39841e-05
15 *170:29 *1401:CLK 5.4754e-05
16 *170:29 *171:18 5.59013e-05
17 *170:29 *313:10 4.03318e-05
18 *1202:A1 *1214:B 3.06406e-05
19 *1211:A3 *1214:B 0.000129868
20 *1222:C_N *1214:B 2.41481e-05
21 *1222:C_N *170:29 2.8046e-05
22 *162:10 *1214:B 0.000525381
*RES
1 *1211:X *170:8 14.7464 
2 *170:8 *1214:B 24.1214 
3 *170:8 *170:29 6.67411 
4 *170:29 *1220:B 9.3 
5 *170:29 *1376:B 13.3045 
*END

*D_NET *171 0.00753986
*CONN
*I *1218:B1 I *D sky130_fd_sc_hd__o32a_1
*I *1213:B I *D sky130_fd_sc_hd__nand2_1
*I *1212:Y O *D sky130_fd_sc_hd__nor2_1
*CAP
1 *1218:B1 0.00095851
2 *1213:B 6.33118e-05
3 *1212:Y 0.0014186
4 *171:18 0.00244042
5 *1213:B *1442:A 7.50601e-05
6 *1218:B1 *1217:B 0
7 *1218:B1 *1227:A2 0.000185643
8 *1218:B1 *1227:A3 2.59355e-05
9 *1218:B1 *1227:B1 0.00014522
10 *1218:B1 *1228:A2 8.23597e-06
11 *1218:B1 *1374:A1 0
12 *1218:B1 *174:10 7.66964e-05
13 *1218:B1 *372:34 0
14 *1218:B1 *391:60 6.94388e-05
15 *171:18 *1228:A1 2.56601e-05
16 *171:18 *1287:B1_N 9.71197e-05
17 *171:18 *1288:B1 3.18676e-05
18 *171:18 *1289:A1 4.38128e-05
19 *171:18 *1290:A1 9.60939e-05
20 *171:18 *1290:C1 5.52238e-05
21 *171:18 *1401:CLK 0.000752928
22 *171:18 *226:6 1.32552e-05
23 *171:18 *313:10 0
24 *171:18 *343:14 0.000358977
25 *171:18 *343:25 2.28499e-05
26 *171:18 *391:8 9.22103e-06
27 *171:18 *391:10 5.36783e-05
28 *171:18 *391:60 8.70757e-05
29 *1216:B *1218:B1 0
30 *1218:A1 *1218:B1 0
31 *1218:B2 *1218:B1 5.80706e-06
32 *1222:C_N *171:18 0.000200413
33 *1401:D *171:18 1.64343e-05
34 *135:103 *1213:B 0.000146474
35 *170:29 *171:18 5.59013e-05
*RES
1 *1212:Y *171:18 42.6036 
2 *171:18 *1213:B 20.2464 
3 *171:18 *1218:B1 32.1214 
*END

*D_NET *172 0.00225282
*CONN
*I *1376:C I *D sky130_fd_sc_hd__or3_1
*I *1214:C I *D sky130_fd_sc_hd__or3_1
*I *1220:A_N I *D sky130_fd_sc_hd__nand2b_1
*I *1213:Y O *D sky130_fd_sc_hd__nand2_1
*CAP
1 *1376:C 0
2 *1214:C 0.000334785
3 *1220:A_N 4.30395e-05
4 *1213:Y 0
5 *172:21 0.000390651
6 *172:4 9.89057e-05
7 *1214:C *1213:A 9.7049e-06
8 *1214:C *1227:A3 0.000357672
9 *1214:C *1401:CLK 5.33005e-05
10 *1214:C *302:30 0.000318101
11 *1220:A_N *1213:A 6.0486e-05
12 *1220:A_N *1401:CLK 1.95756e-05
13 *172:21 *1213:A 5.6224e-05
14 *172:21 *1401:CLK 1.38323e-05
15 *1214:B *1214:C 8.18783e-05
16 *1376:A *1214:C 5.33005e-05
17 *1376:B *1220:A_N 0.00011921
18 *1376:B *172:21 6.27679e-05
19 *162:10 *1214:C 0.000179388
*RES
1 *1213:Y *172:4 9.3 
2 *172:4 *1220:A_N 10.8491 
3 *172:4 *172:21 1.91071 
4 *172:21 *1214:C 28.175 
5 *172:21 *1376:C 9.3 
*END

*D_NET *173 0.000620869
*CONN
*I *1215:A2 I *D sky130_fd_sc_hd__a21oi_1
*I *1214:X O *D sky130_fd_sc_hd__or3_1
*CAP
1 *1215:A2 0.000150422
2 *1214:X 0.000150422
3 *1215:A2 *293:118 0.000320024
*RES
1 *1214:X *1215:A2 22.3321 
*END

*D_NET *174 0.00120883
*CONN
*I *1218:A2 I *D sky130_fd_sc_hd__o32a_1
*I *1375:A3 I *D sky130_fd_sc_hd__o31a_1
*I *1216:X O *D sky130_fd_sc_hd__or2_1
*CAP
1 *1218:A2 6.98101e-05
2 *1375:A3 0
3 *1216:X 0.000169916
4 *174:10 0.000239726
5 *1218:A2 *1218:A3 5.71472e-05
6 *1218:A2 *1383:CLK 6.4443e-05
7 *174:10 *1228:A2 2.11419e-05
8 *174:10 *1374:A1 0.000169325
9 *174:10 *1374:A2 2.95746e-06
10 *174:10 *372:34 9.25014e-06
11 *1218:A1 *1218:A2 0.000315165
12 *1218:B1 *174:10 7.66964e-05
13 *1375:B1 *1218:A2 1.32552e-05
*RES
1 *1216:X *174:10 22.0679 
2 *174:10 *1375:A3 9.3 
3 *174:10 *1218:A2 12.3 
*END

*D_NET *175 0.000426508
*CONN
*I *1218:A3 I *D sky130_fd_sc_hd__o32a_1
*I *1217:X O *D sky130_fd_sc_hd__or3_1
*CAP
1 *1218:A3 9.02795e-05
2 *1217:X 9.02795e-05
3 *1218:A3 *1217:C 0
4 *1218:A3 *1219:B 5.71472e-05
5 *1218:A3 *1383:CLK 0.000103804
6 *1218:A1 *1218:A3 2.78509e-05
7 *1218:A2 *1218:A3 5.71472e-05
*RES
1 *1217:X *1218:A3 21.3321 
*END

*D_NET *176 0.000783431
*CONN
*I *1219:B I *D sky130_fd_sc_hd__nor2_1
*I *1218:X O *D sky130_fd_sc_hd__o32a_1
*CAP
1 *1219:B 0.000262345
2 *1218:X 0.000262345
3 *1219:B *1217:C 0.000107865
4 *1219:B *1383:CLK 6.99706e-05
5 *1218:A3 *1219:B 5.71472e-05
6 *1383:D *1219:B 2.37575e-05
*RES
1 *1218:X *1219:B 23.2964 
*END

*D_NET *177 0.0016665
*CONN
*I *1228:A1 I *D sky130_fd_sc_hd__a31o_1
*I *1220:Y O *D sky130_fd_sc_hd__nand2b_1
*CAP
1 *1228:A1 0.000356116
2 *1220:Y 0.000356116
3 *1228:A1 *1228:A2 2.89114e-05
4 *1228:A1 *1228:A3 1.60048e-05
5 *1228:A1 *1229:A_N 0.0001443
6 *1228:A1 *1229:B 5.74499e-06
7 *1228:A1 *1442:A 0.000178847
8 *1228:A1 *313:10 0.000311028
9 *1222:A *1228:A1 1.02504e-05
10 *1222:C_N *1228:A1 0
11 *1227:A1 *1228:A1 0.000126468
12 *1228:B1 *1228:A1 3.57366e-05
13 *1376:B *1228:A1 5.73367e-05
14 *170:29 *1228:A1 1.39841e-05
15 *171:18 *1228:A1 2.56601e-05
*RES
1 *1220:Y *1228:A1 36.6 
*END

*D_NET *178 0.002364
*CONN
*I *1228:A2 I *D sky130_fd_sc_hd__a31o_1
*I *1221:X O *D sky130_fd_sc_hd__o32a_1
*CAP
1 *1228:A2 0.000602636
2 *1221:X 0.000602636
3 *1228:A2 *1229:B 6.05161e-06
4 *1228:A2 *1374:A2 0.00021471
5 *1228:A2 *1374:B1_N 0.000298655
6 *1228:A2 *306:52 0.000137983
7 *1218:B1 *1228:A2 8.23597e-06
8 *1227:A1 *1228:A2 1.02821e-05
9 *1228:A1 *1228:A2 2.89114e-05
10 *1228:B1 *1228:A2 2.59355e-05
11 *133:10 *1228:A2 4.87854e-05
12 *154:10 *1228:A2 2.09897e-05
13 *154:23 *1228:A2 0.000317555
14 *162:21 *1228:A2 1.94945e-05
15 *174:10 *1228:A2 2.11419e-05
*RES
1 *1221:X *1228:A2 43.7948 
*END

*D_NET *179 0.0003637
*CONN
*I *1228:A3 I *D sky130_fd_sc_hd__a31o_1
*I *1222:X O *D sky130_fd_sc_hd__or3b_1
*CAP
1 *1228:A3 5.386e-05
2 *1222:X 5.386e-05
3 *1228:A3 *1229:B 0.000142856
4 *1228:A3 *1442:A 9.71197e-05
5 *1228:A1 *1228:A3 1.60048e-05
*RES
1 *1222:X *1228:A3 20.3857 
*END

*D_NET *180 0.000330516
*CONN
*I *1224:C I *D sky130_fd_sc_hd__or3_1
*I *1223:X O *D sky130_fd_sc_hd__o211a_1
*CAP
1 *1224:C 0.000145559
2 *1223:X 0.000145559
3 *1209:A2 *1224:C 0
4 *161:14 *1224:C 3.0285e-05
5 *161:27 *1224:C 9.11365e-06
*RES
1 *1223:X *1224:C 29.7786 
*END

*D_NET *181 0.00217469
*CONN
*I *1227:A3 I *D sky130_fd_sc_hd__a31o_1
*I *1224:X O *D sky130_fd_sc_hd__or3_1
*CAP
1 *1227:A3 0.000498395
2 *1224:X 0.000498395
3 *1227:A3 *1377:B1 0.000125724
4 *1227:A3 *1401:CLK 0.00019384
5 *1227:A3 *1442:A 0.000120485
6 *1227:A3 *1446:A 0.000146474
7 *1227:A3 *302:30 0
8 *1227:A3 *316:72 4.01768e-05
9 *1227:A3 *391:60 5.33005e-05
10 *1202:A4 *1227:A3 0.000111469
11 *1214:C *1227:A3 0.000357672
12 *1218:B1 *1227:A3 2.59355e-05
13 *161:27 *1227:A3 2.8266e-06
14 *162:21 *1227:A3 0
*RES
1 *1224:X *1227:A3 40.4393 
*END

*D_NET *182 0.000274304
*CONN
*I *1226:D I *D sky130_fd_sc_hd__or4_1
*I *1225:X O *D sky130_fd_sc_hd__or4_1
*CAP
1 *1226:D 0.000115443
2 *1225:X 0.000115443
3 *1226:D *1203:B 4.1331e-06
4 *1226:D *1226:A 0
5 *1226:D *1226:B 3.92854e-05
6 *1226:D *193:10 0
*RES
1 *1225:X *1226:D 29.5464 
*END

*D_NET *183 0.00378204
*CONN
*I *1227:B1 I *D sky130_fd_sc_hd__a31o_1
*I *1226:X O *D sky130_fd_sc_hd__or4_1
*CAP
1 *1227:B1 0.00105635
2 *1226:X 0.00105635
3 *1227:B1 *1205:A1 0.000174935
4 *1227:B1 *1226:A 2.89016e-05
5 *1227:B1 *1226:B 9.71197e-05
6 *1227:B1 *1227:A2 5.03772e-05
7 *1227:B1 *311:8 3.47826e-05
8 *1227:B1 *391:60 0.000440718
9 *1216:B *1227:B1 0.000186662
10 *1218:B1 *1227:B1 0.00014522
11 *1226:C *1227:B1 0.000226513
12 *148:16 *1227:B1 0.000284106
*RES
1 *1226:X *1227:B1 41.1893 
*END

*D_NET *184 0.00200256
*CONN
*I *1377:C1 I *D sky130_fd_sc_hd__o211a_1
*I *1229:B I *D sky130_fd_sc_hd__and2b_1
*I *1227:X O *D sky130_fd_sc_hd__a31o_1
*CAP
1 *1377:C1 8.61806e-05
2 *1229:B 0.000369845
3 *1227:X 0.000107768
4 *184:8 0.000563793
5 *1229:B *1442:A 0.000413673
6 *1377:C1 *1377:B1 7.8327e-05
7 *184:8 *1377:B1 0.000100009
8 *184:8 *1442:A 0.00012831
9 *1228:A1 *1229:B 5.74499e-06
10 *1228:A2 *1229:B 6.05161e-06
11 *1228:A3 *1229:B 0.000142856
12 *135:101 *1377:C1 0
*RES
1 *1227:X *184:8 16.3536 
2 *184:8 *1229:B 20.2286 
3 *184:8 *1377:C1 15.7464 
*END

*D_NET *185 0.000686866
*CONN
*I *1229:A_N I *D sky130_fd_sc_hd__and2b_1
*I *1228:X O *D sky130_fd_sc_hd__a31o_1
*CAP
1 *1229:A_N 0.000214747
2 *1228:X 0.000214747
3 *1229:A_N *1442:A 0.000113073
4 *1228:A1 *1229:A_N 0.0001443
*RES
1 *1228:X *1229:A_N 22.4393 
*END

*D_NET *186 0.00087125
*CONN
*I *1231:B1 I *D sky130_fd_sc_hd__a21o_1
*I *1230:X O *D sky130_fd_sc_hd__xor2_1
*CAP
1 *1231:B1 0.000413215
2 *1230:X 0.000413215
3 *1231:B1 *1230:B 0
4 *1231:B1 *1485:A 0
5 *1231:B1 *297:21 0
6 *1231:B1 *395:12 4.48206e-05
*RES
1 *1230:X *1231:B1 35.0107 
*END

*D_NET *187 0.0003162
*CONN
*I *1238:A I *D sky130_fd_sc_hd__or3b_2
*I *1231:X O *D sky130_fd_sc_hd__a21o_1
*CAP
1 *1238:A 0.000143649
2 *1231:X 0.000143649
3 *1238:A *1236:B1 2.89016e-05
4 *1238:A *1485:A 0
5 *1238:A *297:31 0
*RES
1 *1231:X *1238:A 29.7786 
*END

*D_NET *188 0.000383579
*CONN
*I *1234:B1 I *D sky130_fd_sc_hd__a221o_1
*I *1232:Y O *D sky130_fd_sc_hd__nand2_1
*CAP
1 *1234:B1 8.00803e-05
2 *1232:Y 8.00803e-05
3 *1234:B1 *1234:A1 0.00010326
4 *1234:B1 *309:32 1.24368e-05
5 *1234:B1 *309:38 4.46231e-06
6 *1234:B1 *375:26 0.00010326
*RES
1 *1232:Y *1234:B1 29.475 
*END

*D_NET *189 0.000519861
*CONN
*I *1234:B2 I *D sky130_fd_sc_hd__a221o_1
*I *1233:X O *D sky130_fd_sc_hd__or2_1
*CAP
1 *1234:B2 0.000139791
2 *1233:X 0.000139791
3 *1234:B2 *1234:C1 1.28809e-05
4 *1234:B2 *309:32 0.00010096
5 *1234:B2 *375:26 0.000126439
6 *1192:A3 *1234:B2 0
*RES
1 *1233:X *1234:B2 30.3188 
*END

*D_NET *190 0.00266075
*CONN
*I *1238:B I *D sky130_fd_sc_hd__or3b_2
*I *1234:X O *D sky130_fd_sc_hd__a221o_1
*CAP
1 *1238:B 0.00108593
2 *1234:X 0.00108593
3 *1238:B *1236:A2 0.000227539
4 *1238:B *1238:C_N 1.92905e-05
5 *1238:B *1404:CLK 7.15962e-05
6 *1238:B *193:10 5.39629e-06
7 *1234:A2 *1238:B 1.56394e-05
8 *1236:A1 *1238:B 2.15245e-05
9 *1236:B2 *1238:B 9.10731e-05
10 *1404:D *1238:B 3.6841e-05
*RES
1 *1234:X *1238:B 32.2786 
*END

*D_NET *191 0.000401769
*CONN
*I *1236:C1 I *D sky130_fd_sc_hd__o221a_1
*I *1235:X O *D sky130_fd_sc_hd__o2bb2a_1
*CAP
1 *1236:C1 0.000105684
2 *1235:X 0.000105684
3 *1236:C1 *1235:A2_N 0.000127446
4 *1236:C1 *1236:B1 5.80706e-06
5 *1236:C1 *1487:A 0
6 *1236:C1 *297:31 5.71472e-05
*RES
1 *1235:X *1236:C1 29.7786 
*END

*D_NET *192 0.000105641
*CONN
*I *1238:C_N I *D sky130_fd_sc_hd__or3b_2
*I *1236:X O *D sky130_fd_sc_hd__o221a_1
*CAP
1 *1238:C_N 1.55603e-05
2 *1236:X 1.55603e-05
3 *1236:A1 *1238:C_N 5.52302e-05
4 *1238:B *1238:C_N 1.92905e-05
*RES
1 *1236:X *1238:C_N 19.1357 
*END

*D_NET *193 0.0126744
*CONN
*I *1276:B1 I *D sky130_fd_sc_hd__a21oi_1
*I *1450:A I *D sky130_fd_sc_hd__buf_2
*I *1239:A I *D sky130_fd_sc_hd__inv_2
*I *1268:B1 I *D sky130_fd_sc_hd__a21oi_1
*I *1274:B1 I *D sky130_fd_sc_hd__a21oi_1
*I *1238:X O *D sky130_fd_sc_hd__or3b_2
*CAP
1 *1276:B1 0
2 *1450:A 0
3 *1239:A 0
4 *1268:B1 0.000167368
5 *1274:B1 0.000754224
6 *1238:X 0.00149099
7 *193:57 0.000649243
8 *193:30 0.00147325
9 *193:24 0.000366962
10 *193:18 0.00058129
11 *193:10 0.00194247
12 *1268:B1 *1271:A 0.000577016
13 *1268:B1 *194:23 5.52238e-05
14 *1274:B1 *1201:A 9.0553e-05
15 *1274:B1 *1244:C 5.52238e-05
16 *1274:B1 *1274:A1 0.000274288
17 *1274:B1 *198:35 8.07951e-05
18 *1274:B1 *199:14 3.08124e-05
19 *1274:B1 *293:67 0
20 *1274:B1 *373:27 8.07397e-06
21 *193:10 *1203:B 0
22 *193:10 *1226:B 0
23 *193:10 *1485:A 4.66203e-05
24 *193:10 *1489:A 0
25 *193:10 *1490:A 0
26 *193:10 *293:126 0.000132442
27 *193:10 *297:31 0
28 *193:10 *301:10 0
29 *193:10 *305:57 0
30 *193:10 *306:14 0.000460391
31 *193:10 *307:10 0
32 *193:10 *307:23 0
33 *193:10 *307:34 2.16719e-05
34 *193:10 *307:45 6.94775e-05
35 *193:10 *307:56 0.000208303
36 *193:10 *314:12 0.00022117
37 *193:10 *392:28 6.74911e-05
38 *193:18 *1276:A2 0
39 *193:18 *293:126 0
40 *193:18 *293:134 0
41 *193:18 *301:10 3.82713e-05
42 *193:24 *1276:A2 0
43 *193:24 *1279:A2 2.8266e-06
44 *193:24 *1449:A 6.4915e-05
45 *193:24 *293:134 0
46 *193:24 *371:14 0
47 *193:24 *373:10 1.74352e-05
48 *193:30 *1275:A 0
49 *193:30 *1449:A 9.90431e-05
50 *193:30 *198:35 0
51 *193:30 *373:10 0.000118604
52 *193:57 *1198:B 4.00025e-05
53 *193:57 *1281:A2 0.000106552
54 *193:57 *1449:A 0.00012888
55 *193:57 *194:23 0.000167677
56 *193:57 *199:14 0.000334032
57 *193:57 *322:36 0.000197991
58 *193:57 *322:49 0.000169405
59 *1181:B *193:10 0
60 *1191:B2 *193:10 0.00013651
61 *1226:D *193:10 0
62 *1236:A1 *193:10 0.000125731
63 *1238:B *193:10 5.39629e-06
64 *1376:A *193:10 0
65 *1393:D *1268:B1 0.000122055
66 *134:10 *193:10 0.00027338
67 *142:17 *193:10 0.000238769
68 *161:14 *1274:B1 0.000461564
*RES
1 *1238:X *193:10 46.0321 
2 *193:10 *193:18 14.6607 
3 *193:18 *193:24 6.98214 
4 *193:24 *193:30 9.44643 
5 *193:30 *1274:B1 26.1036 
6 *193:30 *193:57 18.0893 
7 *193:57 *1268:B1 15.175 
8 *193:57 *1239:A 9.3 
9 *193:24 *1450:A 9.3 
10 *193:18 *1276:B1 13.8 
*END

*D_NET *194 0.00508743
*CONN
*I *1281:C1 I *D sky130_fd_sc_hd__o211a_1
*I *1283:C1 I *D sky130_fd_sc_hd__o211a_1
*I *1271:A I *D sky130_fd_sc_hd__and3_1
*I *1239:Y O *D sky130_fd_sc_hd__inv_2
*CAP
1 *1281:C1 0
2 *1283:C1 0.000437107
3 *1271:A 0.000441579
4 *1239:Y 0
5 *194:23 0.000614108
6 *194:4 0.000618579
7 *1271:A *1268:A2 5.52302e-05
8 *1271:A *1270:C 0
9 *1271:A *1274:A1 1.52978e-05
10 *1271:A *1285:A 0
11 *1271:A *201:14 0.000662725
12 *1271:A *201:33 9.71197e-05
13 *1271:A *331:18 0
14 *1283:C1 *1283:A2 0.00036192
15 *1283:C1 *1283:B1 0
16 *1283:C1 *1399:CLK 0
17 *1283:C1 *201:14 1.65558e-05
18 *1283:C1 *321:18 0.000363837
19 *1283:C1 *321:58 0
20 *1283:C1 *322:10 0.000150618
21 *194:23 *1281:A2 0.000351156
22 *194:23 *201:14 0.000101679
23 *1268:B1 *1271:A 0.000577016
24 *1268:B1 *194:23 5.52238e-05
25 *193:57 *194:23 0.000167677
*RES
1 *1239:Y *194:4 9.3 
2 *194:4 *1271:A 30.3893 
3 *194:4 *194:23 5.19643 
4 *194:23 *1283:C1 28.8179 
5 *194:23 *1281:C1 9.3 
*END

*D_NET *195 0.00139888
*CONN
*I *1253:B I *D sky130_fd_sc_hd__nor2_1
*I *1251:A I *D sky130_fd_sc_hd__or2_1
*I *1240:X O *D sky130_fd_sc_hd__and3_1
*CAP
1 *1253:B 0.000228187
2 *1251:A 8.4405e-05
3 *1240:X 0.000103386
4 *195:10 0.000415978
5 *1251:A *1241:B 2.59355e-05
6 *1251:A *302:42 0.000230482
7 *1253:B *1502:A 0
8 *1253:B *1503:A 0
9 *1253:B *196:12 0.000117468
10 *1253:B *325:25 0
11 *195:10 *1241:B 7.6644e-05
12 *195:10 *1241:C 7.83659e-05
13 *195:10 *1251:B 9.11365e-06
14 *195:10 *1502:A 0
15 *195:10 *1503:A 0
16 *195:10 *324:8 2.89114e-05
*RES
1 *1240:X *195:10 15.9786 
2 *195:10 *1251:A 15.9786 
3 *195:10 *1253:B 18.7821 
*END

*D_NET *196 0.010536
*CONN
*I *1254:A I *D sky130_fd_sc_hd__or2_1
*I *1256:B I *D sky130_fd_sc_hd__xnor2_1
*I *1243:D I *D sky130_fd_sc_hd__and4_1
*I *1242:B I *D sky130_fd_sc_hd__and2_1
*I *1264:A3 I *D sky130_fd_sc_hd__a31o_1
*I *1258:A2 I *D sky130_fd_sc_hd__a21oi_1
*I *1241:X O *D sky130_fd_sc_hd__and4_2
*CAP
1 *1254:A 3.52567e-05
2 *1256:B 0.000119426
3 *1243:D 0.000213298
4 *1242:B 1.1624e-05
5 *1264:A3 0.000456988
6 *1258:A2 4.37098e-05
7 *1241:X 0.0002407
8 *196:45 0.000656926
9 *196:43 0.000654897
10 *196:22 0.000849364
11 *196:18 0.00117966
12 *196:12 0.000783824
13 *1242:B *197:6 5.52238e-05
14 *1243:D *1243:A 2.42516e-05
15 *1256:B *1256:A 5.9232e-05
16 *1256:B *1257:A2 0.000125731
17 *1256:B *1389:CLK 5.33334e-05
18 *1256:B *291:70 0
19 *1258:A2 *1196:B 1.02504e-05
20 *1258:A2 *326:36 4.56437e-05
21 *1258:A2 *371:32 0
22 *1258:A2 *373:63 9.69119e-06
23 *1264:A3 *1261:A3 0
24 *1264:A3 *1263:C 5.10822e-05
25 *1264:A3 *1264:A1 0.000273269
26 *1264:A3 *302:36 8.77591e-05
27 *1264:A3 *329:12 0.000202835
28 *1264:A3 *373:31 0
29 *196:12 *1254:B 5.80217e-05
30 *196:12 *1503:A 0.000559974
31 *196:12 *302:42 2.89114e-05
32 *196:18 *1255:A2 9.90367e-05
33 *196:18 *1257:A2 5.83233e-05
34 *196:18 *291:70 0
35 *196:18 *291:72 0
36 *196:18 *291:74 0
37 *196:18 *291:76 0
38 *196:18 *373:69 0.000203533
39 *196:18 *373:79 8.16036e-05
40 *196:22 *1257:A2 1.98839e-05
41 *196:22 *1259:A 2.24763e-05
42 *196:22 *1259:B 5.52238e-05
43 *196:22 *1260:A2 5.52302e-05
44 *196:22 *373:57 0.000140933
45 *196:22 *373:63 0.000972351
46 *196:22 *373:69 0.000227539
47 *196:43 *1259:B 9.01666e-05
48 *196:43 *1272:A2 0.000457914
49 *196:43 *302:36 0
50 *196:43 *373:27 0.00040381
51 *196:43 *373:31 0
52 *196:43 *373:57 0.000162795
53 *196:45 *302:36 0
54 *196:45 *373:31 0
55 *1242:A *1242:B 5.52238e-05
56 *1253:B *196:12 0.000117468
57 *1264:A2 *1264:A3 1.33343e-05
58 *1389:D *1256:B 0
59 *1389:D *196:22 9.80173e-05
60 *156:6 *1243:D 0.000310292
*RES
1 *1241:X *196:12 25.9429 
2 *196:12 *196:18 14.9107 
3 *196:18 *196:22 17.7679 
4 *196:22 *1258:A2 19.0321 
5 *196:22 *196:43 12.7679 
6 *196:43 *196:45 3.16071 
7 *196:45 *1264:A3 24.4607 
8 *196:45 *1242:B 14.3357 
9 *196:43 *1243:D 17.6214 
10 *196:18 *1256:B 16.6929 
11 *196:12 *1254:A 9.83571 
*END

*D_NET *197 0.00511705
*CONN
*I *1263:C I *D sky130_fd_sc_hd__and3_1
*I *1272:A2 I *D sky130_fd_sc_hd__a21oi_1
*I *1259:A I *D sky130_fd_sc_hd__or2_1
*I *1261:A2 I *D sky130_fd_sc_hd__a31o_1
*I *1262:A2 I *D sky130_fd_sc_hd__o21ba_1
*I *1242:X O *D sky130_fd_sc_hd__and2_1
*CAP
1 *1263:C 0.000375872
2 *1272:A2 0.000368068
3 *1259:A 0.000115392
4 *1261:A2 0
5 *1262:A2 0.000221559
6 *1242:X 7.00919e-05
7 *197:34 0.000678968
8 *197:12 0.00032203
9 *197:10 0.000552384
10 *197:6 0.000702369
11 *1259:A *1259:B 1.55885e-05
12 *1259:A *373:63 5.30637e-06
13 *1262:A2 *1262:B1_N 0
14 *1262:A2 *1504:A 0.000202005
15 *1263:C *1261:A1 3.21389e-05
16 *1263:C *211:10 2.4952e-05
17 *1263:C *373:31 0
18 *1272:A2 *1258:B1 5.54247e-05
19 *1272:A2 *1259:B 6.7606e-05
20 *1272:A2 *373:27 0.000137515
21 *197:10 *325:49 0.000160305
22 *197:12 *1504:A 9.24395e-05
23 *197:34 *1196:B 0.000128146
24 *197:34 *1504:A 0.000120655
25 *197:34 *327:12 8.2958e-06
26 *1242:A *197:6 4.43355e-05
27 *1242:A *197:10 2.89016e-05
28 *1242:B *197:6 5.52238e-05
29 *1264:A3 *1263:C 5.10822e-05
30 *196:22 *1259:A 2.24763e-05
31 *196:43 *1272:A2 0.000457914
*RES
1 *1242:X *197:6 10.6571 
2 *197:6 *197:10 9.14286 
3 *197:10 *197:12 2.25 
4 *197:12 *1262:A2 19.0143 
5 *197:12 *1261:A2 13.8 
6 *197:10 *197:34 9.17857 
7 *197:34 *1259:A 11.0857 
8 *197:34 *1272:A2 18.2107 
9 *197:6 *1263:C 23.3446 
*END

*D_NET *198 0.00405236
*CONN
*I *1273:A I *D sky130_fd_sc_hd__or2_1
*I *1277:A2 I *D sky130_fd_sc_hd__a21oi_1
*I *1244:C I *D sky130_fd_sc_hd__and3_1
*I *1275:B I *D sky130_fd_sc_hd__xnor2_1
*I *1243:X O *D sky130_fd_sc_hd__and4_1
*CAP
1 *1273:A 1.4048e-05
2 *1277:A2 0
3 *1244:C 0.000186185
4 *1275:B 0
5 *1243:X 0.000297452
6 *198:35 0.000337357
7 *198:22 0.000868236
8 *198:10 0.00102856
9 *1244:C *1201:A 2.28499e-05
10 *1244:C *1277:A1 6.09963e-05
11 *1244:C *1277:B1 0.000128358
12 *1244:C *318:24 3.61629e-06
13 *1244:C *319:10 0
14 *1273:A *316:72 2.19778e-05
15 *198:10 *1223:A2 0
16 *198:10 *1243:A 5.70551e-05
17 *198:10 *1272:B1 5.41797e-06
18 *198:10 *1274:A2 7.40992e-05
19 *198:10 *316:10 1.18451e-05
20 *198:10 *316:12 3.15517e-05
21 *198:10 *316:72 7.79781e-06
22 *198:22 *293:56 3.31964e-05
23 *198:22 *293:67 0.000230475
24 *198:22 *373:10 9.76689e-05
25 *198:35 *1275:A 0.00012401
26 *198:35 *293:67 2.6949e-05
27 *198:35 *373:10 4.13496e-05
28 *1274:B1 *1244:C 5.52238e-05
29 *1274:B1 *198:35 8.07951e-05
30 *1395:D *198:22 4.87669e-06
31 *161:14 *1273:A 4.97876e-05
32 *161:14 *198:10 0.000150625
33 *193:30 *198:35 0
*RES
1 *1243:X *198:10 19.3357 
2 *198:10 *198:22 15.8929 
3 *198:22 *1275:B 9.3 
4 *198:22 *198:35 12.5 
5 *198:35 *1244:C 12.7554 
6 *198:35 *1277:A2 9.3 
7 *198:10 *1273:A 14.5321 
*END

*D_NET *199 0.00332373
*CONN
*I *1278:A I *D sky130_fd_sc_hd__or2_1
*I *1245:B I *D sky130_fd_sc_hd__and2_1
*I *1281:A2 I *D sky130_fd_sc_hd__o211a_1
*I *1244:X O *D sky130_fd_sc_hd__and3_1
*CAP
1 *1278:A 7.39982e-05
2 *1245:B 0
3 *1281:A2 0.000341588
4 *1244:X 2.30469e-05
5 *199:14 0.000684396
6 *199:8 0.000439852
7 *1278:A *1278:B 0.00018372
8 *1278:A *318:22 0.000227539
9 *1278:A *318:24 1.54142e-05
10 *1278:A *319:10 3.30352e-05
11 *1281:A2 *1281:B1 4.22908e-05
12 *1281:A2 *200:10 8.91726e-05
13 *1281:A2 *201:14 0.000224577
14 *1281:A2 *293:73 0
15 *1281:A2 *322:36 1.37292e-05
16 *199:8 *1278:B 4.12451e-05
17 *199:8 *318:22 1.04232e-05
18 *199:8 *318:24 5.71472e-05
19 *199:14 *293:67 0
20 *1274:B1 *199:14 3.08124e-05
21 *193:57 *1281:A2 0.000106552
22 *193:57 *199:14 0.000334032
23 *194:23 *1281:A2 0.000351156
*RES
1 *1244:X *199:8 10.2643 
2 *199:8 *199:14 12.4464 
3 *199:14 *1281:A2 22.0321 
4 *199:14 *1245:B 13.8 
5 *199:8 *1278:A 12.3179 
*END

*D_NET *200 0.00424977
*CONN
*I *1280:B1_N I *D sky130_fd_sc_hd__a21bo_1
*I *1246:C I *D sky130_fd_sc_hd__nand3_2
*I *1282:C I *D sky130_fd_sc_hd__nand3b_1
*I *1283:A2 I *D sky130_fd_sc_hd__o211a_1
*I *1284:A2 I *D sky130_fd_sc_hd__a21oi_1
*I *1245:X O *D sky130_fd_sc_hd__and2_1
*CAP
1 *1280:B1_N 0.000109069
2 *1246:C 0
3 *1282:C 0
4 *1283:A2 0.000521061
5 *1284:A2 5.09861e-05
6 *1245:X 0
7 *200:51 0.000418935
8 *200:25 0.000574109
9 *200:10 0.000463835
10 *200:4 0.000669666
11 *1280:B1_N *1198:C 2.56694e-05
12 *1280:B1_N *1245:A 2.19684e-05
13 *1280:B1_N *293:138 0
14 *1280:B1_N *320:10 2.89016e-05
15 *1283:A2 *321:18 0.00017849
16 *1283:A2 *321:34 0.000166239
17 *1283:A2 *321:58 0
18 *1284:A2 *1282:A_N 0
19 *1284:A2 *1282:B 5.00159e-05
20 *1284:A2 *1284:B1 0.000127043
21 *200:10 *293:73 0
22 *200:10 *322:25 0
23 *200:10 *322:36 0
24 *200:25 *1282:B 2.00474e-05
25 *200:25 *1283:B1 9.99644e-06
26 *200:25 *1284:B1 9.71197e-05
27 *200:25 *293:73 0
28 *200:25 *321:58 0
29 *200:25 *322:25 1.19309e-05
30 *200:51 *1245:A 0.000177821
31 *200:51 *201:8 5.33005e-05
32 *200:51 *320:10 2.24763e-05
33 *1281:A2 *200:10 8.91726e-05
34 *1283:C1 *1283:A2 0.00036192
*RES
1 *1245:X *200:4 9.3 
2 *200:4 *200:10 15.1964 
3 *200:10 *1284:A2 10.9786 
4 *200:10 *200:25 6.17857 
5 *200:25 *1283:A2 24.1036 
6 *200:25 *1282:C 13.8 
7 *200:4 *200:51 5.39286 
8 *200:51 *1246:C 9.3 
9 *200:51 *1280:B1_N 20.4786 
*END

*D_NET *201 0.00967815
*CONN
*I *1449:A I *D sky130_fd_sc_hd__buf_2
*I *1268:A1 I *D sky130_fd_sc_hd__a21oi_1
*I *1269:A2 I *D sky130_fd_sc_hd__a31o_1
*I *1270:C I *D sky130_fd_sc_hd__nand4_1
*I *1274:A1 I *D sky130_fd_sc_hd__a21oi_1
*I *1246:Y O *D sky130_fd_sc_hd__nand3_2
*CAP
1 *1449:A 0.000756565
2 *1268:A1 0
3 *1269:A2 0
4 *1270:C 0.000228736
5 *1274:A1 0.000811509
6 *1246:Y 4.36033e-05
7 *201:33 0.00058973
8 *201:14 0.00193176
9 *201:8 0.00155943
10 *1270:C *1270:A 5.73295e-05
11 *1270:C *1507:A 7.90803e-05
12 *1270:C *1508:A 4.87953e-05
13 *1270:C *293:79 0.000137427
14 *1270:C *331:18 1.02504e-05
15 *1270:C *331:20 0.000125724
16 *1270:C *332:19 5.03772e-05
17 *1274:A1 *1268:A2 0
18 *1274:A1 *1285:A 0
19 *1274:A1 *1494:A 0
20 *1274:A1 *316:10 0
21 *1274:A1 *316:12 0
22 *1274:A1 *316:14 0
23 *1274:A1 *331:12 0
24 *1274:A1 *331:18 0
25 *1449:A *1198:B 0.000103974
26 *1449:A *1198:C 0.000115474
27 *1449:A *1245:A 8.07951e-05
28 *1449:A *1279:A2 0
29 *1449:A *1279:B1 0.000127857
30 *1449:A *293:134 0
31 *1449:A *293:138 0
32 *1449:A *321:58 6.73939e-05
33 *1449:A *321:69 0.00015134
34 *1449:A *371:6 0.000185643
35 *1449:A *373:10 9.22103e-06
36 *201:14 *1399:CLK 0
37 *201:14 *321:58 0.000196262
38 *201:33 *1268:A2 7.17136e-05
39 *201:33 *331:18 0.000336389
40 *1271:A *1270:C 0
41 *1271:A *1274:A1 1.52978e-05
42 *1271:A *201:14 0.000662725
43 *1271:A *201:33 9.71197e-05
44 *1274:B1 *1274:A1 0.000274288
45 *1281:A2 *201:14 0.000224577
46 *1283:C1 *201:14 1.65558e-05
47 *1394:D *1270:C 0
48 *1397:D *1449:A 2.15245e-05
49 *161:14 *1274:A1 4.18671e-05
50 *193:24 *1449:A 6.4915e-05
51 *193:30 *1449:A 9.90431e-05
52 *193:57 *1449:A 0.00012888
53 *194:23 *201:14 0.000101679
54 *200:51 *201:8 5.33005e-05
*RES
1 *1246:Y *201:8 14.3357 
2 *201:8 *201:14 16.625 
3 *201:14 *1274:A1 31.55 
4 *201:14 *201:33 11.4643 
5 *201:33 *1270:C 19.3714 
6 *201:33 *1269:A2 13.8 
7 *201:14 *1268:A1 9.3 
8 *201:8 *1449:A 29.925 
*END

*D_NET *202 0.000892637
*CONN
*I *1249:A2 I *D sky130_fd_sc_hd__a21oi_1
*I *1248:Y O *D sky130_fd_sc_hd__xnor2_1
*CAP
1 *1249:A2 0.000225203
2 *1248:Y 0.000225203
3 *1249:A2 *1248:A 5.68713e-05
4 *1249:A2 *1248:B 5.11569e-05
5 *1249:A2 *1493:A 8.55393e-05
6 *1249:A2 *315:14 2.8078e-05
7 *1249:A2 *323:17 5.49489e-05
8 *1249:A2 *323:30 0.000137561
9 global_timeout_count[0] *1249:A2 2.80742e-05
*RES
1 *1248:Y *1249:A2 32.975 
*END

*D_NET *203 0.0010423
*CONN
*I *1251:B I *D sky130_fd_sc_hd__or2_1
*I *1250:Y O *D sky130_fd_sc_hd__a21oi_1
*CAP
1 *1251:B 0.000295581
2 *1250:Y 0.000295581
3 *1251:B *1241:B 3.92757e-05
4 *1251:B *1241:C 9.60875e-05
5 *1251:B *1250:B1 3.18676e-05
6 *1251:B *1252:A2 0
7 *1251:B *1502:A 0
8 *1251:B *323:41 0.00014183
9 *1251:B *324:8 6.71755e-05
10 *1251:B *324:10 6.57914e-05
11 *195:10 *1251:B 9.11365e-06
*RES
1 *1250:Y *1251:B 33.975 
*END

*D_NET *204 0.000797763
*CONN
*I *1252:A2 I *D sky130_fd_sc_hd__a21oi_1
*I *1251:X O *D sky130_fd_sc_hd__or2_1
*CAP
1 *1252:A2 0.000251296
2 *1251:X 0.000251296
3 *1252:A2 *1501:A 0
4 *1252:A2 *1502:A 0.000123409
5 *1252:A2 *371:87 0.00014285
6 global_timeout_count[3] *1252:A2 2.89114e-05
7 *1251:B *1252:A2 0
*RES
1 *1251:X *1252:A2 33.3321 
*END

*D_NET *205 0.000222583
*CONN
*I *1254:B I *D sky130_fd_sc_hd__or2_1
*I *1253:Y O *D sky130_fd_sc_hd__nor2_1
*CAP
1 *1254:B 8.22804e-05
2 *1253:Y 8.22804e-05
3 *1254:B *325:12 0
4 *196:12 *1254:B 5.80217e-05
*RES
1 *1253:Y *1254:B 29.5464 
*END

*D_NET *206 0.000532875
*CONN
*I *1255:A2 I *D sky130_fd_sc_hd__a21oi_1
*I *1254:X O *D sky130_fd_sc_hd__or2_1
*CAP
1 *1255:A2 0.000115954
2 *1254:X 0.000115954
3 *1255:A2 *1503:A 6.42338e-05
4 *1255:A2 *371:38 1.02504e-05
5 *1255:A2 *371:44 0.000127446
6 *196:18 *1255:A2 9.90367e-05
*RES
1 *1254:X *1255:A2 30.1893 
*END

*D_NET *207 0.000680075
*CONN
*I *1257:A2 I *D sky130_fd_sc_hd__a21oi_1
*I *1256:Y O *D sky130_fd_sc_hd__xnor2_1
*CAP
1 *1257:A2 0.000144213
2 *1256:Y 0.000144213
3 *1257:A2 *1503:A 0
4 *1257:A2 *371:38 5.52302e-05
5 *1257:A2 *373:69 0.00013248
6 *1256:B *1257:A2 0.000125731
7 *1389:D *1257:A2 0
8 *196:18 *1257:A2 5.83233e-05
9 *196:22 *1257:A2 1.98839e-05
*RES
1 *1256:Y *1257:A2 31.2071 
*END

*D_NET *208 0.000359
*CONN
*I *1259:B I *D sky130_fd_sc_hd__or2_1
*I *1258:Y O *D sky130_fd_sc_hd__a21oi_1
*CAP
1 *1259:B 6.52073e-05
2 *1258:Y 6.52073e-05
3 *1259:A *1259:B 1.55885e-05
4 *1272:A2 *1259:B 6.7606e-05
5 *196:22 *1259:B 5.52238e-05
6 *196:43 *1259:B 9.01666e-05
*RES
1 *1258:Y *1259:B 20.4705 
*END

*D_NET *209 0.000530436
*CONN
*I *1260:A2 I *D sky130_fd_sc_hd__a21oi_1
*I *1259:X O *D sky130_fd_sc_hd__or2_1
*CAP
1 *1260:A2 8.69846e-05
2 *1259:X 8.69846e-05
3 *1260:A2 *1260:B1 0.000141368
4 *1260:A2 *371:32 0.000150618
5 *1260:A2 *373:63 9.25014e-06
6 *196:22 *1260:A2 5.52302e-05
*RES
1 *1259:X *1260:A2 30.0821 
*END

*D_NET *210 0.000585526
*CONN
*I *1262:B1_N I *D sky130_fd_sc_hd__o21ba_1
*I *1261:X O *D sky130_fd_sc_hd__a31o_1
*CAP
1 *1262:B1_N 0.000266069
2 *1261:X 0.000266069
3 *1262:B1_N *325:12 0
4 *1262:A2 *1262:B1_N 0
5 *1391:D *1262:B1_N 5.33882e-05
*RES
1 *1261:X *1262:B1_N 32.2071 
*END

*D_NET *211 0.00393976
*CONN
*I *1267:B I *D sky130_fd_sc_hd__xnor2_1
*I *1269:A3 I *D sky130_fd_sc_hd__a31o_1
*I *1265:A_N I *D sky130_fd_sc_hd__nand2b_1
*I *1270:D I *D sky130_fd_sc_hd__nand4_1
*I *1263:X O *D sky130_fd_sc_hd__and3_1
*CAP
1 *1267:B 8.93093e-05
2 *1269:A3 0.000193855
3 *1265:A_N 0.00036785
4 *1270:D 0.000153363
5 *1263:X 0.000291933
6 *211:29 0.000561706
7 *211:14 0.000483556
8 *211:10 0.000711434
9 *1265:A_N *1271:C 5.03772e-05
10 *1265:A_N *302:42 0.000273269
11 *1269:A3 *1271:C 9.89968e-05
12 *1270:D *1271:C 3.92757e-05
13 *1270:D *1494:A 0.00011335
14 *1270:D *330:19 0
15 *211:10 *1261:A1 5.52238e-05
16 *211:10 *1263:A 1.92789e-05
17 *211:10 *1263:B 5.33005e-05
18 *211:14 *1263:A 0
19 *211:14 *1494:A 0.000307042
20 *211:14 *330:19 0
21 *211:14 *330:28 0
22 *1200:A2 *211:14 5.16852e-05
23 *1263:C *211:10 2.4952e-05
*RES
1 *1263:X *211:10 14.0857 
2 *211:10 *211:14 11.9107 
3 *211:14 *1270:D 16.7107 
4 *211:14 *211:29 4.5 
5 *211:29 *1265:A_N 16.4071 
6 *211:29 *1269:A3 12.7286 
7 *211:10 *1267:B 10.6571 
*END

*D_NET *212 0.00102659
*CONN
*I *1265:B I *D sky130_fd_sc_hd__nand2b_1
*I *1264:X O *D sky130_fd_sc_hd__a31o_1
*CAP
1 *1265:B 0.000367899
2 *1264:X 0.000367899
3 *1265:B *1261:A3 0
4 *1265:B *1264:A1 0.000227539
5 *1265:B *1505:A 5.03694e-05
6 *1265:B *302:42 1.28809e-05
*RES
1 *1264:X *1265:B 33.0866 
*END

*D_NET *213 0.000789877
*CONN
*I *1266:A2 I *D sky130_fd_sc_hd__a21oi_1
*I *1265:Y O *D sky130_fd_sc_hd__nand2b_1
*CAP
1 *1266:A2 0.000213184
2 *1265:Y 0.000213184
3 *1266:A2 *1261:A3 0.000344217
4 *1266:A2 *1505:A 0
5 *1266:A2 *302:42 1.92905e-05
*RES
1 *1265:Y *1266:A2 32.5107 
*END

*D_NET *214 0.000515805
*CONN
*I *1268:A2 I *D sky130_fd_sc_hd__a21oi_1
*I *1267:Y O *D sky130_fd_sc_hd__xnor2_1
*CAP
1 *1268:A2 0.000161707
2 *1267:Y 0.000161707
3 *1268:A2 *331:12 2.56694e-05
4 *1268:A2 *331:18 3.97779e-05
5 *1271:A *1268:A2 5.52302e-05
6 *1274:A1 *1268:A2 0
7 *201:33 *1268:A2 7.17136e-05
*RES
1 *1267:Y *1268:A2 31.3143 
*END

*D_NET *215 0.00025631
*CONN
*I *1271:B I *D sky130_fd_sc_hd__and3_1
*I *1269:X O *D sky130_fd_sc_hd__a31o_1
*CAP
1 *1271:B 0.000104088
2 *1269:X 0.000104088
3 *1271:B *1271:C 4.81342e-05
*RES
1 *1269:X *1271:B 19.9571 
*END

*D_NET *216 0.00130986
*CONN
*I *1271:C I *D sky130_fd_sc_hd__and3_1
*I *1270:Y O *D sky130_fd_sc_hd__nand4_1
*CAP
1 *1271:C 0.000522584
2 *1270:Y 0.000522584
3 *1271:C *330:19 2.79092e-05
4 *1265:A_N *1271:C 5.03772e-05
5 *1269:A3 *1271:C 9.89968e-05
6 *1270:D *1271:C 3.92757e-05
7 *1271:B *1271:C 4.81342e-05
*RES
1 *1270:Y *1271:C 35.9929 
*END

*D_NET *217 0.000740972
*CONN
*I *1273:B I *D sky130_fd_sc_hd__or2_1
*I *1272:Y O *D sky130_fd_sc_hd__a21oi_1
*CAP
1 *1273:B 0.000200628
2 *1272:Y 0.000200628
3 *1273:B *1223:A2 0
4 *1273:B *373:27 0.000186669
5 *157:43 *1273:B 0
6 *161:14 *1273:B 0.000153047
*RES
1 *1272:Y *1273:B 31.3143 
*END

*D_NET *218 0.000457417
*CONN
*I *1274:A2 I *D sky130_fd_sc_hd__a21oi_1
*I *1273:X O *D sky130_fd_sc_hd__or2_1
*CAP
1 *1274:A2 8.78846e-05
2 *1273:X 8.78846e-05
3 *1274:A2 *1272:B1 6.05161e-06
4 *1274:A2 *316:10 0.000148196
5 *161:14 *1274:A2 5.33005e-05
6 *198:10 *1274:A2 7.40992e-05
*RES
1 *1273:X *1274:A2 30.0821 
*END

*D_NET *219 0.000561394
*CONN
*I *1276:A2 I *D sky130_fd_sc_hd__a21oi_1
*I *1275:Y O *D sky130_fd_sc_hd__xnor2_1
*CAP
1 *1276:A2 0.000205162
2 *1275:Y 0.000205162
3 *1276:A2 *371:24 0.000151071
4 *193:18 *1276:A2 0
5 *193:24 *1276:A2 0
*RES
1 *1275:Y *1276:A2 31.8321 
*END

*D_NET *220 0.000714
*CONN
*I *1278:B I *D sky130_fd_sc_hd__or2_1
*I *1277:Y O *D sky130_fd_sc_hd__a21oi_1
*CAP
1 *1278:B 7.69975e-05
2 *1277:Y 7.69975e-05
3 *1278:B *1277:A1 3.57366e-05
4 *1278:B *1277:B1 0.000226513
5 *1278:B *318:24 1.55885e-05
6 *1278:B *318:39 3.57366e-05
7 *1278:B *319:10 2.14658e-05
8 *1278:A *1278:B 0.00018372
9 *199:8 *1278:B 4.12451e-05
*RES
1 *1277:Y *1278:B 21.9214 
*END

*D_NET *221 0.000517417
*CONN
*I *1279:A2 I *D sky130_fd_sc_hd__a21oi_1
*I *1278:X O *D sky130_fd_sc_hd__or2_1
*CAP
1 *1279:A2 0.000180506
2 *1278:X 0.000180506
3 *1279:A2 *293:134 5.26184e-05
4 *1279:A2 *318:22 0.00010096
5 *1449:A *1279:A2 0
6 *193:24 *1279:A2 2.8266e-06
*RES
1 *1278:X *1279:A2 30.4929 
*END

*D_NET *222 0.00125553
*CONN
*I *1281:B1 I *D sky130_fd_sc_hd__o211a_1
*I *1280:X O *D sky130_fd_sc_hd__a21bo_1
*CAP
1 *1281:B1 0.00026295
2 *1280:X 0.00026295
3 *1281:B1 *1281:A1 0.000185643
4 *1281:B1 *1399:CLK 0.000198698
5 *1281:B1 *293:138 0.000125731
6 *1281:A2 *1281:B1 4.22908e-05
7 *1398:D *1281:B1 0.000177268
*RES
1 *1280:X *1281:B1 34.6893 
*END

*D_NET *223 0.00189911
*CONN
*I *1283:B1 I *D sky130_fd_sc_hd__o211a_1
*I *1282:Y O *D sky130_fd_sc_hd__nand3b_1
*CAP
1 *1283:B1 0.00082155
2 *1282:Y 0.00082155
3 *1283:B1 *1282:A_N 5.62995e-05
4 *1283:B1 *1282:B 7.53841e-05
5 *1283:B1 *1284:B1 2.88018e-06
6 *1283:B1 *1399:CLK 2.27416e-05
7 *1283:B1 *1453:A 2.77258e-05
8 *1283:B1 *321:12 0
9 *1283:B1 *322:12 6.09804e-05
10 *1283:C1 *1283:B1 0
11 *1399:D *1283:B1 0
12 *200:25 *1283:B1 9.99644e-06
*RES
1 *1282:Y *1283:B1 37.9929 
*END

*D_NET *224 0.000195326
*CONN
*I *1285:B I *D sky130_fd_sc_hd__nor2_1
*I *1284:Y O *D sky130_fd_sc_hd__a21oi_1
*CAP
1 *1285:B 4.94946e-05
2 *1284:Y 4.94946e-05
3 *1285:B *1284:B1 7.34868e-05
4 *1400:D *1285:B 2.28499e-05
*RES
1 *1284:Y *1285:B 19.8679 
*END

*D_NET *225 0.00426515
*CONN
*I *1291:C1 I *D sky130_fd_sc_hd__o221a_1
*I *1290:B1 I *D sky130_fd_sc_hd__o211a_1
*I *1286:Y O *D sky130_fd_sc_hd__a21oi_1
*CAP
1 *1291:C1 4.57147e-05
2 *1290:B1 0.00019862
3 *1286:Y 0.0013177
4 *225:14 0.00156203
5 *1290:B1 *1287:B1_N 9.01334e-05
6 *1290:B1 *1288:B1 4.25809e-05
7 *1290:B1 *1290:C1 0.000128146
8 *1290:B1 *317:30 2.27416e-05
9 *1290:B1 *343:12 0
10 *1290:B1 *392:10 0
11 *1291:C1 *1288:B1 2.6949e-05
12 *1291:C1 *1291:B2 4.1331e-06
13 *1291:C1 *392:10 0
14 *225:14 *1291:A2 0.000184745
15 *225:14 *372:20 0.000217839
16 *225:14 *391:60 0.000120439
17 *1222:A *225:14 0
18 *1222:C_N *225:14 0.000245356
19 *1286:A2 *225:14 5.80217e-05
20 *1384:D *225:14 0
*RES
1 *1286:Y *225:14 44.2643 
2 *225:14 *1290:B1 18.4071 
3 *225:14 *1291:C1 14.8357 
*END

*D_NET *226 0.00155071
*CONN
*I *1289:A2 I *D sky130_fd_sc_hd__o21ai_1
*I *1291:A2 I *D sky130_fd_sc_hd__o221a_1
*I *1288:A2 I *D sky130_fd_sc_hd__o21a_1
*I *1287:Y O *D sky130_fd_sc_hd__a21boi_1
*CAP
1 *1289:A2 0
2 *1291:A2 0.000148041
3 *1288:A2 3.2467e-05
4 *1287:Y 0.000193953
5 *226:12 0.0002181
6 *226:6 0.000231545
7 *1288:A2 *372:20 1.92789e-05
8 *1291:A2 *1291:B1 0.000147596
9 *1291:A2 *372:20 7.4953e-05
10 *226:6 *1288:B1 2.89114e-05
11 *226:6 *391:10 0.000100625
12 *226:12 *1288:B1 0.000101545
13 *226:12 *343:12 5.56943e-05
14 *171:18 *226:6 1.32552e-05
15 *225:14 *1291:A2 0.000184745
*RES
1 *1287:Y *226:6 11.8893 
2 *226:6 *226:12 10.3393 
3 *226:12 *1288:A2 9.83571 
4 *226:12 *1291:A2 13.1393 
5 *226:6 *1289:A2 9.3 
*END

*D_NET *227 0.000322885
*CONN
*I *1291:B1 I *D sky130_fd_sc_hd__o221a_1
*I *1288:X O *D sky130_fd_sc_hd__o21a_1
*CAP
1 *1291:B1 4.95476e-05
2 *1288:X 4.95476e-05
3 *1291:B1 *372:20 7.61932e-05
4 *1291:A2 *1291:B1 0.000147596
*RES
1 *1288:X *1291:B1 20.3857 
*END

*D_NET *228 0.000391398
*CONN
*I *1290:C1 I *D sky130_fd_sc_hd__o211a_1
*I *1289:Y O *D sky130_fd_sc_hd__o21ai_1
*CAP
1 *1290:C1 0.000104014
2 *1289:Y 0.000104014
3 *1290:C1 *1371:A2 0
4 *1290:B1 *1290:C1 0.000128146
5 *171:18 *1290:C1 5.52238e-05
*RES
1 *1289:Y *1290:C1 29.7786 
*END

*D_NET *229 0.00354132
*CONN
*I *1318:B I *D sky130_fd_sc_hd__nor2_1
*I *1296:C I *D sky130_fd_sc_hd__or3_2
*I *1295:X O *D sky130_fd_sc_hd__and4_1
*CAP
1 *1318:B 0.000251362
2 *1296:C 0.00040104
3 *1295:X 0.000259452
4 *229:10 0.000911854
5 *1296:C *1169:A 5.52302e-05
6 *1296:C *1169:B 5.01909e-05
7 *1296:C *1169:D_N 0
8 *1296:C *1193:A 0
9 *1296:C *1296:A 3.93247e-05
10 *1296:C *1296:B 1.24368e-05
11 *1296:C *230:6 8.07313e-05
12 *1296:C *230:22 0.000218236
13 *1318:B *1171:C 0.000187892
14 *1318:B *335:43 6.1684e-05
15 *1318:B *337:27 4.66203e-05
16 *1318:B *337:44 2.94103e-05
17 *1318:B *375:54 0.000230475
18 *229:10 *230:22 0.000268409
19 *229:10 *337:18 7.50697e-05
20 *229:10 *337:27 1.76039e-05
21 *1297:B1 *1296:C 0.000139482
22 *139:12 *1318:B 3.34366e-05
23 *139:12 *229:10 0.000171375
*RES
1 *1295:X *229:10 18.6393 
2 *229:10 *1296:C 23.425 
3 *229:10 *1318:B 20.3893 
*END

*D_NET *230 0.00468992
*CONN
*I *1297:A2 I *D sky130_fd_sc_hd__o21a_1
*I *1314:B1 I *D sky130_fd_sc_hd__a31o_1
*I *1313:B1 I *D sky130_fd_sc_hd__a31o_1
*I *1372:B I *D sky130_fd_sc_hd__nor3_1
*I *1296:X O *D sky130_fd_sc_hd__or3_2
*CAP
1 *1297:A2 0
2 *1314:B1 2.58191e-05
3 *1313:B1 0.000408555
4 *1372:B 0.000172953
5 *1296:X 8.44182e-05
6 *230:24 0.000690377
7 *230:22 0.000748304
8 *230:6 0.000698033
9 *1313:B1 *1542:A 9.90431e-05
10 *1372:B *1314:A3 0
11 *1372:B *1372:C 5.03772e-05
12 *230:22 *1169:C 3.57163e-05
13 *230:22 *335:10 0.000101545
14 *230:22 *335:32 9.25014e-06
15 *230:22 *337:18 0.00022459
16 *230:24 *1314:A3 0
17 *1295:C *1314:B1 0.00014285
18 *1295:C *230:22 9.71197e-05
19 *1295:D *230:22 9.7659e-05
20 *1296:C *230:6 8.07313e-05
21 *1296:C *230:22 0.000218236
22 *1314:A1 *230:22 0
23 *1314:A1 *230:24 0
24 *1429:D *1372:B 1.15281e-05
25 *138:12 *1372:B 7.92975e-05
26 *138:12 *230:22 2.61337e-05
27 *138:12 *230:24 0.000104236
28 *138:49 *230:22 9.71197e-05
29 *139:12 *230:22 3.98577e-05
30 *139:24 *1314:B1 7.77652e-05
31 *229:10 *230:22 0.000268409
*RES
1 *1296:X *230:6 10.6571 
2 *230:6 *230:22 25.8036 
3 *230:22 *230:24 2.55357 
4 *230:24 *1372:B 17.1036 
5 *230:24 *1313:B1 20.4964 
6 *230:22 *1314:B1 15.1571 
7 *230:6 *1297:A2 9.3 
*END

*D_NET *231 0.00959857
*CONN
*I *1309:B1 I *D sky130_fd_sc_hd__o211a_1
*I *1299:C1 I *D sky130_fd_sc_hd__o211a_1
*I *1350:A1 I *D sky130_fd_sc_hd__a21o_1
*I *1349:B I *D sky130_fd_sc_hd__and3_1
*I *1351:B I *D sky130_fd_sc_hd__and3_1
*I *1346:A I *D sky130_fd_sc_hd__nand2_1
*I *1298:X O *D sky130_fd_sc_hd__and4_1
*CAP
1 *1309:B1 0.000121996
2 *1299:C1 5.14873e-05
3 *1350:A1 0
4 *1349:B 8.38288e-05
5 *1351:B 0.000224055
6 *1346:A 0.000251123
7 *1298:X 0.00053106
8 *231:45 0.000535378
9 *231:39 0.000944652
10 *231:33 0.00132053
11 *231:29 0.000841288
12 *231:14 0.000949591
13 *1299:C1 *343:33 0.000142856
14 *1309:B1 *1309:A1 0.000302294
15 *1309:B1 *1309:C1 0.000139907
16 *1309:B1 *292:140 0.000102207
17 *1309:B1 *292:147 0.000113142
18 *1346:A *1309:A1 5.83233e-05
19 *1346:A *1414:CLK 0.000201127
20 *1346:A *258:41 0
21 *1349:B *1350:A2 6.73939e-05
22 *1349:B *272:6 5.33005e-05
23 *1349:B *272:17 2.34204e-05
24 *1351:B *1357:C 3.92854e-05
25 *1351:B *346:42 4.15914e-05
26 *1351:B *350:12 0.000268396
27 *231:14 *1306:C 0
28 *231:14 *1306:D 0
29 *231:14 *1348:B 7.20384e-06
30 *231:14 *1348:C 0.000133572
31 *231:14 *239:12 0
32 *231:29 *1309:A1 0.000160372
33 *231:29 *1348:C 6.05161e-06
34 *231:29 *292:140 6.05161e-06
35 *231:33 *1299:A2 0
36 *231:33 *1309:C1 0
37 *231:33 *369:25 0.000600059
38 *231:33 *369:31 0.00012401
39 *231:33 *369:61 0
40 *231:39 *1299:B1 0
41 *231:39 *291:25 0.000146474
42 *231:39 *291:60 1.37292e-05
43 *231:39 *317:14 0.000615849
44 *231:39 *369:61 0
45 *231:39 *369:90 0
46 *231:45 *1350:A2 7.6644e-05
47 *231:45 *1357:C 0
48 *231:45 *272:17 3.71496e-05
49 *231:45 *317:14 0.00022684
50 *1418:D *231:14 3.63281e-05
*RES
1 *1298:X *231:14 25.8357 
2 *231:14 *1346:A 23.4429 
3 *231:14 *231:29 3.41071 
4 *231:29 *231:33 16.7679 
5 *231:33 *231:39 15.9643 
6 *231:39 *231:45 8.32143 
7 *231:45 *1351:B 26.425 
8 *231:45 *1349:B 15.3714 
9 *231:39 *1350:A1 9.3 
10 *231:33 *1299:C1 15.1571 
11 *231:29 *1309:B1 14.7821 
*END

*D_NET *232 0.00115288
*CONN
*I *1303:C I *D sky130_fd_sc_hd__or4_1
*I *1304:A3 I *D sky130_fd_sc_hd__o41ai_1
*I *1299:X O *D sky130_fd_sc_hd__o211a_1
*CAP
1 *1303:C 0.000203275
2 *1304:A3 2.79151e-05
3 *1299:X 0.000138081
4 *232:10 0.000369271
5 *1303:C *1303:D 4.97626e-05
6 *1303:C *237:20 5.52302e-05
7 *1303:C *361:18 4.63877e-05
8 *1304:A3 *1304:B1 1.00375e-05
9 *1304:A3 *237:20 3.34295e-05
10 *1304:A3 *238:12 0
11 *232:10 *237:20 7.6644e-05
12 *232:10 *238:12 0
13 *232:10 *343:33 0.00014285
*RES
1 *1299:X *232:10 16.1929 
2 *232:10 *1304:A3 14.5321 
3 *232:10 *1303:C 17.3714 
*END

*D_NET *233 0.00198914
*CONN
*I *1302:A I *D sky130_fd_sc_hd__or2_1
*I *1305:B I *D sky130_fd_sc_hd__or3_2
*I *1300:X O *D sky130_fd_sc_hd__or2_1
*CAP
1 *1302:A 0.000113577
2 *1305:B 0
3 *1300:X 0.000592331
4 *233:10 0.000705908
5 *1302:A *1305:A 8.15939e-05
6 *1302:A *291:60 0.000142797
7 *233:10 *1305:A 4.25523e-05
8 *233:10 *1366:B 0
9 *233:10 *1526:A 2.51343e-06
10 *233:10 *234:10 4.00121e-05
11 *233:10 *291:60 5.83304e-05
12 *233:10 *291:66 0.000173804
13 *233:10 *291:70 0
14 *233:10 *291:72 0
15 *1424:D *233:10 3.57163e-05
*RES
1 *1300:X *233:10 24.9964 
2 *233:10 *1305:B 13.8 
3 *233:10 *1302:A 16.8179 
*END

*D_NET *234 0.00244624
*CONN
*I *1302:B I *D sky130_fd_sc_hd__or2_1
*I *1305:C I *D sky130_fd_sc_hd__or3_2
*I *1301:X O *D sky130_fd_sc_hd__or3_1
*CAP
1 *1302:B 0.000183895
2 *1305:C 6.31489e-05
3 *1301:X 0.000662381
4 *234:10 0.000909425
5 *1302:B *291:60 0.000192585
6 *1302:B *291:66 3.34366e-05
7 *1305:C *1390:CLK 5.33005e-05
8 *234:10 *1354:B 3.1367e-05
9 *234:10 *1355:C 1.13883e-05
10 *234:10 *291:66 0.000153047
11 *234:10 *347:12 1.59373e-05
12 *234:10 *347:16 9.63177e-05
13 *233:10 *234:10 4.00121e-05
*RES
1 *1301:X *234:10 25.8179 
2 *234:10 *1305:C 14.7464 
3 *234:10 *1302:B 17.6036 
*END

*D_NET *235 0.00127808
*CONN
*I *1303:D I *D sky130_fd_sc_hd__or4_1
*I *1304:A4 I *D sky130_fd_sc_hd__o41ai_1
*I *1302:X O *D sky130_fd_sc_hd__or2_1
*CAP
1 *1303:D 4.66701e-05
2 *1304:A4 0
3 *1302:X 0.000451398
4 *235:12 0.000498068
5 *1303:D *237:20 2.89114e-05
6 *1303:D *361:18 0.000142856
7 *235:12 *238:12 0
8 *235:12 *317:14 6.04162e-05
9 *1303:C *1303:D 4.97626e-05
*RES
1 *1302:X *235:12 24.9607 
2 *235:12 *1304:A4 9.3 
3 *235:12 *1303:D 11.0857 
*END

*D_NET *236 0.00284129
*CONN
*I *1371:A2 I *D sky130_fd_sc_hd__o221a_1
*I *1303:X O *D sky130_fd_sc_hd__or4_1
*CAP
1 *1371:A2 0.000910502
2 *1303:X 0.000910502
3 *1371:A2 *1317:A_N 0.000181378
4 *1371:A2 *1369:A2 0
5 *1371:A2 *1413:CLK 0.000102537
6 *1371:A2 *1440:A 0.00023583
7 *1371:A2 *1441:A 0.00020646
8 *1371:A2 *250:10 0
9 *1371:A2 *317:30 0.000227539
10 *1371:A2 *343:8 0
11 *1371:A2 *343:12 0
12 *1290:C1 *1371:A2 0
13 *1427:D *1371:A2 6.65398e-05
14 *138:16 *1371:A2 0
*RES
1 *1303:X *1371:A2 49.6357 
*END

*D_NET *237 0.0040669
*CONN
*I *1313:A1 I *D sky130_fd_sc_hd__a31o_1
*I *1304:Y O *D sky130_fd_sc_hd__o41ai_1
*CAP
1 *1313:A1 0
2 *1304:Y 0.00114302
3 *237:20 0.00114302
4 *237:20 *1212:A 0
5 *237:20 *1304:B1 6.19181e-05
6 *237:20 *1309:A2 0.000184531
7 *237:20 *1310:C 0.000236487
8 *237:20 *1313:A3 9.65075e-05
9 *237:20 *1317:B 0
10 *237:20 *1333:B 3.92854e-05
11 *237:20 *1333:C 0.000389146
12 *237:20 *1440:A 0
13 *237:20 *1441:A 0
14 *237:20 *238:12 0
15 *237:20 *242:10 0.000272665
16 *237:20 *356:73 0.000153047
17 *237:20 *374:8 0
18 *1303:C *237:20 5.52302e-05
19 *1303:D *237:20 2.89114e-05
20 *1304:A3 *237:20 3.34295e-05
21 *139:24 *237:20 0.000153054
22 *232:10 *237:20 7.6644e-05
*RES
1 *1304:Y *237:20 43.9607 
2 *237:20 *1313:A1 9.3 
*END

*D_NET *238 0.00636285
*CONN
*I *1312:B1 I *D sky130_fd_sc_hd__a2111o_1
*I *1308:A2 I *D sky130_fd_sc_hd__o31ai_1
*I *1310:B I *D sky130_fd_sc_hd__or3_1
*I *1316:C I *D sky130_fd_sc_hd__nor4_1
*I *1305:X O *D sky130_fd_sc_hd__or3_2
*CAP
1 *1312:B1 0.000113191
2 *1308:A2 0.000143308
3 *1310:B 0.000105441
4 *1316:C 6.94907e-05
5 *1305:X 0.00122435
6 *238:27 0.000274601
7 *238:16 0.000223392
8 *238:12 0.00146559
9 *1308:A2 *1308:B1 4.72818e-05
10 *1308:A2 *1313:A2 0.000183713
11 *1308:A2 *1313:A3 6.19181e-05
12 *1308:A2 *1316:D 1.5424e-05
13 *1308:A2 *1542:A 0.00016806
14 *1308:A2 *240:6 7.71303e-05
15 *1312:B1 *300:10 6.28253e-05
16 *238:12 *1299:A1 0.000464535
17 *238:12 *1299:B1 9.31871e-05
18 *238:12 *1305:A 0.000181378
19 *238:12 *1309:A2 0
20 *238:12 *1309:C1 0.000527799
21 *238:12 *1310:C 0
22 *238:12 *1333:B 0
23 *238:12 *242:10 0
24 *238:12 *292:140 0
25 *238:12 *300:10 5.03772e-05
26 *238:12 *346:10 6.19181e-05
27 *238:12 *356:73 0
28 *238:12 *362:10 0
29 *238:12 *369:25 0
30 *238:16 *1310:C 4.37485e-06
31 *238:16 *1316:D 1.76039e-05
32 *238:16 *362:10 0
33 *238:16 *362:23 0
34 *238:27 *1313:A3 1.08359e-05
35 *238:27 *1316:D 1.721e-05
36 *238:27 *1542:A 9.25014e-06
37 *1170:A *1310:B 5.33005e-05
38 *1170:A *1316:C 0.00018372
39 *1304:A3 *238:12 0
40 *1312:D1 *1312:B1 0.00010096
41 *1312:D1 *238:16 0.000222878
42 *1312:D1 *238:27 3.17148e-05
43 *139:26 *1310:B 9.60939e-05
44 *232:10 *238:12 0
45 *235:12 *238:12 0
46 *237:20 *238:12 0
*RES
1 *1305:X *238:12 44.8714 
2 *238:12 *238:16 7.66071 
3 *238:16 *1316:C 15.5679 
4 *238:16 *238:27 0.732143 
5 *238:27 *1310:B 15.1571 
6 *238:27 *1308:A2 18.2375 
7 *238:12 *1312:B1 11.4786 
*END

*D_NET *239 0.00174825
*CONN
*I *1347:A2 I *D sky130_fd_sc_hd__a31o_1
*I *1307:C1 I *D sky130_fd_sc_hd__o211a_1
*I *1340:A I *D sky130_fd_sc_hd__and2_1
*I *1306:X O *D sky130_fd_sc_hd__and4_1
*CAP
1 *1347:A2 1.97042e-05
2 *1307:C1 0.00013098
3 *1340:A 0
4 *1306:X 0.000262199
5 *239:18 0.000275131
6 *239:12 0.000426054
7 *1307:C1 *258:16 7.67408e-05
8 *1347:A2 *300:10 3.08664e-05
9 *239:12 *1298:D 9.34004e-05
10 *239:12 *1306:D 5.80706e-06
11 *239:12 *1347:A1 2.39313e-05
12 *239:12 *1347:B1 0.000186669
13 *239:12 *300:10 0.000126138
14 *239:12 *360:45 2.84494e-05
15 *239:12 *370:20 0
16 *239:18 *258:16 2.8266e-06
17 *239:18 *258:26 5.93525e-05
18 *239:18 *360:45 0
19 *1418:D *239:12 0
20 *231:14 *239:12 0
*RES
1 *1306:X *239:12 24.8536 
2 *239:12 *239:18 6.875 
3 *239:18 *1340:A 13.8 
4 *239:18 *1307:C1 16.6571 
5 *239:12 *1347:A2 9.83571 
*END

*D_NET *240 0.00160124
*CONN
*I *1308:A3 I *D sky130_fd_sc_hd__o31ai_1
*I *1316:D I *D sky130_fd_sc_hd__nor4_1
*I *1307:X O *D sky130_fd_sc_hd__o211a_1
*CAP
1 *1308:A3 0
2 *1316:D 0.000201088
3 *1307:X 0.000255634
4 *240:6 0.000456722
5 *1316:D *1313:A2 9.90367e-05
6 *1316:D *1542:A 7.6644e-05
7 *1316:D *362:23 0
8 *240:6 *1307:A1 2.89016e-05
9 *240:6 *334:8 0.000184521
10 *240:6 *362:34 4.92678e-05
11 *1170:A *240:6 9.63925e-05
12 *1308:A2 *1316:D 1.5424e-05
13 *1308:A2 *240:6 7.71303e-05
14 *1316:B *1316:D 2.56601e-05
15 *238:16 *1316:D 1.76039e-05
16 *238:27 *1316:D 1.721e-05
*RES
1 *1307:X *240:6 14.7643 
2 *240:6 *1316:D 22.0321 
3 *240:6 *1308:A3 9.3 
*END

*D_NET *241 0.000661359
*CONN
*I *1313:A2 I *D sky130_fd_sc_hd__a31o_1
*I *1308:Y O *D sky130_fd_sc_hd__o31ai_1
*CAP
1 *1313:A2 0.000155712
2 *1308:Y 0.000155712
3 *1313:A2 *1542:A 6.71854e-05
4 *1308:A2 *1313:A2 0.000183713
5 *1316:D *1313:A2 9.90367e-05
*RES
1 *1308:Y *1313:A2 22.0286 
*END

*D_NET *242 0.00151709
*CONN
*I *1310:C I *D sky130_fd_sc_hd__or3_1
*I *1312:C1 I *D sky130_fd_sc_hd__a2111o_1
*I *1309:X O *D sky130_fd_sc_hd__o211a_1
*CAP
1 *1310:C 0.000119359
2 *1312:C1 0
3 *1309:X 0.000229537
4 *242:10 0.000348896
5 *1310:C *1313:A3 0.000128154
6 *242:10 *292:147 0.00014183
7 *1312:D1 *1310:C 3.57844e-05
8 *237:20 *1310:C 0.000236487
9 *237:20 *242:10 0.000272665
10 *238:12 *1310:C 0
11 *238:12 *242:10 0
12 *238:16 *1310:C 4.37485e-06
*RES
1 *1309:X *242:10 18.6214 
2 *242:10 *1312:C1 13.8 
3 *242:10 *1310:C 17.6214 
*END

*D_NET *243 0.00141118
*CONN
*I *1314:A3 I *D sky130_fd_sc_hd__a31o_1
*I *1371:B1 I *D sky130_fd_sc_hd__o221a_1
*I *1310:X O *D sky130_fd_sc_hd__or3_1
*CAP
1 *1314:A3 0.000187
2 *1371:B1 0.000121355
3 *1310:X 0.000242649
4 *243:8 0.000551004
5 *1314:A3 *1320:B 0.000176916
6 *1371:B1 *1320:B 0.000120645
7 *1371:B1 *1372:C 0
8 *1371:B1 *250:10 5.80706e-06
9 *1314:A1 *1314:A3 5.80706e-06
10 *1372:B *1314:A3 0
11 *138:12 *1371:B1 0
12 *138:16 *1371:B1 0
13 *230:24 *1314:A3 0
*RES
1 *1310:X *243:8 17.2107 
2 *243:8 *1371:B1 16.6571 
3 *243:8 *1314:A3 18.175 
*END

*D_NET *244 0.00172745
*CONN
*I *1369:A2 I *D sky130_fd_sc_hd__a31o_1
*I *1371:B2 I *D sky130_fd_sc_hd__o221a_1
*I *1317:A_N I *D sky130_fd_sc_hd__nand2b_1
*I *1311:Y O *D sky130_fd_sc_hd__nand2_1
*CAP
1 *1369:A2 0.000195788
2 *1371:B2 2.37802e-05
3 *1317:A_N 0.000122307
4 *1311:Y 0.000119684
5 *244:19 0.000247414
6 *244:6 0.000269837
7 *1317:A_N *1441:A 0.000150625
8 *1317:A_N *250:10 9.97744e-05
9 *1369:A2 *302:78 3.99958e-05
10 *1371:B2 *1312:A2 0
11 *1371:B2 *302:78 9.82585e-06
12 *244:6 *1312:A2 5.71472e-05
13 *244:6 *302:78 6.09804e-05
14 *244:19 *302:78 1.39841e-05
15 *1371:A1 *1369:A2 5.33334e-05
16 *1371:A2 *1317:A_N 0.000181378
17 *1371:A2 *1369:A2 0
18 *138:16 *1369:A2 8.15939e-05
*RES
1 *1311:Y *244:6 11.4786 
2 *244:6 *1317:A_N 22.675 
3 *244:6 *244:19 0.575893 
4 *244:19 *1371:B2 9.89375 
5 *244:19 *1369:A2 22.3848 
*END

*D_NET *245 0.000921812
*CONN
*I *1313:A3 I *D sky130_fd_sc_hd__a31o_1
*I *1312:X O *D sky130_fd_sc_hd__a2111o_1
*CAP
1 *1313:A3 0.000199688
2 *1312:X 0.000199688
3 *1313:A3 *300:10 4.87953e-05
4 *1308:A2 *1313:A3 6.19181e-05
5 *1310:C *1313:A3 0.000128154
6 *1312:D1 *1313:A3 0.000176226
7 *237:20 *1313:A3 9.65075e-05
8 *238:27 *1313:A3 1.08359e-05
*RES
1 *1312:X *1313:A3 32.6179 
*END

*D_NET *246 0.00255247
*CONN
*I *1370:B I *D sky130_fd_sc_hd__nor2_1
*I *1319:B I *D sky130_fd_sc_hd__xor2_1
*I *1313:X O *D sky130_fd_sc_hd__a31o_1
*CAP
1 *1370:B 0.000174406
2 *1319:B 0
3 *1313:X 0.000379821
4 *246:10 0.000554227
5 *1370:B *1430:CLK 5.52238e-05
6 *1370:B *1512:A 5.52238e-05
7 *1370:B *1515:A 0.000419599
8 *246:10 *1308:B1 0.000255845
9 *246:10 *1515:A 0.000505073
10 *1316:B *246:10 0
11 *1428:D *1370:B 0.000153054
*RES
1 *1313:X *246:10 23.2643 
2 *246:10 *1319:B 13.8 
3 *246:10 *1370:B 19.6214 
*END

*D_NET *247 0.00163802
*CONN
*I *1373:B I *D sky130_fd_sc_hd__and2_1
*I *1315:B I *D sky130_fd_sc_hd__nand2b_1
*I *1314:X O *D sky130_fd_sc_hd__a31o_1
*CAP
1 *1373:B 0.00024478
2 *1315:B 9.88057e-06
3 *1314:X 0.000298368
4 *247:10 0.000553028
5 *1315:B *1320:C 2.57619e-05
6 *1315:B *1370:A 1.25355e-05
7 *1373:B *1320:D 0
8 *1373:B *1370:A 0
9 *1373:B *338:10 0.000202825
10 *1373:B *338:16 4.46186e-06
11 *247:10 *1171:B 0
12 *247:10 *1320:B 9.42111e-05
13 *247:10 *338:16 0.000103266
14 *1295:C *247:10 7.43578e-06
15 *1430:D *1373:B 3.69047e-06
16 *138:10 *247:10 0
17 *140:38 *247:10 7.77751e-05
*RES
1 *1314:X *247:10 19.2286 
2 *247:10 *1315:B 14.0589 
3 *247:10 *1373:B 19.3179 
*END

*D_NET *248 0.000104357
*CONN
*I *1320:A I *D sky130_fd_sc_hd__and4_1
*I *1315:Y O *D sky130_fd_sc_hd__nand2b_1
*CAP
1 *1320:A 7.67105e-06
2 *1315:Y 7.67105e-06
3 *1320:A *1320:C 3.18676e-05
4 *1320:A *1370:A 5.71472e-05
*RES
1 *1315:Y *1320:A 19.1357 
*END

*D_NET *249 0.00113968
*CONN
*I *1542:A I *D sky130_fd_sc_hd__clkbuf_1
*I *1316:Y O *D sky130_fd_sc_hd__nor4_1
*CAP
1 *1542:A 0.000260705
2 *1316:Y 0.000260705
3 *1542:A *1308:B1 0.000142856
4 *1170:A *1542:A 5.52302e-05
5 *1308:A2 *1542:A 0.00016806
6 *1313:A2 *1542:A 6.71854e-05
7 *1313:B1 *1542:A 9.90431e-05
8 *1316:B *1542:A 0
9 *1316:D *1542:A 7.6644e-05
10 *238:27 *1542:A 9.25014e-06
*RES
1 *1316:Y *1542:A 33.4929 
*END

*D_NET *250 0.00250734
*CONN
*I *1320:B I *D sky130_fd_sc_hd__and4_1
*I *1371:C1 I *D sky130_fd_sc_hd__o221a_1
*I *1317:Y O *D sky130_fd_sc_hd__nand2b_1
*CAP
1 *1320:B 0.000587922
2 *1371:C1 0
3 *1317:Y 0.0002663
4 *250:10 0.000854223
5 *1320:B *1320:C 9.90367e-05
6 *1320:B *374:8 0
7 *250:10 *1317:B 0
8 *250:10 *1441:A 0.000101545
9 *250:10 *292:147 0.00010096
10 *250:10 *374:8 0
11 *1314:A1 *1320:B 0
12 *1314:A3 *1320:B 0.000176916
13 *1317:A_N *250:10 9.97744e-05
14 *1371:A2 *250:10 0
15 *1371:B1 *1320:B 0.000120645
16 *1371:B1 *250:10 5.80706e-06
17 *138:12 *1320:B 0
18 *138:16 *250:10 0
19 *139:24 *1320:B 0
20 *140:14 *1320:B 0
21 *247:10 *1320:B 9.42111e-05
*RES
1 *1317:Y *250:10 19.1214 
2 *250:10 *1371:C1 13.8 
3 *250:10 *1320:B 26.1036 
*END

*D_NET *251 0.000697747
*CONN
*I *1320:C I *D sky130_fd_sc_hd__and4_1
*I *1318:Y O *D sky130_fd_sc_hd__nor2_1
*CAP
1 *1320:C 0.000216481
2 *1318:Y 0.000216481
3 *1320:C *1370:A 7.92064e-05
4 *1320:C *375:54 2.89114e-05
5 *1315:B *1320:C 2.57619e-05
6 *1320:A *1320:C 3.18676e-05
7 *1320:B *1320:C 9.90367e-05
*RES
1 *1318:Y *1320:C 22.8321 
*END

*D_NET *252 0.000403965
*CONN
*I *1320:D I *D sky130_fd_sc_hd__and4_1
*I *1319:X O *D sky130_fd_sc_hd__xor2_1
*CAP
1 *1320:D 0.000192337
2 *1319:X 0.000192337
3 *1320:D *1370:A 0
4 *1320:D *1515:A 0
5 *1320:D *253:10 1.92905e-05
6 *1373:B *1320:D 0
*RES
1 *1319:X *1320:D 30.9036 
*END

*D_NET *253 0.00383204
*CONN
*I *1447:A I *D sky130_fd_sc_hd__clkbuf_2
*I *1448:A I *D sky130_fd_sc_hd__buf_1
*I *1320:X O *D sky130_fd_sc_hd__and4_1
*CAP
1 *1447:A 0.000407654
2 *1448:A 3.04135e-05
3 *1320:X 0.000951691
4 *253:10 0.00138976
5 *1447:A *1520:A 0
6 *1447:A *292:105 0.000175099
7 *1447:A *369:12 0.000478964
8 *1447:A *369:25 0
9 *1448:A *355:49 5.33005e-05
10 *253:10 *292:105 0.000150618
11 *253:10 *355:8 4.88142e-05
12 *253:10 *355:49 0.000126439
13 *1320:D *253:10 1.92905e-05
*RES
1 *1320:X *253:10 26.1393 
2 *253:10 *1448:A 14.3357 
3 *253:10 *1447:A 23.4429 
*END

*D_NET *254 0.000370242
*CONN
*I *1324:B I *D sky130_fd_sc_hd__and3_1
*I *1322:Y O *D sky130_fd_sc_hd__nand2_1
*CAP
1 *1324:B 0.000159932
2 *1322:Y 0.000159932
3 *1324:B *1324:A 5.03772e-05
*RES
1 *1322:Y *1324:B 20.3679 
*END

*D_NET *255 0.000508624
*CONN
*I *1324:C I *D sky130_fd_sc_hd__and3_1
*I *1323:X O *D sky130_fd_sc_hd__or2_1
*CAP
1 *1324:C 0.000201165
2 *1323:X 0.000201165
3 *1324:C *1323:A 5.30637e-06
4 *1324:C *1324:A 9.50968e-06
5 *1324:C *1410:CLK 0
6 *1324:C *1510:A 0
7 *1324:C *1532:A 9.14786e-05
*RES
1 *1323:X *1324:C 30.9929 
*END

*D_NET *256 0.000946816
*CONN
*I *1327:B I *D sky130_fd_sc_hd__and3_1
*I *1325:Y O *D sky130_fd_sc_hd__nand3_1
*CAP
1 *1327:B 0.000275472
2 *1325:Y 0.000275472
3 *1327:B *345:31 0.000395873
*RES
1 *1325:Y *1327:B 22.4214 
*END

*D_NET *257 0.000255466
*CONN
*I *1327:C I *D sky130_fd_sc_hd__and3_1
*I *1326:X O *D sky130_fd_sc_hd__a21o_1
*CAP
1 *1327:C 6.44374e-05
2 *1326:X 6.44374e-05
3 *1327:C *292:46 0.000126591
*RES
1 *1326:X *1327:C 19.8143 
*END

*D_NET *258 0.0081473
*CONN
*I *1330:A_N I *D sky130_fd_sc_hd__and3b_1
*I *1340:B I *D sky130_fd_sc_hd__and2_1
*I *1332:B I *D sky130_fd_sc_hd__or2_1
*I *1331:B I *D sky130_fd_sc_hd__nand2_1
*I *1335:A2 I *D sky130_fd_sc_hd__a21o_1
*I *1334:C I *D sky130_fd_sc_hd__and3_2
*I *1347:A3 I *D sky130_fd_sc_hd__a31o_1
*I *1328:X O *D sky130_fd_sc_hd__and4_1
*CAP
1 *1330:A_N 0
2 *1340:B 0
3 *1332:B 0.000418677
4 *1331:B 0.000243243
5 *1335:A2 0
6 *1334:C 0.000264126
7 *1347:A3 0
8 *1328:X 0.000224257
9 *258:56 0.000263289
10 *258:47 0.000379987
11 *258:41 0.00106429
12 *258:26 0.000783109
13 *258:16 0.000769323
14 *258:10 0.000760263
15 *1331:B *356:10 0.000224583
16 *1331:B *356:12 0.000399137
17 *1334:C *356:12 2.36643e-05
18 *1334:C *356:18 2.571e-05
19 *1334:C *357:16 0.000443638
20 *258:10 *353:35 0.000135028
21 *258:10 *354:12 0.000148189
22 *258:10 *355:49 4.51769e-05
23 *258:10 *370:12 0.00013966
24 *258:16 *1307:B1 0
25 *258:16 *1535:A 0
26 *258:16 *266:10 7.43578e-06
27 *258:16 *292:32 0
28 *258:16 *354:12 0.000225314
29 *258:16 *360:45 0
30 *258:16 *362:36 0
31 *258:16 *370:12 3.34366e-05
32 *258:26 *360:45 0
33 *258:41 *1348:C 5.51054e-05
34 *258:41 *1414:CLK 0
35 *258:41 *300:10 0.000202402
36 *258:41 *369:25 0.000595176
37 *258:47 *1414:CLK 0
38 *258:47 *369:25 0.000123946
39 *258:56 *1335:A1 1.02132e-05
40 *1307:C1 *258:16 7.67408e-05
41 *1346:A *258:41 0
42 *239:18 *258:16 2.8266e-06
43 *239:18 *258:26 5.93525e-05
*RES
1 *1328:X *258:10 17.925 
2 *258:10 *258:16 15.2857 
3 *258:16 *258:26 12.7321 
4 *258:26 *1347:A3 9.3 
5 *258:26 *258:41 17.4107 
6 *258:41 *258:47 6.67857 
7 *258:47 *1334:C 14.7643 
8 *258:47 *258:56 0.428571 
9 *258:56 *1335:A2 9.3 
10 *258:56 *1331:B 15.175 
11 *258:41 *1332:B 19.675 
12 *258:16 *1340:B 9.3 
13 *258:10 *1330:A_N 13.8 
*END

*D_NET *259 0.000642977
*CONN
*I *1330:B I *D sky130_fd_sc_hd__and3b_1
*I *1329:X O *D sky130_fd_sc_hd__a31o_1
*CAP
1 *1330:B 0.000200603
2 *1329:X 0.000200603
3 *1330:B *1329:A2 1.34631e-05
4 *1330:B *1329:A3 0.000222491
5 *1330:B *292:38 5.81642e-06
*RES
1 *1329:X *1330:B 31.1 
*END

*D_NET *260 0.000411056
*CONN
*I *1333:B I *D sky130_fd_sc_hd__and3_1
*I *1331:Y O *D sky130_fd_sc_hd__nand2_1
*CAP
1 *1333:B 0.000163399
2 *1331:Y 0.000163399
3 *1439:A *1333:B 4.49726e-05
4 *237:20 *1333:B 3.92854e-05
5 *238:12 *1333:B 0
*RES
1 *1331:Y *1333:B 29.9929 
*END

*D_NET *261 0.000962463
*CONN
*I *1333:C I *D sky130_fd_sc_hd__and3_1
*I *1332:X O *D sky130_fd_sc_hd__or2_1
*CAP
1 *1333:C 0.000236089
2 *1332:X 0.000236089
3 *1333:C *1440:A 0
4 *1333:C *1441:A 0
5 *1413:D *1333:C 8.15939e-05
6 *1439:A *1333:C 1.95435e-05
7 *237:20 *1333:C 0.000389146
*RES
1 *1332:X *1333:C 33.3143 
*END

*D_NET *262 0.00712518
*CONN
*I *1336:A_N I *D sky130_fd_sc_hd__and3b_1
*I *1341:A2 I *D sky130_fd_sc_hd__a21o_1
*I *1346:B I *D sky130_fd_sc_hd__nand2_1
*I *1350:A2 I *D sky130_fd_sc_hd__a21o_1
*I *1349:C I *D sky130_fd_sc_hd__and3_1
*I *1351:C I *D sky130_fd_sc_hd__and3_1
*I *1338:B I *D sky130_fd_sc_hd__or2_1
*I *1337:B I *D sky130_fd_sc_hd__nand2_1
*I *1334:X O *D sky130_fd_sc_hd__and3_2
*CAP
1 *1336:A_N 0
2 *1341:A2 0.00018981
3 *1346:B 0.000436397
4 *1350:A2 0.000204674
5 *1349:C 0
6 *1351:C 0
7 *1338:B 0
8 *1337:B 1.1624e-05
9 *1334:X 0.00014017
10 *262:73 0.000843172
11 *262:51 0.000230929
12 *262:44 0.000212484
13 *262:29 0.000383457
14 *262:23 0.000414193
15 *262:14 0.000268531
16 *262:12 0.000397077
17 *1337:B *358:29 5.52238e-05
18 *1341:A2 *1342:B 0
19 *1341:A2 *1342:C 0
20 *1341:A2 *1416:CLK 0
21 *1346:B *359:12 4.01768e-05
22 *1350:A2 *1349:A 1.95435e-05
23 *1350:A2 *1357:C 4.85029e-05
24 *1350:A2 *317:14 0.000226237
25 *1350:A2 *346:27 0.000224314
26 *1350:A2 *346:42 0
27 *1350:A2 *361:12 7.10673e-06
28 *262:12 *1531:A 5.35423e-05
29 *262:12 *356:18 5.49553e-05
30 *262:14 *358:29 9.71197e-05
31 *262:29 *1338:A 0.000174535
32 *262:29 *1339:C 6.35117e-05
33 *262:29 *1436:A 0
34 *262:29 *1531:A 2.89114e-05
35 *262:29 *358:29 8.0089e-05
36 *262:29 *372:12 6.42338e-05
37 *262:44 *1338:A 4.18895e-05
38 *262:44 *1349:A 7.04695e-05
39 *262:44 *1415:CLK 4.52937e-05
40 *262:44 *1531:A 0.000141985
41 *262:44 *343:33 0.000191025
42 *262:44 *346:42 1.02504e-05
43 *262:44 *361:12 7.23864e-05
44 *262:51 *1349:A 0.000208129
45 *262:51 *361:12 0.000194795
46 *262:73 *1342:B 0
47 *262:73 *1342:C 0
48 *262:73 *358:29 1.52978e-05
49 *262:73 *372:12 0.000175561
50 *1349:B *1350:A2 6.73939e-05
51 *1416:D *262:73 6.8646e-06
52 *1439:A *1337:B 5.52238e-05
53 *1439:A *262:14 0.00078145
54 *231:45 *1350:A2 7.6644e-05
*RES
1 *1334:X *262:12 20.7821 
2 *262:12 *262:14 7.51786 
3 *262:14 *1337:B 9.83571 
4 *262:14 *262:23 4.5 
5 *262:23 *262:29 10.0179 
6 *262:29 *1338:B 9.3 
7 *262:29 *262:44 14.2143 
8 *262:44 *1351:C 9.3 
9 *262:44 *262:51 1.96429 
10 *262:51 *1349:C 9.3 
11 *262:51 *1350:A2 23.8357 
12 *262:23 *262:73 4.98214 
13 *262:73 *1346:B 20.9071 
14 *262:73 *1341:A2 17.3179 
15 *262:12 *1336:A_N 9.3 
*END

*D_NET *263 0.000447621
*CONN
*I *1336:B I *D sky130_fd_sc_hd__and3b_1
*I *1335:X O *D sky130_fd_sc_hd__a21o_1
*CAP
1 *1336:B 0.000138814
2 *1335:X 0.000138814
3 *1336:B *1414:CLK 0.000107277
4 *1336:B *357:12 3.92854e-05
5 *1439:A *1336:B 2.343e-05
*RES
1 *1335:X *1336:B 29.9929 
*END

*D_NET *264 0.000840583
*CONN
*I *1339:B I *D sky130_fd_sc_hd__and3_1
*I *1337:Y O *D sky130_fd_sc_hd__nand2_1
*CAP
1 *1339:B 0.000225893
2 *1337:Y 0.000225893
3 *1339:B *1339:C 0
4 *1339:B *1536:A 0.000202128
5 *1339:B *372:12 0
6 *1439:A *1339:B 0.000186669
*RES
1 *1337:Y *1339:B 31.9214 
*END

*D_NET *265 0.000781956
*CONN
*I *1339:C I *D sky130_fd_sc_hd__and3_1
*I *1338:X O *D sky130_fd_sc_hd__or2_1
*CAP
1 *1339:C 0.000275244
2 *1338:X 0.000275244
3 *1339:C *1339:A 0.000158706
4 *1339:C *1536:A 0
5 *1339:C *372:12 9.25014e-06
6 *1339:B *1339:C 0
7 *262:29 *1339:C 6.35117e-05
*RES
1 *1338:X *1339:C 31.8054 
*END

*D_NET *266 0.00427684
*CONN
*I *1344:B I *D sky130_fd_sc_hd__or2_1
*I *1343:B I *D sky130_fd_sc_hd__nand2_1
*I *1342:A_N I *D sky130_fd_sc_hd__and3b_1
*I *1340:X O *D sky130_fd_sc_hd__and2_1
*CAP
1 *1344:B 0
2 *1343:B 0.000183412
3 *1342:A_N 0.000420674
4 *1340:X 0.000839954
5 *266:12 0.000604086
6 *266:10 0.000839954
7 *1342:A_N *1532:A 0.000478322
8 *1342:A_N *358:39 0.0003342
9 *1343:B *1532:A 0.000250915
10 *266:10 *1344:A 2.28499e-05
11 *266:10 *1417:CLK 9.71197e-05
12 *266:10 *360:8 6.61171e-05
13 group_timeout_count[4] *1342:A_N 0.000115369
14 group_timeout_count[7] *1342:A_N 0
15 *1417:D *266:10 1.64343e-05
16 *1479:A *1342:A_N 0
17 *258:16 *266:10 7.43578e-06
*RES
1 *1340:X *266:10 19.8357 
2 *266:10 *266:12 4.5 
3 *266:12 *1342:A_N 25.4607 
4 *266:12 *1343:B 17.9071 
5 *266:10 *1344:B 9.3 
*END

*D_NET *267 0.000815346
*CONN
*I *1342:B I *D sky130_fd_sc_hd__and3b_1
*I *1341:X O *D sky130_fd_sc_hd__a21o_1
*CAP
1 *1342:B 0.000208236
2 *1341:X 0.000208236
3 *1342:B *1416:CLK 0.000128146
4 *1342:B *1530:A 2.59355e-05
5 *1342:B *358:39 0.00014534
6 *1342:B *372:12 4.7024e-05
7 *1341:A2 *1342:B 0
8 *1416:D *1342:B 5.24274e-05
9 *262:73 *1342:B 0
*RES
1 *1341:X *1342:B 33.1179 
*END

*D_NET *268 0.00104946
*CONN
*I *1345:B I *D sky130_fd_sc_hd__and3_1
*I *1343:Y O *D sky130_fd_sc_hd__nand2_1
*CAP
1 *1345:B 0.000320926
2 *1343:Y 0.000320926
3 *1345:B *1344:A 5.66157e-05
4 *1345:B *1345:C 7.83659e-05
5 *1345:B *1416:CLK 4.08132e-05
6 *1345:B *1434:A 0
7 *1345:B *1533:A 8.2018e-05
8 *1345:B *292:60 1.08359e-05
9 *1345:B *360:23 7.6644e-05
10 *1417:D *1345:B 3.0285e-05
11 *1471:A *1345:B 3.2026e-05
*RES
1 *1343:Y *1345:B 33.5286 
*END

*D_NET *269 0.000372357
*CONN
*I *1345:C I *D sky130_fd_sc_hd__and3_1
*I *1344:X O *D sky130_fd_sc_hd__or2_1
*CAP
1 *1345:C 7.579e-05
2 *1344:X 7.579e-05
3 *1345:C *1345:A 6.23306e-05
4 *1345:C *1416:CLK 8.00806e-05
5 *1345:B *1345:C 7.83659e-05
*RES
1 *1344:X *1345:C 29.2429 
*END

*D_NET *270 0.000243738
*CONN
*I *1348:B I *D sky130_fd_sc_hd__and3_1
*I *1346:Y O *D sky130_fd_sc_hd__nand2_1
*CAP
1 *1348:B 0.000104312
2 *1346:Y 0.000104312
3 *1348:B *1306:C 2.79092e-05
4 *231:14 *1348:B 7.20384e-06
*RES
1 *1346:Y *1348:B 29.1714 
*END

*D_NET *271 0.00147198
*CONN
*I *1348:C I *D sky130_fd_sc_hd__and3_1
*I *1347:X O *D sky130_fd_sc_hd__a31o_1
*CAP
1 *1348:C 0.000341794
2 *1347:X 0.000341794
3 *1348:C *1309:A1 0.000293415
4 *1348:C *1414:CLK 0.000223599
5 *1348:C *292:32 7.6644e-05
6 *231:14 *1348:C 0.000133572
7 *231:29 *1348:C 6.05161e-06
8 *258:41 *1348:C 5.51054e-05
*RES
1 *1347:X *1348:C 35.1714 
*END

*D_NET *272 0.00313298
*CONN
*I *1353:B I *D sky130_fd_sc_hd__nand2_1
*I *1356:A2 I *D sky130_fd_sc_hd__a21o_1
*I *1354:B I *D sky130_fd_sc_hd__or2_1
*I *1352:A_N I *D sky130_fd_sc_hd__and3b_1
*I *1349:X O *D sky130_fd_sc_hd__and3_1
*CAP
1 *1353:B 2.80661e-05
2 *1356:A2 0.000167748
3 *1354:B 9.19934e-05
4 *1352:A_N 0
5 *1349:X 9.04689e-05
6 *272:19 0.000393585
7 *272:17 0.000424049
8 *272:6 0.000352608
9 *1353:B *369:90 2.84109e-05
10 *1354:B *1353:A 0
11 *1354:B *1355:C 8.00806e-05
12 *1354:B *347:12 0
13 *1354:B *347:16 5.49544e-05
14 *1354:B *369:92 3.34295e-05
15 *1354:B *369:96 0.00015234
16 *1356:A2 *1356:A1 2.14658e-05
17 *1356:A2 *1357:A 5.71472e-05
18 *1356:A2 *1357:C 1.95435e-05
19 *1356:A2 *1358:B 0.000399835
20 *272:6 *291:29 0.000229456
21 *272:17 *1352:B 8.00806e-05
22 *272:17 *1357:C 0
23 *272:17 *291:29 5.52238e-05
24 *272:17 *369:90 0
25 *272:19 *1353:A 0
26 *272:19 *1355:B 7.83587e-05
27 *272:19 *1357:C 0
28 *272:19 *369:90 0.000126439
29 *272:19 *369:92 2.24646e-05
30 *1349:B *272:6 5.33005e-05
31 *1349:B *272:17 2.34204e-05
32 *231:45 *272:17 3.71496e-05
33 *234:10 *1354:B 3.1367e-05
*RES
1 *1349:X *272:6 11.4786 
2 *272:6 *1352:A_N 9.3 
3 *272:6 *272:17 9.41071 
4 *272:17 *272:19 2.85714 
5 *272:19 *1354:B 16.5857 
6 *272:19 *1356:A2 18.0321 
7 *272:17 *1353:B 14.3357 
*END

*D_NET *273 0.00090699
*CONN
*I *1352:B I *D sky130_fd_sc_hd__and3b_1
*I *1350:X O *D sky130_fd_sc_hd__a21o_1
*CAP
1 *1352:B 0.000272763
2 *1350:X 0.000272763
3 *1352:B *291:29 5.12285e-05
4 *1352:B *350:12 0.000230155
5 *272:17 *1352:B 8.00806e-05
*RES
1 *1350:X *1352:B 31.7607 
*END

*D_NET *274 0.000990832
*CONN
*I *1357:C I *D sky130_fd_sc_hd__and3_1
*I *1351:X O *D sky130_fd_sc_hd__and3_1
*CAP
1 *1357:C 0.000391338
2 *1351:X 0.000391338
3 *1357:C *1357:B 0.000100823
4 *1357:C *1521:A 0
5 *1357:C *346:42 0
6 *1357:C *369:90 0
7 *1350:A2 *1357:C 4.85029e-05
8 *1351:B *1357:C 3.92854e-05
9 *1356:A2 *1357:C 1.95435e-05
10 *231:45 *1357:C 0
11 *272:17 *1357:C 0
12 *272:19 *1357:C 0
*RES
1 *1351:X *1357:C 34.9036 
*END

*D_NET *275 0.0003113
*CONN
*I *1355:B I *D sky130_fd_sc_hd__and3_1
*I *1353:Y O *D sky130_fd_sc_hd__nand2_1
*CAP
1 *1355:B 8.89929e-05
2 *1353:Y 8.89929e-05
3 *1355:B *369:90 5.49553e-05
4 *272:19 *1355:B 7.83587e-05
*RES
1 *1353:Y *1355:B 29.1714 
*END

*D_NET *276 0.000643954
*CONN
*I *1355:C I *D sky130_fd_sc_hd__and3_1
*I *1354:X O *D sky130_fd_sc_hd__or2_1
*CAP
1 *1355:C 0.000188888
2 *1354:X 0.000188888
3 *1355:C *347:12 7.47229e-05
4 *1355:C *347:16 9.99853e-05
5 *1354:B *1355:C 8.00806e-05
6 *234:10 *1355:C 1.13883e-05
*RES
1 *1354:X *1355:C 30.6 
*END

*D_NET *277 0.000526417
*CONN
*I *1358:C I *D sky130_fd_sc_hd__and3b_1
*I *1356:X O *D sky130_fd_sc_hd__a21o_1
*CAP
1 *1358:C 0.000148481
2 *1356:X 0.000148481
3 *1358:C *348:16 0.000229456
*RES
1 *1356:X *1358:C 20.7786 
*END

*D_NET *278 0.00526932
*CONN
*I *1358:A_N I *D sky130_fd_sc_hd__and3b_1
*I *1363:C I *D sky130_fd_sc_hd__and3_1
*I *1359:B I *D sky130_fd_sc_hd__or2_1
*I *1360:B I *D sky130_fd_sc_hd__and2_1
*I *1357:X O *D sky130_fd_sc_hd__and3_1
*CAP
1 *1358:A_N 7.57457e-05
2 *1363:C 0.000363666
3 *1359:B 0
4 *1360:B 0.000280115
5 *1357:X 0.000287366
6 *278:14 0.00113839
7 *278:10 0.000857724
8 *1358:A_N *1358:B 5.52238e-05
9 *1358:A_N *348:16 0.000227532
10 *1360:B *1360:A 5.33005e-05
11 *1360:B *1362:B 4.14279e-05
12 *1360:B *1524:A 3.17148e-05
13 *1360:B *349:29 0
14 *1360:B *349:31 0.000174232
15 *1363:C *1361:B 0.000133111
16 *1363:C *1362:B 0.000142856
17 *1363:C *1363:B 2.65105e-05
18 *1363:C *1364:A_N 5.62995e-05
19 *1363:C *1364:C 0.000186662
20 *1363:C *1365:B 4.03657e-05
21 *1363:C *369:106 1.56e-05
22 *278:10 *1357:B 5.33005e-05
23 *278:10 *1358:B 0.000615963
24 *278:10 *1518:A 1.91512e-05
25 *278:14 *1301:B 0
26 *278:14 *1518:A 0.000141254
27 *278:14 *349:29 0.000150847
28 *1421:D *278:10 0.00010096
29 *3:11 *1360:B 0
*RES
1 *1357:X *278:10 20.4071 
2 *278:10 *278:14 14.6429 
3 *278:14 *1360:B 22.4607 
4 *278:14 *1359:B 9.3 
5 *278:14 *1363:C 18.1929 
6 *278:10 *1358:A_N 15.9786 
*END

*D_NET *279 0.000406077
*CONN
*I *1361:C I *D sky130_fd_sc_hd__and3b_1
*I *1359:X O *D sky130_fd_sc_hd__or2_1
*CAP
1 *1361:C 0.000130267
2 *1359:X 0.000130267
3 *1361:C *1361:A_N 0
4 *1361:C *1361:B 9.23894e-05
5 *1361:C *349:29 5.31541e-05
6 *3:11 *1361:C 0
*RES
1 *1359:X *1361:C 30.3857 
*END

*D_NET *280 0.00120618
*CONN
*I *1362:B I *D sky130_fd_sc_hd__or2_1
*I *1361:A_N I *D sky130_fd_sc_hd__and3b_1
*I *1360:X O *D sky130_fd_sc_hd__and2_1
*CAP
1 *1362:B 0.000139929
2 *1361:A_N 0.000212813
3 *1360:X 0
4 *280:4 0.000352742
5 *1361:A_N *1360:A 2.22891e-05
6 *1361:A_N *349:31 1.00073e-05
7 *1362:B *1360:A 3.99614e-06
8 *1362:B *1361:B 9.9322e-05
9 *1362:B *349:31 0.00014285
10 *1360:B *1362:B 4.14279e-05
11 *1361:C *1361:A_N 0
12 *1363:C *1362:B 0.000142856
13 *3:11 *1361:A_N 3.79467e-05
*RES
1 *1360:X *280:4 9.3 
2 *280:4 *1361:A_N 21.4071 
3 *280:4 *1362:B 13.7464 
*END

*D_NET *281 0.000359109
*CONN
*I *1364:C I *D sky130_fd_sc_hd__and3b_1
*I *1362:X O *D sky130_fd_sc_hd__or2_1
*CAP
1 *1364:C 8.62232e-05
2 *1362:X 8.62232e-05
3 *1363:C *1364:C 0.000186662
*RES
1 *1362:X *1364:C 20.3679 
*END

*D_NET *282 0.00060276
*CONN
*I *1365:B I *D sky130_fd_sc_hd__xor2_1
*I *1364:A_N I *D sky130_fd_sc_hd__and3b_1
*I *1363:X O *D sky130_fd_sc_hd__and3_1
*CAP
1 *1365:B 0.000120509
2 *1364:A_N 1.59834e-05
3 *1363:X 2.23854e-05
4 *282:6 0.000158878
5 *1364:A_N *1363:B 5.62995e-05
6 *1365:B *1363:B 5.62995e-05
7 *1365:B *351:16 7.57394e-05
8 *1363:C *1364:A_N 5.62995e-05
9 *1363:C *1365:B 4.03657e-05
*RES
1 *1363:X *282:6 9.72857 
2 *282:6 *1364:A_N 10.2464 
3 *282:6 *1365:B 12.3 
*END

*D_NET *283 0.000880946
*CONN
*I *1366:B I *D sky130_fd_sc_hd__and2_1
*I *1365:X O *D sky130_fd_sc_hd__xor2_1
*CAP
1 *1366:B 0.000369867
2 *1365:X 0.000369867
3 *1366:B *352:21 8.55173e-05
4 *1424:D *1366:B 5.56943e-05
5 *233:10 *1366:B 0
*RES
1 *1365:X *1366:B 33.85 
*END

*D_NET *284 0.000362048
*CONN
*I *1372:C I *D sky130_fd_sc_hd__nor3_1
*I *1371:X O *D sky130_fd_sc_hd__o221a_1
*CAP
1 *1372:C 0.000119064
2 *1371:X 0.000119064
3 *1371:B1 *1372:C 0
4 *1372:B *1372:C 5.03772e-05
5 *1429:D *1372:C 6.05161e-06
6 *138:12 *1372:C 6.74911e-05
*RES
1 *1371:X *1372:C 30.1893 
*END

*D_NET *285 0.000850924
*CONN
*I *1377:A1 I *D sky130_fd_sc_hd__o211a_1
*I *1374:Y O *D sky130_fd_sc_hd__o21bai_1
*CAP
1 *1377:A1 0.000151338
2 *1374:Y 0.000151338
3 *1377:A1 *1374:A1 6.93907e-05
4 *1377:A1 *1377:A2 0.000227532
5 *1377:A1 *302:22 0.000147834
6 *1222:B *1377:A1 1.92789e-05
7 *1375:A1 *1377:A1 9.25014e-06
8 *162:36 *1377:A1 7.49615e-05
*RES
1 *1374:Y *1377:A1 32.1357 
*END

*D_NET *286 0.000625868
*CONN
*I *1377:A2 I *D sky130_fd_sc_hd__o211a_1
*I *1375:X O *D sky130_fd_sc_hd__o31a_1
*CAP
1 *1377:A2 0.000101791
2 *1375:X 0.000101791
3 *1377:A2 *1378:A3 0.000184745
4 *1222:B *1377:A2 1.00073e-05
5 *1377:A1 *1377:A2 0.000227532
*RES
1 *1375:X *1377:A2 21.6179 
*END

*D_NET *287 0.00133383
*CONN
*I *1377:B1 I *D sky130_fd_sc_hd__o211a_1
*I *1376:X O *D sky130_fd_sc_hd__or3_1
*CAP
1 *1377:B1 0.000316281
2 *1376:X 0.000316281
3 *1377:B1 *1442:A 1.9643e-05
4 *1227:A1 *1377:B1 5.86416e-05
5 *1227:A3 *1377:B1 0.000125724
6 *1376:A *1377:B1 2.27416e-05
7 *1377:C1 *1377:B1 7.8327e-05
8 *154:10 *1377:B1 0.000247778
9 *162:21 *1377:B1 4.84078e-05
10 *184:8 *1377:B1 0.000100009
*RES
1 *1376:X *1377:B1 34.9393 
*END

*D_NET *288 0.00323018
*CONN
*I *1378:A3 I *D sky130_fd_sc_hd__o31ai_1
*I *1377:X O *D sky130_fd_sc_hd__o211a_1
*CAP
1 *1378:A3 0.00104681
2 *1377:X 0.00104681
3 *1378:A3 *302:74 0
4 *1378:A3 *375:89 0.000168939
5 *1192:A3 *1378:A3 0.000465291
6 *1194:B *1378:A3 6.53353e-05
7 *1194:C_N *1378:A3 2.84398e-05
8 *1222:B *1378:A3 1.57983e-05
9 *1377:A2 *1378:A3 0.000184745
10 *135:101 *1378:A3 0.000135264
11 *153:10 *1378:A3 0
12 *153:23 *1378:A3 7.2754e-05
13 *154:10 *1378:A3 0
*RES
1 *1377:X *1378:A3 49.0464 
*END

*D_NET *289 0.000367971
*CONN
*I *1380:A2 I *D sky130_fd_sc_hd__a21oi_1
*I *1379:X O *D sky130_fd_sc_hd__or4_1
*CAP
1 *1380:A2 0.000129271
2 *1379:X 0.000129271
3 *1380:A2 *1286:B1 0
4 *1380:A2 *1379:A 3.99614e-06
5 *1380:A2 *1379:D 6.7667e-05
6 *1380:A2 *1380:B1 1.33343e-05
7 *145:27 *1380:A2 2.44318e-05
*RES
1 *1379:X *1380:A2 21.2429 
*END

*D_NET *290 0.00976865
*CONN
*I *1443:A I *D sky130_fd_sc_hd__clkbuf_16
*I *1442:A I *D sky130_fd_sc_hd__clkbuf_16
*I *1441:A I *D sky130_fd_sc_hd__clkbuf_16
*I *1440:A I *D sky130_fd_sc_hd__clkbuf_16
*I *1439:X O *D sky130_fd_sc_hd__clkbuf_16
*CAP
1 *1443:A 0.000486599
2 *1442:A 0.000522362
3 *1441:A 0.000394653
4 *1440:A 0.000474014
5 *1439:X 0
6 *290:30 0.00119893
7 *290:8 0.00158581
8 *290:4 0.000907109
9 *1440:A *1212:A 0.000181368
10 *1440:A *317:14 0
11 *1441:A *1317:B 0
12 *1441:A *1369:A3 5.33005e-05
13 *1442:A *1213:A 0.000123288
14 *1442:A *1401:CLK 0.000100823
15 *1443:A *1402:CLK 0.000154455
16 *1443:A *294:35 4.57538e-05
17 *1443:A *302:16 5.52302e-05
18 *1443:A *309:10 3.5707e-05
19 *1443:A *375:28 0.000487473
20 *1213:B *1442:A 7.50601e-05
21 *1227:A1 *1442:A 2.66706e-05
22 *1227:A3 *1442:A 0.000120485
23 *1228:A1 *1442:A 0.000178847
24 *1228:A3 *1442:A 9.71197e-05
25 *1229:A_N *1442:A 0.000113073
26 *1229:B *1442:A 0.000413673
27 *1291:A1 *290:8 0.000261178
28 *1317:A_N *1441:A 0.000150625
29 *1333:C *1440:A 0
30 *1333:C *1441:A 0
31 *1371:A2 *1440:A 0.00023583
32 *1371:A2 *1441:A 0.00020646
33 *1377:B1 *1442:A 1.9643e-05
34 *1384:D *1442:A 2.89016e-05
35 *1384:D *1443:A 0.000564832
36 *1413:D *1441:A 0
37 *1439:A *290:8 0.000148168
38 *135:101 *1442:A 2.91193e-05
39 *135:103 *1442:A 6.22333e-05
40 *184:8 *1442:A 0.00012831
41 *237:20 *1440:A 0
42 *237:20 *1441:A 0
43 *250:10 *1441:A 0.000101545
*RES
1 *1439:X *290:4 9.3 
2 *290:4 *290:8 16.9464 
3 *290:8 *1440:A 24.2464 
4 *290:8 *1441:A 23.2643 
5 *290:4 *290:30 3 
6 *290:30 *1442:A 32.3714 
7 *290:30 *1443:A 31.8714 
*END

*D_NET *291 0.0194742
*CONN
*I *1390:CLK I *D sky130_fd_sc_hd__dfxtp_1
*I *1420:CLK I *D sky130_fd_sc_hd__dfxtp_1
*I *1389:CLK I *D sky130_fd_sc_hd__dfxtp_1
*I *1424:CLK I *D sky130_fd_sc_hd__dfxtp_1
*I *1422:CLK I *D sky130_fd_sc_hd__dfxtp_1
*I *1388:CLK I *D sky130_fd_sc_hd__dfxtp_1
*I *1391:CLK I *D sky130_fd_sc_hd__dfxtp_1
*I *1385:CLK I *D sky130_fd_sc_hd__dfxtp_1
*I *1423:CLK I *D sky130_fd_sc_hd__dfxtp_1
*I *1386:CLK I *D sky130_fd_sc_hd__dfxtp_1
*I *1419:CLK I *D sky130_fd_sc_hd__dfxtp_1
*I *1415:CLK I *D sky130_fd_sc_hd__dfxtp_1
*I *1421:CLK I *D sky130_fd_sc_hd__dfxtp_1
*I *1444:A I *D sky130_fd_sc_hd__clkbuf_4
*I *1440:X O *D sky130_fd_sc_hd__clkbuf_16
*CAP
1 *1390:CLK 0.00086811
2 *1420:CLK 0
3 *1389:CLK 0.00027417
4 *1424:CLK 0
5 *1422:CLK 0.00154143
6 *1388:CLK 0.000326689
7 *1391:CLK 0.000677475
8 *1385:CLK 0
9 *1423:CLK 0.000467202
10 *1386:CLK 0.000308064
11 *1419:CLK 0
12 *1415:CLK 0.000536446
13 *1421:CLK 0.000199405
14 *1444:A 1.42796e-05
15 *1440:X 1.44544e-05
16 *291:158 0.00086811
17 *291:89 0.000622466
18 *291:87 0.000832739
19 *291:76 0.000599396
20 *291:74 0.000722644
21 *291:72 0.00169688
22 *291:70 0.000339888
23 *291:66 0.000771822
24 *291:60 0.000353964
25 *291:29 0.000994281
26 *291:25 0.000741916
27 *291:8 0.000516137
28 *291:6 0.000178204
29 *1386:CLK *1526:A 0
30 *1386:CLK *371:63 0
31 *1386:CLK *373:79 0
32 *1386:CLK *373:92 0.000412326
33 *1388:CLK *1255:B1 5.52238e-05
34 *1389:CLK *1256:A 3.72217e-05
35 *1391:CLK *1253:A 0.00014285
36 *1391:CLK *1462:A 0.00030824
37 *1391:CLK *325:12 0.000228558
38 *1415:CLK *1338:A 8.68665e-05
39 *1415:CLK *1339:A 3.18891e-05
40 *1415:CLK *1436:A 0
41 *1415:CLK *1518:A 0
42 *1415:CLK *346:42 2.84494e-05
43 *1415:CLK *358:10 3.32631e-05
44 *1421:CLK *1518:A 0
45 *1421:CLK *1521:A 0.000108848
46 *1421:CLK *346:42 8.66324e-05
47 *1422:CLK *349:29 6.52536e-05
48 *1423:CLK *351:14 2.07878e-05
49 *1444:A *317:14 5.52302e-05
50 *1444:A *346:23 5.33005e-05
51 *291:6 *317:14 8.66063e-05
52 *291:6 *346:23 9.90431e-05
53 *291:8 *317:14 8.57023e-05
54 *291:8 *346:23 9.71197e-05
55 *291:25 *346:10 0
56 *291:25 *361:12 0.000168216
57 *291:29 *361:12 0.000835585
58 *291:60 *1305:A 5.75896e-05
59 *291:76 *1526:A 0
60 *291:76 *373:79 0
61 *1256:B *1389:CLK 5.33334e-05
62 *1256:B *291:70 0
63 *1302:A *291:60 0.000142797
64 *1302:B *291:60 0.000192585
65 *1302:B *291:66 3.34366e-05
66 *1305:C *1390:CLK 5.33005e-05
67 *1352:B *291:29 5.12285e-05
68 *1385:D *1386:CLK 4.06875e-05
69 *1385:D *291:89 1.64343e-05
70 *1388:D *1388:CLK 6.26276e-05
71 *1415:D *1415:CLK 8.42606e-05
72 *1421:D *1421:CLK 2.8266e-06
73 *1422:D *1422:CLK 3.10996e-05
74 *1423:D *1423:CLK 0.000129877
75 *1424:D *1422:CLK 5.33659e-05
76 *196:18 *291:70 0
77 *196:18 *291:72 0
78 *196:18 *291:74 0
79 *196:18 *291:76 0
80 *231:39 *291:25 0.000146474
81 *231:39 *291:60 1.37292e-05
82 *233:10 *291:60 5.83304e-05
83 *233:10 *291:66 0.000173804
84 *233:10 *291:70 0
85 *233:10 *291:72 0
86 *234:10 *291:66 0.000153047
87 *262:44 *1415:CLK 4.52937e-05
88 *272:6 *291:29 0.000229456
89 *272:17 *291:29 5.52238e-05
*RES
1 *1440:X *291:6 10.2464 
2 *291:6 *291:8 0.946429 
3 *291:8 *1444:A 9.83571 
4 *291:8 *291:25 16.3214 
5 *291:25 *291:29 12.4286 
6 *291:29 *1421:CLK 18.4786 
7 *291:29 *1415:CLK 22.3179 
8 *291:25 *1419:CLK 9.3 
9 *291:6 *291:60 9.17857 
10 *291:60 *291:66 8.92857 
11 *291:66 *291:70 9.78571 
12 *291:70 *291:72 1.03571 
13 *291:72 *291:74 1.64286 
14 *291:74 *291:76 5.28571 
15 *291:76 *1386:CLK 20.9071 
16 *291:76 *291:87 4.5 
17 *291:87 *291:89 2.58929 
18 *291:89 *1423:CLK 17.6393 
19 *291:89 *1385:CLK 9.3 
20 *291:87 *1391:CLK 22.3 
21 *291:74 *1388:CLK 19.2643 
22 *291:72 *1422:CLK 34.2464 
23 *291:70 *1424:CLK 13.8 
24 *291:66 *1389:CLK 13.9607 
25 *291:60 *291:158 4.5 
26 *291:158 *1420:CLK 9.3 
27 *291:158 *1390:CLK 23.8 
*END

*D_NET *292 0.0208968
*CONN
*I *1429:CLK I *D sky130_fd_sc_hd__dfxtp_1
*I *1413:CLK I *D sky130_fd_sc_hd__dfxtp_1
*I *1427:CLK I *D sky130_fd_sc_hd__dfxtp_1
*I *1445:A I *D sky130_fd_sc_hd__clkbuf_4
*I *1428:CLK I *D sky130_fd_sc_hd__dfxtp_1
*I *1430:CLK I *D sky130_fd_sc_hd__dfxtp_1
*I *1409:CLK I *D sky130_fd_sc_hd__dfxtp_1
*I *1412:CLK I *D sky130_fd_sc_hd__dfxtp_1
*I *1410:CLK I *D sky130_fd_sc_hd__dfxtp_1
*I *1411:CLK I *D sky130_fd_sc_hd__dfxtp_1
*I *1417:CLK I *D sky130_fd_sc_hd__dfxtp_1
*I *1416:CLK I *D sky130_fd_sc_hd__dfxtp_1
*I *1414:CLK I *D sky130_fd_sc_hd__dfxtp_1
*I *1418:CLK I *D sky130_fd_sc_hd__dfxtp_1
*I *1441:X O *D sky130_fd_sc_hd__clkbuf_16
*CAP
1 *1429:CLK 0.000533607
2 *1413:CLK 0.000275773
3 *1427:CLK 2.06112e-05
4 *1445:A 0
5 *1428:CLK 7.97778e-05
6 *1430:CLK 0.000504909
7 *1409:CLK 6.1769e-05
8 *1412:CLK 0
9 *1410:CLK 0.000369485
10 *1411:CLK 0
11 *1417:CLK 2.51686e-05
12 *1416:CLK 0.00026808
13 *1414:CLK 0.000479442
14 *1418:CLK 0.000150259
15 *1441:X 0.000250523
16 *292:156 0.000887345
17 *292:147 0.000606592
18 *292:140 0.00069912
19 *292:111 0.000692732
20 *292:105 0.000599082
21 *292:60 0.000553692
22 *292:54 0.000422269
23 *292:46 0.000885081
24 *292:38 0.000427239
25 *292:32 0.00111762
26 *292:19 0.00113034
27 *292:8 0.000531686
28 *292:6 0.000823055
29 *1410:CLK *1510:A 0.000212563
30 *1410:CLK *1532:A 0
31 *1410:CLK *354:27 0.000207762
32 *1414:CLK *1306:C 0
33 *1414:CLK *1309:A1 2.04866e-05
34 *1414:CLK *1531:A 0
35 *1414:CLK *357:12 2.47093e-05
36 *1414:CLK *369:25 0
37 *1416:CLK *1532:A 0.000264982
38 *1416:CLK *1533:A 0.000164405
39 *1416:CLK *358:39 0.00016236
40 *1416:CLK *359:22 0.000227014
41 *1417:CLK *1344:A 5.52302e-05
42 *1417:CLK *360:8 1.39726e-05
43 *1429:CLK *335:10 0
44 *1429:CLK *375:41 0.000192214
45 *1429:CLK *375:54 1.99099e-05
46 *1430:CLK *1185:A 7.17235e-05
47 *1430:CLK *1370:A 0.00044468
48 *1430:CLK *1512:A 6.26959e-05
49 *292:6 *362:10 5.52302e-05
50 *292:32 *1307:A2 0.000365667
51 *292:32 *1309:A1 0.000238591
52 *292:32 *1329:A2 0
53 *292:32 *354:12 0
54 *292:32 *355:10 6.30388e-05
55 *292:32 *355:12 6.37408e-06
56 *292:32 *355:49 4.61027e-05
57 *292:46 *1330:C 0.000105471
58 *292:46 *345:31 0.00053226
59 *292:46 *370:14 0.000427199
60 *292:54 *1510:A 2.56425e-05
61 *292:54 *1532:A 0
62 *292:54 *1534:A 2.8266e-06
63 *292:54 *354:27 1.02504e-05
64 *292:60 *1344:A 5.83304e-05
65 *292:60 *1532:A 0.000312381
66 *292:60 *1534:A 0.000412868
67 *292:60 *360:23 0.000142082
68 *292:105 *1321:B 5.52302e-05
69 *292:105 *355:49 2.11543e-05
70 *292:105 *369:25 0.00029971
71 *292:111 *369:25 3.17148e-05
72 *292:140 *362:10 1.76039e-05
73 *292:140 *369:25 0.000227729
74 *292:147 *1309:A1 2.15245e-05
75 *292:147 *1309:C1 0.000139907
76 *292:147 *1317:B 0.000200956
77 *1309:B1 *292:140 0.000102207
78 *1309:B1 *292:147 0.000113142
79 *1324:C *1410:CLK 0
80 *1327:C *292:46 0.000126591
81 *1330:B *292:38 5.81642e-06
82 *1336:B *1414:CLK 0.000107277
83 *1341:A2 *1416:CLK 0
84 *1342:B *1416:CLK 0.000128146
85 *1345:B *1416:CLK 4.08132e-05
86 *1345:B *292:60 1.08359e-05
87 *1345:C *1416:CLK 8.00806e-05
88 *1346:A *1414:CLK 0.000201127
89 *1348:C *1414:CLK 0.000223599
90 *1348:C *292:32 7.6644e-05
91 *1370:B *1430:CLK 5.52238e-05
92 *1371:A2 *1413:CLK 0.000102537
93 *1411:D *292:54 5.56943e-05
94 *1412:D *292:46 3.08664e-05
95 *1418:D *1414:CLK 3.00522e-05
96 *1418:D *1418:CLK 3.07806e-05
97 *1427:D *1413:CLK 2.84494e-05
98 *1427:D *292:156 8.82363e-05
99 *1428:D *292:111 0
100 *1439:A *1414:CLK 3.18676e-05
101 *1447:A *292:105 0.000175099
102 *138:16 *1413:CLK 0.000195357
103 *138:16 *1429:CLK 0
104 *231:29 *292:140 6.05161e-06
105 *238:12 *292:140 0
106 *242:10 *292:147 0.00014183
107 *250:10 *292:147 0.00010096
108 *253:10 *292:105 0.000150618
109 *258:16 *292:32 0
110 *258:41 *1414:CLK 0
111 *258:47 *1414:CLK 0
112 *266:10 *1417:CLK 9.71197e-05
*RES
1 *1441:X *292:6 12.3 
2 *292:6 *292:8 3.82143 
3 *292:8 *1418:CLK 11.3893 
4 *292:8 *292:19 4.5 
5 *292:19 *1414:CLK 24.7821 
6 *292:19 *292:32 14.2411 
7 *292:32 *292:38 5.72321 
8 *292:38 *292:46 15.0357 
9 *292:46 *292:54 7.71429 
10 *292:54 *292:60 13.2679 
11 *292:60 *1416:CLK 23.3357 
12 *292:60 *1417:CLK 14.7464 
13 *292:54 *1411:CLK 9.3 
14 *292:46 *1410:CLK 22.05 
15 *292:38 *1412:CLK 9.3 
16 *292:32 *292:105 13.1518 
17 *292:105 *292:111 11.25 
18 *292:111 *1409:CLK 10.2464 
19 *292:111 *1430:CLK 19.6929 
20 *292:105 *1428:CLK 10.6571 
21 *292:6 *292:140 13.625 
22 *292:140 *1445:A 9.3 
23 *292:140 *292:147 9.98214 
24 *292:147 *1427:CLK 9.72857 
25 *292:147 *292:156 1.35714 
26 *292:156 *1413:CLK 25.5143 
27 *292:156 *1429:CLK 28.1036 
*END

*D_NET *293 0.0189185
*CONN
*I *1382:CLK I *D sky130_fd_sc_hd__dfxtp_2
*I *1396:CLK I *D sky130_fd_sc_hd__dfxtp_1
*I *1397:CLK I *D sky130_fd_sc_hd__dfxtp_1
*I *1398:CLK I *D sky130_fd_sc_hd__dfxtp_1
*I *1399:CLK I *D sky130_fd_sc_hd__dfxtp_1
*I *1393:CLK I *D sky130_fd_sc_hd__dfxtp_1
*I *1400:CLK I *D sky130_fd_sc_hd__dfxtp_1
*I *1394:CLK I *D sky130_fd_sc_hd__dfxtp_1
*I *1392:CLK I *D sky130_fd_sc_hd__dfxtp_1
*I *1387:CLK I *D sky130_fd_sc_hd__dfxtp_1
*I *1395:CLK I *D sky130_fd_sc_hd__dfxtp_1
*I *1401:CLK I *D sky130_fd_sc_hd__dfxtp_1
*I *1446:A I *D sky130_fd_sc_hd__clkbuf_8
*I *1442:X O *D sky130_fd_sc_hd__clkbuf_16
*CAP
1 *1382:CLK 0
2 *1396:CLK 0
3 *1397:CLK 0
4 *1398:CLK 3.27275e-05
5 *1399:CLK 0.00042298
6 *1393:CLK 3.72704e-05
7 *1400:CLK 1.11927e-05
8 *1394:CLK 2.23854e-05
9 *1392:CLK 0
10 *1387:CLK 0.000175314
11 *1395:CLK 0
12 *1401:CLK 0.000657441
13 *1446:A 0.000103946
14 *1442:X 0
15 *293:138 0.000828763
16 *293:134 0.000637455
17 *293:126 0.000637844
18 *293:118 0.000550805
19 *293:79 0.00123567
20 *293:75 0.00122058
21 *293:73 0.000690632
22 *293:67 0.00106113
23 *293:56 0.00103792
24 *293:42 0.000844236
25 *293:8 0.00115252
26 *293:4 0.000502345
27 *1398:CLK *320:10 2.59355e-05
28 *1399:CLK *1245:A 0
29 *1400:CLK *321:34 0
30 *1401:CLK *1213:A 0.000158546
31 *1401:CLK *391:8 0.000266835
32 *1446:A *302:30 5.71472e-05
33 *293:8 *1491:A 0.000567277
34 *293:42 *302:30 0
35 *293:56 *302:30 0
36 *293:67 *1275:A 7.50601e-05
37 *293:67 *1285:A 9.36066e-05
38 *293:67 *373:10 2.34204e-05
39 *293:73 *1285:A 0.000167588
40 *293:73 *321:34 1.37292e-05
41 *293:79 *1270:A 5.14879e-05
42 *293:79 *1270:B 0.000265447
43 *293:79 *1508:A 8.95278e-05
44 *293:79 *330:8 9.3562e-05
45 *293:118 *1214:A 0.000881789
46 *293:126 *301:10 0
47 *293:126 *306:14 4.29086e-05
48 *293:126 *307:10 8.90199e-05
49 *293:134 *306:14 9.04793e-05
50 *293:134 *318:22 5.92264e-05
51 *293:134 *319:10 1.40306e-05
52 *293:134 *371:14 3.69697e-05
53 *293:138 *1198:C 0
54 *293:138 *306:14 7.4826e-05
55 *1199:C *293:67 8.15095e-05
56 *1201:B *293:67 0.00029513
57 *1202:A1 *1401:CLK 0
58 *1202:A1 *1446:A 0
59 *1202:A4 *1446:A 4.46186e-06
60 *1214:C *1401:CLK 5.33005e-05
61 *1215:A1 *293:42 0
62 *1215:A1 *293:56 0
63 *1215:A2 *293:118 0.000320024
64 *1215:B1 *293:118 0.000230475
65 *1220:A_N *1401:CLK 1.95756e-05
66 *1227:A3 *1401:CLK 0.00019384
67 *1227:A3 *1446:A 0.000146474
68 *1270:C *293:79 0.000137427
69 *1274:B1 *293:67 0
70 *1279:A2 *293:134 5.26184e-05
71 *1280:B1_N *293:138 0
72 *1281:A2 *293:73 0
73 *1281:B1 *1399:CLK 0.000198698
74 *1281:B1 *293:138 0.000125731
75 *1283:B1 *1399:CLK 2.27416e-05
76 *1283:C1 *1399:CLK 0
77 *1376:B *1401:CLK 8.40055e-06
78 *1382:D *293:118 0.000146053
79 *1382:D *293:126 0.000127067
80 *1392:D *293:79 1.64343e-05
81 *1393:D *293:73 7.92879e-05
82 *1394:D *293:73 0
83 *1394:D *293:79 1.64343e-05
84 *1395:D *293:56 1.64343e-05
85 *1395:D *293:67 0
86 *1397:D *293:134 4.78056e-05
87 *1397:D *293:138 3.51442e-05
88 *1400:D *293:73 5.10822e-05
89 *1401:D *1401:CLK 1.64343e-05
90 *1442:A *1401:CLK 0.000100823
91 *1449:A *293:134 0
92 *1449:A *293:138 0
93 *162:10 *1446:A 2.89016e-05
94 *170:29 *1401:CLK 5.4754e-05
95 *171:18 *1401:CLK 0.000752928
96 *172:21 *1401:CLK 1.38323e-05
97 *193:10 *293:126 0.000132442
98 *193:18 *293:126 0
99 *193:18 *293:134 0
100 *193:24 *293:134 0
101 *198:22 *293:56 3.31964e-05
102 *198:22 *293:67 0.000230475
103 *198:35 *293:67 2.6949e-05
104 *199:14 *293:67 0
105 *200:10 *293:73 0
106 *200:25 *293:73 0
107 *201:14 *1399:CLK 0
*RES
1 *1442:X *293:4 9.3 
2 *293:4 *293:8 9.96429 
3 *293:8 *1446:A 16.2821 
4 *293:8 *1401:CLK 31.1393 
5 *293:4 *293:42 6.14286 
6 *293:42 *293:56 14.1786 
7 *293:56 *1395:CLK 9.3 
8 *293:56 *293:67 16.5179 
9 *293:67 *293:73 14.5714 
10 *293:73 *293:75 2.17857 
11 *293:75 *293:79 18.625 
12 *293:79 *1387:CLK 12.3 
13 *293:79 *1392:CLK 9.3 
14 *293:75 *1394:CLK 9.72857 
15 *293:73 *1400:CLK 9.72857 
16 *293:67 *1393:CLK 14.3357 
17 *293:42 *293:118 13.6607 
18 *293:118 *293:126 13.0179 
19 *293:126 *293:134 10.1429 
20 *293:134 *293:138 11.9107 
21 *293:138 *1399:CLK 21.7464 
22 *293:138 *1398:CLK 14.3357 
23 *293:134 *1397:CLK 9.3 
24 *293:126 *1396:CLK 13.8 
25 *293:118 *1382:CLK 9.3 
*END

*D_NET *294 0.0206026
*CONN
*I *1403:CLK I *D sky130_fd_sc_hd__dfxtp_1
*I *1426:CLK I *D sky130_fd_sc_hd__dfxtp_1
*I *1408:CLK I *D sky130_fd_sc_hd__dfxtp_1
*I *1425:CLK I *D sky130_fd_sc_hd__dfxtp_1
*I *1381:CLK I *D sky130_fd_sc_hd__dfxtp_1
*I *1407:CLK I *D sky130_fd_sc_hd__dfxtp_1
*I *1431:CLK I *D sky130_fd_sc_hd__dfxtp_2
*I *1405:CLK I *D sky130_fd_sc_hd__dfxtp_1
*I *1404:CLK I *D sky130_fd_sc_hd__dfxtp_1
*I *1432:CLK I *D sky130_fd_sc_hd__dfxtp_2
*I *1406:CLK I *D sky130_fd_sc_hd__dfxtp_1
*I *1384:CLK I *D sky130_fd_sc_hd__dfxtp_1
*I *1402:CLK I *D sky130_fd_sc_hd__dfxtp_1
*I *1383:CLK I *D sky130_fd_sc_hd__dfxtp_1
*I *1443:X O *D sky130_fd_sc_hd__clkbuf_16
*CAP
1 *1403:CLK 0.000498935
2 *1426:CLK 2.23854e-05
3 *1408:CLK 0.000351269
4 *1425:CLK 3.31587e-05
5 *1381:CLK 0
6 *1407:CLK 0.000127032
7 *1431:CLK 0.000592569
8 *1405:CLK 0.000453202
9 *1404:CLK 4.10761e-05
10 *1432:CLK 0
11 *1406:CLK 0.000131789
12 *1384:CLK 0.000238476
13 *1402:CLK 0.000314282
14 *1383:CLK 0.000720213
15 *1443:X 1.99379e-05
16 *294:142 0.000870498
17 *294:138 0.000986033
18 *294:129 0.00079928
19 *294:125 0.00102673
20 *294:112 0.000435475
21 *294:99 0.000770649
22 *294:84 0.00079912
23 *294:73 0.000629387
24 *294:35 0.000800444
25 *294:33 0.000735676
26 *294:29 0.000999088
27 *294:23 0.00108419
28 *294:8 0.000863337
29 *1383:CLK *1163:A 0.00014285
30 *1383:CLK *1217:C 4.58194e-05
31 *1383:CLK *1374:A1 4.57445e-05
32 *1383:CLK *1380:B1 0
33 *1383:CLK *314:12 0.00048746
34 *1403:CLK *303:8 2.09869e-05
35 *1405:CLK *1210:A 2.44318e-05
36 *1405:CLK *1237:B 3.57366e-05
37 *1405:CLK *305:6 0.00037295
38 *1405:CLK *305:84 3.37536e-05
39 *1405:CLK *305:101 0.000402784
40 *1405:CLK *375:14 0.000416836
41 *1405:CLK *375:20 0.000118604
42 *1406:CLK *302:104 0
43 *1408:CLK *1433:A 0
44 *1408:CLK *1519:A 5.26184e-05
45 *1408:CLK *1541:A 0
46 *1408:CLK *302:104 0.00037224
47 *1408:CLK *335:43 0
48 *1431:CLK *1431:D 3.32132e-06
49 *1431:CLK *375:20 0.000228558
50 *294:8 *1380:B1 5.33334e-05
51 *294:23 *1380:B1 4.03318e-05
52 *294:23 *310:36 0
53 *294:23 *375:26 0
54 *294:29 *1234:A1 5.19842e-06
55 *294:29 *310:21 2.72859e-05
56 *294:33 *302:74 0.000305513
57 *294:35 *309:10 0
58 *294:73 *1234:A1 0.000180461
59 *294:73 *1380:B1 0.000173606
60 *294:73 *305:14 0
61 *294:73 *375:26 0
62 *294:84 *1161:A 0
63 *294:84 *305:14 0
64 *294:84 *375:20 0
65 *294:84 *375:26 0
66 *294:99 *1161:A 0
67 *294:99 *375:20 0
68 *294:112 *1161:A 0
69 *294:125 *1161:A 0
70 *294:125 *366:14 0
71 *294:129 *366:8 1.35046e-05
72 *294:138 *366:8 5.71472e-05
73 *294:142 *1185:A 0
74 *294:142 *1185:D_N 5.7661e-06
75 *1218:A2 *1383:CLK 6.4443e-05
76 *1218:A3 *1383:CLK 0.000103804
77 *1218:B2 *1383:CLK 4.71964e-05
78 *1219:B *1383:CLK 6.99706e-05
79 *1234:A2 *1404:CLK 0.000102207
80 *1237:A *1407:CLK 4.87854e-05
81 *1238:B *1404:CLK 7.15962e-05
82 *1375:A1 *1383:CLK 0
83 *1375:B1 *1383:CLK 0.000745478
84 *1381:D *294:125 0.000142307
85 *1381:D *294:129 5.05572e-05
86 *1383:D *1383:CLK 4.8224e-05
87 *1384:D *1384:CLK 0.000322387
88 *1406:D *1406:CLK 3.79467e-05
89 *1408:D *1408:CLK 6.05161e-06
90 *1425:D *294:142 0.000231818
91 *1426:D *294:138 1.64343e-05
92 *1432:D *294:29 5.18845e-05
93 *1443:A *1402:CLK 0.000154455
94 *1443:A *294:35 4.57538e-05
95 *135:10 *1406:CLK 0
96 *135:10 *294:35 0
97 *135:21 *1406:CLK 0
98 *145:10 *294:8 9.90367e-05
99 *147:16 *1383:CLK 0.00012838
100 *147:16 *294:23 2.8266e-06
*RES
1 *1443:X *294:8 14.7464 
2 *294:8 *1383:CLK 33.175 
3 *294:8 *294:23 2.25 
4 *294:23 *294:29 12.3393 
5 *294:29 *294:33 11.6071 
6 *294:33 *294:35 4.375 
7 *294:35 *1402:CLK 20.4429 
8 *294:35 *1384:CLK 18.4607 
9 *294:33 *1406:CLK 16.3536 
10 *294:29 *1432:CLK 9.3 
11 *294:23 *294:73 8.01786 
12 *294:73 *1404:CLK 15.5679 
13 *294:73 *294:84 4.67857 
14 *294:84 *1405:CLK 26.6929 
15 *294:84 *294:99 1.33929 
16 *294:99 *1431:CLK 21.2286 
17 *294:99 *294:112 1.64286 
18 *294:112 *1407:CLK 15.9786 
19 *294:112 *294:125 8.875 
20 *294:125 *294:129 4.14286 
21 *294:129 *1381:CLK 9.3 
22 *294:129 *294:138 7.42857 
23 *294:138 *294:142 7.94643 
24 *294:142 *1425:CLK 9.83571 
25 *294:142 *1408:CLK 26.2464 
26 *294:138 *1426:CLK 9.72857 
27 *294:125 *1403:CLK 15.4964 
*END

*D_NET *295 0.00127102
*CONN
*I *1225:C I *D sky130_fd_sc_hd__or4_1
*I *1203:B I *D sky130_fd_sc_hd__or3_1
*I *1466:X O *D sky130_fd_sc_hd__clkbuf_1
*CAP
1 *1225:C 4.31021e-05
2 *1203:B 0.000310301
3 *1466:X 0.000117353
4 *295:6 0.000470756
5 *1203:B *1226:A 0
6 *1203:B *339:14 0.000109918
7 *1203:B *392:28 6.74911e-05
8 *1225:C *1226:A 0.000125731
9 *295:6 *1491:A 8.25843e-06
10 *295:6 *339:14 1.39726e-05
11 *1226:D *1203:B 4.1331e-06
12 *193:10 *1203:B 0
*RES
1 *1466:X *295:6 10.6571 
2 *295:6 *1203:B 23.4429 
3 *295:6 *1225:C 19.9429 
*END

*D_NET *296 0.000722298
*CONN
*I *1225:D I *D sky130_fd_sc_hd__or4_1
*I *1203:C I *D sky130_fd_sc_hd__or3_1
*I *1467:X O *D sky130_fd_sc_hd__clkbuf_1
*CAP
1 *1225:D 0
2 *1203:C 0.000201826
3 *1467:X 5.90683e-05
4 *296:8 0.000260895
5 *1203:C *1225:A 7.16452e-05
6 *1203:C *1225:B 8.25165e-05
7 *1203:C *372:34 2.89114e-05
8 *296:8 *1225:A 1.74352e-05
*RES
1 *1467:X *296:8 10.2643 
2 *296:8 *1203:C 13.1393 
3 *296:8 *1225:D 9.3 
*END

*D_NET *297 0.00844887
*CONN
*I *1293:B I *D sky130_fd_sc_hd__nor2_1
*I *1292:B I *D sky130_fd_sc_hd__nor2_1
*I *1380:B1 I *D sky130_fd_sc_hd__a21oi_1
*I *1451:A I *D sky130_fd_sc_hd__buf_2
*I *1468:X O *D sky130_fd_sc_hd__buf_1
*CAP
1 *1293:B 0
2 *1292:B 0
3 *1380:B1 0.000679969
4 *1451:A 0.000436161
5 *1468:X 0
6 *297:31 0.00162491
7 *297:21 0.0017108
8 *297:4 0.00120202
9 *1380:B1 *305:14 0
10 *1380:B1 *309:38 0.000103004
11 *1380:B1 *375:26 0.000184745
12 *297:21 *1230:B 0
13 *297:21 *1484:A 0
14 *297:21 *1485:A 0
15 *297:21 *1538:A 4.1331e-06
16 *297:21 *395:12 0.000115474
17 *297:31 *1485:A 0
18 *297:31 *1490:A 1.24368e-05
19 *297:31 *1538:A 5.80217e-05
20 *297:31 *309:38 1.90111e-05
21 *297:31 *364:10 0
22 *297:31 *395:12 1.02504e-05
23 global_state_bits[3] *297:21 0
24 global_state_bits[4] *297:21 1.21859e-05
25 *1178:C_N *1380:B1 0.000247778
26 *1231:B1 *297:21 0
27 *1236:C1 *297:31 5.71472e-05
28 *1238:A *297:31 0
29 *1292:A *297:31 0.000312682
30 *1380:A2 *1380:B1 1.33343e-05
31 *1383:CLK *1380:B1 0
32 *1405:D *297:21 0.000100823
33 *1432:D *1380:B1 9.67416e-05
34 *1468:A *1451:A 5.71472e-05
35 *134:14 *297:31 0.00041555
36 *145:10 *1380:B1 7.47367e-05
37 *145:27 *1380:B1 9.71197e-05
38 *147:16 *1380:B1 6.05161e-06
39 *152:8 *1380:B1 0.000529363
40 *193:10 *297:31 0
41 *294:8 *1380:B1 5.33334e-05
42 *294:23 *1380:B1 4.03318e-05
43 *294:73 *1380:B1 0.000173606
*RES
1 *1468:X *297:4 9.3 
2 *297:4 *1451:A 16.4429 
3 *297:4 *297:21 17.625 
4 *297:21 *297:31 21.7679 
5 *297:31 *1380:B1 45.8536 
6 *297:31 *1292:B 9.3 
7 *297:21 *1293:B 13.8 
*END

*D_NET *298 0.00054464
*CONN
*I *1225:A I *D sky130_fd_sc_hd__or4_1
*I *1469:X O *D sky130_fd_sc_hd__clkbuf_1
*CAP
1 *1225:A 0.000166052
2 *1469:X 0.000166052
3 *1225:A *1225:B 1.7859e-05
4 *1225:A *1226:A 6.75007e-05
5 *1203:C *1225:A 7.16452e-05
6 *1467:A *1225:A 3.80952e-05
7 *296:8 *1225:A 1.74352e-05
*RES
1 *1469:X *1225:A 31.4393 
*END

*D_NET *299 0.00103883
*CONN
*I *1367:A2 I *D sky130_fd_sc_hd__o21a_1
*I *1470:X O *D sky130_fd_sc_hd__clkbuf_1
*CAP
1 *1367:A2 0.000402296
2 *1470:X 0.000402296
3 *1367:A2 *1433:A 0
4 *1367:A2 *367:12 0
5 *1367:A2 *367:20 0
6 *1426:D *1367:A2 5.5782e-05
7 *135:72 *1367:A2 0.000178459
*RES
1 *1470:X *1367:A2 34.0643 
*END

*D_NET *300 0.00424959
*CONN
*I *1311:A I *D sky130_fd_sc_hd__nand2_1
*I *1312:A1 I *D sky130_fd_sc_hd__a2111o_1
*I *1471:X O *D sky130_fd_sc_hd__buf_1
*CAP
1 *1311:A 0.000187263
2 *1312:A1 0
3 *1471:X 0.00145686
4 *300:10 0.00164412
5 *1311:A *1312:A2 0.000117431
6 *1311:A *302:78 2.53134e-05
7 *300:10 *1345:A 0.000140933
8 *300:10 *1347:B1 5.91452e-05
9 *1312:B1 *300:10 6.28253e-05
10 *1312:D1 *300:10 9.71197e-05
11 *1313:A3 *300:10 4.87953e-05
12 *1347:A2 *300:10 3.08664e-05
13 *238:12 *300:10 5.03772e-05
14 *239:12 *300:10 0.000126138
15 *258:41 *300:10 0.000202402
*RES
1 *1471:X *300:10 29.9964 
2 *300:10 *1312:A1 9.3 
3 *300:10 *1311:A 13.0679 
*END

*D_NET *301 0.00689049
*CONN
*I *1221:A2 I *D sky130_fd_sc_hd__o32a_1
*I *1217:C I *D sky130_fd_sc_hd__or3_1
*I *1374:B1_N I *D sky130_fd_sc_hd__o21bai_1
*I *1204:B1 I *D sky130_fd_sc_hd__a21o_1
*I *1472:X O *D sky130_fd_sc_hd__buf_1
*CAP
1 *1221:A2 2.70514e-05
2 *1217:C 0.000104046
3 *1374:B1_N 0.000793528
4 *1204:B1 0
5 *1472:X 0.00092668
6 *301:33 0.000985122
7 *301:27 0.000463958
8 *301:10 0.00127604
9 *1374:B1_N *1374:A2 0.000321942
10 *1374:B1_N *1379:D 2.04825e-05
11 *1374:B1_N *302:22 1.90936e-05
12 *301:10 *1214:A 4.75521e-05
13 *301:10 *1221:B2 1.52978e-05
14 *301:10 *307:10 7.73758e-05
15 *301:27 *1221:B2 0.000497923
16 *301:27 *307:10 5.80706e-06
17 *301:27 *307:23 0.000131003
18 *301:33 *306:48 9.69119e-06
19 *301:33 *306:52 5.52302e-05
20 *301:33 *311:25 9.90367e-05
21 *1215:B1 *301:33 9.25014e-06
22 *1218:A3 *1217:C 0
23 *1219:A *1217:C 0.000102329
24 *1219:A *301:33 0.00011094
25 *1219:B *1217:C 0.000107865
26 *1221:A3 *1217:C 5.36308e-05
27 *1221:A3 *301:27 2.89016e-05
28 *1221:A3 *301:33 2.75717e-05
29 *1228:A2 *1374:B1_N 0.000298655
30 *1383:CLK *1217:C 4.58194e-05
31 *133:10 *301:27 1.65169e-05
32 *133:10 *301:33 9.22103e-06
33 *148:10 *301:33 0
34 *148:16 *301:27 0.000150618
35 *154:23 *1374:B1_N 1.40415e-05
36 *193:10 *301:10 0
37 *193:18 *301:10 3.82713e-05
38 *293:126 *301:10 0
*RES
1 *1472:X *301:10 26.1036 
2 *301:10 *1204:B1 13.8 
3 *301:10 *301:27 13.3214 
4 *301:27 *301:33 6.9375 
5 *301:33 *1374:B1_N 23.065 
6 *301:33 *1217:C 16.6661 
7 *301:27 *1221:A2 9.72857 
*END

*D_NET *302 0.0234177
*CONN
*I *1433:A I *D sky130_fd_sc_hd__clkbuf_1
*I *1438:A I *D sky130_fd_sc_hd__clkbuf_1
*I *1311:B I *D sky130_fd_sc_hd__nand2_1
*I *1312:A2 I *D sky130_fd_sc_hd__a2111o_1
*I *1379:B I *D sky130_fd_sc_hd__or4_1
*I *1206:B1 I *D sky130_fd_sc_hd__o21a_1
*I *1202:A2 I *D sky130_fd_sc_hd__a41o_1
*I *1481:A I *D sky130_fd_sc_hd__buf_2
*I *1179:Y O *D sky130_fd_sc_hd__inv_2
*CAP
1 *1433:A 0.000384027
2 *1438:A 0
3 *1311:B 0
4 *1312:A2 0.000102722
5 *1379:B 0
6 *1206:B1 1.1624e-05
7 *1202:A2 0
8 *1481:A 0
9 *1179:Y 5.35274e-05
10 *302:104 0.00111295
11 *302:78 0.000841511
12 *302:74 0.00216109
13 *302:42 0.00252563
14 *302:36 0.00360964
15 *302:30 0.00187512
16 *302:22 0.00126081
17 *302:16 0.00111367
18 *302:8 0.0014025
19 *1433:A *1541:A 0
20 *1433:A *367:12 0
21 *302:8 *309:10 0
22 *302:16 *1379:C 4.56437e-05
23 *302:16 *375:26 0.000226156
24 *302:16 *375:28 0.000105559
25 *302:22 *1227:A2 8.359e-05
26 *302:22 *1374:A1 1.87352e-05
27 *302:22 *1374:A2 2.22043e-05
28 *302:22 *1379:C 0.00020042
29 *302:22 *1379:D 0.000165714
30 *302:22 *372:34 7.63758e-05
31 *302:36 *1223:C1 0
32 *302:36 *1505:A 0
33 *302:36 *329:12 0
34 *302:36 *329:47 7.92879e-05
35 *302:36 *330:19 0
36 *302:36 *330:28 0
37 *302:42 *1241:A 0.000144773
38 *302:42 *1241:D 1.92905e-05
39 *302:42 *1502:A 0.000217141
40 *302:74 *309:10 0
41 *302:104 *1169:C 0.000197991
42 *302:104 *1297:A1 0
43 *302:104 *335:10 0
44 *302:104 *335:43 0
45 *302:104 *337:10 0.000345632
46 *1202:A1 *302:30 7.32955e-05
47 *1202:A3 *302:36 0.000543731
48 *1202:A4 *302:30 0.000315158
49 *1206:A2 *1206:B1 5.52238e-05
50 *1206:A2 *302:30 0
51 *1214:C *302:30 0.000318101
52 *1227:A3 *302:30 0
53 *1251:A *302:42 0.000230482
54 *1264:A2 *302:36 0.000142897
55 *1264:A3 *302:36 8.77591e-05
56 *1265:A_N *302:42 0.000273269
57 *1265:B *302:42 1.28809e-05
58 *1266:A2 *302:42 1.92905e-05
59 *1311:A *1312:A2 0.000117431
60 *1311:A *302:78 2.53134e-05
61 *1367:A2 *1433:A 0
62 *1369:A2 *302:78 3.99958e-05
63 *1371:A1 *302:78 0.000186662
64 *1371:B2 *1312:A2 0
65 *1371:B2 *302:78 9.82585e-06
66 *1373:A *1433:A 0.000359997
67 *1373:A *302:104 5.33005e-05
68 *1374:B1_N *302:22 1.90936e-05
69 *1375:A1 *302:16 0.000125724
70 *1375:A1 *302:22 0.000284743
71 *1376:A *1206:B1 5.52238e-05
72 *1377:A1 *302:22 0.000147834
73 *1378:A3 *302:74 0
74 *1406:CLK *302:104 0
75 *1406:D *302:74 5.71472e-05
76 *1408:CLK *1433:A 0
77 *1408:CLK *302:104 0.00037224
78 *1408:D *302:104 5.56943e-05
79 *1425:D *1433:A 0.000153047
80 *1432:D *302:16 0
81 *1443:A *302:16 5.52302e-05
82 *1446:A *302:30 5.71472e-05
83 *1470:A *1433:A 0
84 *135:101 *302:8 3.92757e-05
85 *135:101 *302:74 6.19181e-05
86 *145:10 *302:16 6.73939e-05
87 *153:10 *302:74 7.73277e-05
88 *156:10 *302:36 1.9643e-05
89 *162:10 *302:30 3.45599e-05
90 *162:21 *302:22 0
91 *162:21 *302:30 0
92 *196:12 *302:42 2.89114e-05
93 *196:43 *302:36 0
94 *196:45 *302:36 0
95 *244:6 *1312:A2 5.71472e-05
96 *244:6 *302:78 6.09804e-05
97 *244:19 *302:78 1.39841e-05
98 *293:42 *302:30 0
99 *293:56 *302:30 0
100 *294:33 *302:74 0.000305513
*RES
1 *1179:Y *302:8 14.8357 
2 *302:8 *302:16 18.25 
3 *302:16 *302:22 12.3214 
4 *302:22 *302:30 18.9643 
5 *302:30 *302:36 32.5 
6 *302:36 *302:42 44.2143 
7 *302:42 *1481:A 9.3 
8 *302:30 *1202:A2 9.3 
9 *302:22 *1206:B1 14.3357 
10 *302:16 *1379:B 13.8 
11 *302:8 *302:74 17.4286 
12 *302:74 *302:78 12.0536 
13 *302:78 *1312:A2 12.1795 
14 *302:78 *1311:B 9.3 
15 *302:74 *302:104 26.0536 
16 *302:104 *1438:A 9.3 
17 *302:104 *1433:A 26.6929 
*END

*D_NET *303 0.000992405
*CONN
*I *1482:A I *D sky130_fd_sc_hd__buf_2
*I *1458:A I *D sky130_fd_sc_hd__dlygate4sd3_1
*I *1381:Q O *D sky130_fd_sc_hd__dfxtp_1
*CAP
1 *1482:A 9.78013e-05
2 *1458:A 0.000241887
3 *1381:Q 0.00014602
4 *303:8 0.000485709
5 *1458:A *375:8 0
6 *1482:A *375:8 0
7 *1403:CLK *303:8 2.09869e-05
8 *1403:D *1458:A 0
*RES
1 *1381:Q *303:8 15.5679 
2 *303:8 *1458:A 17.9071 
3 *303:8 *1482:A 15.4429 
*END

*D_NET *304 0.000144023
*CONN
*I *1483:A I *D sky130_fd_sc_hd__buf_2
*I *1433:X O *D sky130_fd_sc_hd__clkbuf_1
*CAP
1 *1483:A 6.06406e-05
2 *1433:X 6.06406e-05
3 global_state_authorized *1483:A 2.27416e-05
*RES
1 *1433:X *1483:A 19.8679 
*END

*D_NET *305 0.012929
*CONN
*I *1484:A I *D sky130_fd_sc_hd__buf_2
*I *1230:A I *D sky130_fd_sc_hd__xor2_1
*I *1455:A I *D sky130_fd_sc_hd__dlygate4sd3_1
*I *1173:A I *D sky130_fd_sc_hd__nor2_1
*I *1181:A I *D sky130_fd_sc_hd__or3_2
*I *1183:C_N I *D sky130_fd_sc_hd__or3b_2
*I *1175:A I *D sky130_fd_sc_hd__or4b_2
*I *1374:A1 I *D sky130_fd_sc_hd__o21bai_1
*I *1177:A I *D sky130_fd_sc_hd__nor3_1
*I *1431:Q O *D sky130_fd_sc_hd__dfxtp_2
*CAP
1 *1484:A 0.000563719
2 *1230:A 0
3 *1455:A 0
4 *1173:A 2.03824e-05
5 *1181:A 0
6 *1183:C_N 6.18571e-05
7 *1175:A 0
8 *1374:A1 0.000736922
9 *1177:A 0
10 *1431:Q 0.00030004
11 *305:101 0.00116034
12 *305:84 0.000662608
13 *305:57 0.00019952
14 *305:49 0.000385283
15 *305:27 0.00100827
16 *305:21 0.000569651
17 *305:14 0.000695356
18 *305:6 0.000990317
19 *1173:A *1173:B 5.48668e-06
20 *1183:C_N *1489:A 2.72449e-05
21 *1374:A1 *1175:D_N 0.000100625
22 *1374:A1 *1374:A2 4.6025e-06
23 *1374:A1 *314:16 4.88546e-05
24 *305:6 *375:20 1.15172e-05
25 *305:14 *1488:A 0
26 *305:14 *310:30 5.83233e-05
27 *305:14 *310:73 9.31209e-05
28 *305:21 *1177:B 0.000227532
29 *305:21 *1177:C 0.00018372
30 *305:21 *310:73 7.43578e-06
31 *305:27 *1163:A 0.000302834
32 *305:27 *309:42 0
33 *305:49 *1173:B 0.00018162
34 *305:49 *1177:B 0.000259934
35 *305:49 *1177:C 0.000357054
36 *305:57 *1173:B 1.58163e-06
37 *305:57 *314:44 0
38 *305:101 *1165:A 0.000150625
39 *305:101 *1210:A 0.000295137
40 *305:101 *1210:B 5.52302e-05
41 *305:101 *1485:A 0
42 *305:101 *1487:A 0
43 *305:101 *375:14 1.08359e-05
44 global_state_bits[0] *1484:A 3.454e-05
45 global_state_bits[1] *1484:A 6.27457e-05
46 *1181:B *305:57 0.000104974
47 *1181:C *1183:C_N 6.03126e-05
48 *1181:C *305:57 1.02504e-05
49 *1187:B *305:14 2.89016e-05
50 *1189:A *305:57 7.15687e-05
51 *1191:A2 *305:27 9.0573e-05
52 *1191:B1 *1183:C_N 9.91086e-05
53 *1191:B2 *1183:C_N 0
54 *1218:B1 *1374:A1 0
55 *1218:B2 *1374:A1 0
56 *1375:A1 *1374:A1 0.000154762
57 *1377:A1 *1374:A1 6.93907e-05
58 *1380:B1 *305:14 0
59 *1383:CLK *1374:A1 4.57445e-05
60 *1404:D *305:14 0.000100823
61 *1405:CLK *305:6 0.00037295
62 *1405:CLK *305:84 3.37536e-05
63 *1405:CLK *305:101 0.000402784
64 *133:45 *305:14 0.000236284
65 *133:62 *305:14 0.000141132
66 *136:10 *305:101 0.000126639
67 *143:10 *1374:A1 5.33005e-05
68 *144:6 *305:21 4.69993e-05
69 *146:17 *1183:C_N 0.000114485
70 *147:29 *1374:A1 0.000269428
71 *148:10 *305:27 0.000271958
72 *174:10 *1374:A1 0.000169325
73 *193:10 *305:57 0
74 *294:73 *305:14 0
75 *294:84 *305:14 0
76 *297:21 *1484:A 0
77 *302:22 *1374:A1 1.87352e-05
*RES
1 *1431:Q *305:6 13.5321 
2 *305:6 *305:14 22.4286 
3 *305:14 *1177:A 9.3 
4 *305:14 *305:21 3 
5 *305:21 *305:27 16.4107 
6 *305:27 *1374:A1 32.9786 
7 *305:27 *1175:A 9.3 
8 *305:21 *305:49 6.64286 
9 *305:49 *305:57 7.35714 
10 *305:57 *1183:C_N 16.05 
11 *305:57 *1181:A 13.8 
12 *305:49 *1173:A 9.72857 
13 *305:6 *305:84 1.26786 
14 *305:84 *1455:A 9.3 
15 *305:84 *305:101 22.5714 
16 *305:101 *1230:A 9.3 
17 *305:101 *1484:A 28.3357 
*END

*D_NET *306 0.0100883
*CONN
*I *1221:A1 I *D sky130_fd_sc_hd__o32a_1
*I *1217:B I *D sky130_fd_sc_hd__or3_1
*I *1374:A2 I *D sky130_fd_sc_hd__o21bai_1
*I *1214:A I *D sky130_fd_sc_hd__or3_1
*I *1166:A I *D sky130_fd_sc_hd__inv_2
*I *1473:X O *D sky130_fd_sc_hd__clkbuf_2
*CAP
1 *1221:A1 0
2 *1217:B 9.58021e-05
3 *1374:A2 0.000467841
4 *1214:A 0.000583273
5 *1166:A 0
6 *1473:X 0.000989805
7 *306:52 0.000623173
8 *306:48 0.000347902
9 *306:29 0.000998221
10 *306:14 0.00111638
11 *1214:A *1207:A2 1.02504e-05
12 *1214:A *1221:B2 3.17148e-05
13 *1217:B *1207:B2 3.42121e-05
14 *1374:A2 *1207:B2 7.69776e-06
15 *306:14 *339:10 0
16 *306:14 *339:14 0.000183713
17 *306:14 *392:28 9.02133e-05
18 *306:29 *1207:A1 5.33005e-05
19 *306:29 *339:14 0.000153442
20 *306:29 *392:28 0.000326614
21 *306:48 *1207:A2 0.000422111
22 *306:48 *1221:B2 0.000547128
23 *306:48 *311:25 7.6644e-05
24 *306:52 *311:25 1.5424e-05
25 *1215:B1 *1214:A 0
26 *1218:B1 *1217:B 0
27 *1228:A2 *1374:A2 0.00021471
28 *1228:A2 *306:52 0.000137983
29 *1374:A1 *1374:A2 4.6025e-06
30 *1374:B1_N *1374:A2 0.000321942
31 *1397:D *306:14 0.000148903
32 *133:10 *1217:B 7.72966e-05
33 *133:10 *306:52 2.77258e-05
34 *137:6 *306:29 9.90431e-05
35 *154:23 *306:52 0.0001399
36 *164:6 *306:29 5.33005e-05
37 *174:10 *1374:A2 2.95746e-06
38 *193:10 *306:14 0.000460391
39 *293:118 *1214:A 0.000881789
40 *293:126 *306:14 4.29086e-05
41 *293:134 *306:14 9.04793e-05
42 *293:138 *306:14 7.4826e-05
43 *301:10 *1214:A 4.75521e-05
44 *301:33 *306:48 9.69119e-06
45 *301:33 *306:52 5.52302e-05
46 *302:22 *1374:A2 2.22043e-05
*RES
1 *1473:X *306:14 39.1036 
2 *306:14 *1166:A 9.3 
3 *306:14 *306:29 9.30357 
4 *306:29 *1214:A 25.6393 
5 *306:29 *306:48 12.5536 
6 *306:48 *306:52 6.67857 
7 *306:52 *1374:A2 22.3736 
8 *306:52 *1217:B 15.7464 
9 *306:48 *1221:A1 9.3 
*END

*D_NET *307 0.0111298
*CONN
*I *1485:A I *D sky130_fd_sc_hd__buf_2
*I *1173:B I *D sky130_fd_sc_hd__nor2_1
*I *1177:C I *D sky130_fd_sc_hd__nor3_1
*I *1183:A I *D sky130_fd_sc_hd__or3b_2
*I *1175:B I *D sky130_fd_sc_hd__or4b_2
*I *1464:A I *D sky130_fd_sc_hd__dlygate4sd3_1
*I *1204:A1 I *D sky130_fd_sc_hd__a21o_1
*I *1382:Q O *D sky130_fd_sc_hd__dfxtp_2
*CAP
1 *1485:A 0.00115769
2 *1173:B 0.000260711
3 *1177:C 0.000231471
4 *1183:A 4.40243e-05
5 *1175:B 0.000210666
6 *1464:A 0
7 *1204:A1 0
8 *1382:Q 0.000513025
9 *307:58 0.000492182
10 *307:56 0.0013783
11 *307:45 0.000339999
12 *307:34 0.000439861
13 *307:23 0.000595546
14 *307:10 0.000954737
15 *1175:B *314:16 0.000313241
16 *1183:A *1190:B1 0.000180777
17 *1485:A *1230:B 0.000143963
18 *1485:A *1487:A 0.000431785
19 *1485:A *309:40 0.000147336
20 *307:23 *314:12 0.000186669
21 *307:34 *1175:D_N 2.61337e-05
22 *307:34 *314:12 0.000276394
23 *307:45 *1175:D_N 7.06079e-05
24 *307:45 *309:42 5.80706e-06
25 *307:56 *309:40 3.92854e-05
26 *307:56 *309:42 0.000165761
27 *1173:A *1173:B 5.48668e-06
28 *1180:B *1183:A 0.000137983
29 *1231:B1 *1485:A 0
30 *1236:A1 *1485:A 0.000116481
31 *1238:A *1485:A 0
32 *1376:A *307:10 1.02504e-05
33 *1376:A *307:23 0.000148189
34 *1383:D *307:23 0.000186669
35 *1383:D *307:34 4.38128e-05
36 *134:10 *1485:A 0.00027338
37 *144:6 *1177:C 7.43578e-06
38 *148:8 *1183:A 2.28598e-05
39 *148:10 *307:23 0.000105582
40 *148:10 *307:34 0
41 *148:16 *307:23 9.24395e-05
42 *193:10 *1485:A 4.66203e-05
43 *193:10 *307:10 0
44 *193:10 *307:23 0
45 *193:10 *307:34 2.16719e-05
46 *193:10 *307:45 6.94775e-05
47 *193:10 *307:56 0.000208303
48 *293:126 *307:10 8.90199e-05
49 *297:21 *1485:A 0
50 *297:31 *1485:A 0
51 *301:10 *307:10 7.73758e-05
52 *301:27 *307:10 5.80706e-06
53 *301:27 *307:23 0.000131003
54 *305:21 *1177:C 0.00018372
55 *305:49 *1173:B 0.00018162
56 *305:49 *1177:C 0.000357054
57 *305:57 *1173:B 1.58163e-06
58 *305:101 *1485:A 0
*RES
1 *1382:Q *307:10 20.8 
2 *307:10 *1204:A1 13.8 
3 *307:10 *307:23 15.8036 
4 *307:23 *1464:A 9.3 
5 *307:23 *307:34 8.5 
6 *307:34 *1175:B 16.8 
7 *307:34 *307:45 1.94643 
8 *307:45 *1183:A 15.5679 
9 *307:45 *307:56 5.28571 
10 *307:56 *307:58 4.5 
11 *307:58 *1177:C 14.7821 
12 *307:58 *1173:B 13.9607 
13 *307:56 *1485:A 38.925 
*END

*D_NET *308 0.00183976
*CONN
*I *1190:A2 I *D sky130_fd_sc_hd__a21o_1
*I *1486:A I *D sky130_fd_sc_hd__buf_2
*I *1174:B I *D sky130_fd_sc_hd__or2_1
*I *1454:A I *D sky130_fd_sc_hd__dlygate4sd3_1
*I *1383:Q O *D sky130_fd_sc_hd__dfxtp_1
*CAP
1 *1190:A2 0.000156085
2 *1486:A 0
3 *1174:B 0.000147362
4 *1454:A 0.0001011
5 *1383:Q 9.05099e-05
6 *308:25 0.000178267
7 *308:21 0.000364562
8 *308:8 0.000369181
9 *1174:B *314:44 0.000104611
10 *1190:A2 *1489:A 0
11 *1190:A2 *314:44 0.000176234
12 *1454:A *1489:A 0
13 *308:21 *1489:A 0
14 *308:25 *314:44 7.43578e-06
15 global_state_bits[2] *1190:A2 2.26973e-05
16 *1469:A *1454:A 6.5185e-05
17 *1469:A *308:21 2.46649e-05
18 *1475:A *1454:A 3.18676e-05
*RES
1 *1383:Q *308:8 14.7464 
2 *308:8 *1454:A 15.9786 
3 *308:8 *308:21 3.16071 
4 *308:21 *308:25 5.03571 
5 *308:25 *1174:B 12.3179 
6 *308:25 *1486:A 9.3 
7 *308:21 *1190:A2 17.1929 
*END

*D_NET *309 0.0127398
*CONN
*I *1232:A I *D sky130_fd_sc_hd__nand2_1
*I *1487:A I *D sky130_fd_sc_hd__buf_2
*I *1177:B I *D sky130_fd_sc_hd__nor3_1
*I *1180:A I *D sky130_fd_sc_hd__or2_1
*I *1190:B1 I *D sky130_fd_sc_hd__a21o_1
*I *1175:D_N I *D sky130_fd_sc_hd__or4b_2
*I *1233:A I *D sky130_fd_sc_hd__or2_1
*I *1294:A I *D sky130_fd_sc_hd__and2_1
*I *1384:Q O *D sky130_fd_sc_hd__dfxtp_1
*CAP
1 *1232:A 0
2 *1487:A 0.000816554
3 *1177:B 0.00022448
4 *1180:A 0
5 *1190:B1 0.000192348
6 *1175:D_N 0.000273741
7 *1233:A 0
8 *1294:A 0
9 *1384:Q 0.000277138
10 *309:57 0.000192348
11 *309:42 0.000504007
12 *309:40 0.000671724
13 *309:38 0.00207616
14 *309:32 0.00114514
15 *309:23 0.000817961
16 *309:10 0.000992589
17 *1175:D_N *314:16 0.000440705
18 *1190:B1 *1190:A1 0.000304139
19 *1190:B1 *310:36 0.000307349
20 *1487:A *1165:A 0
21 *1487:A *1236:B1 0
22 *1487:A *1488:A 0.000529363
23 *309:23 *1232:B 5.33433e-05
24 *309:32 *1232:B 7.32955e-05
25 *309:38 *1232:B 1.97695e-05
26 *309:38 *1235:B2 9.90431e-05
27 *309:40 *1163:A 0
28 *1175:C *1175:D_N 0.000144773
29 *1180:B *1190:B1 4.43256e-05
30 *1183:A *1190:B1 0.000180777
31 *1191:B1 *1190:B1 3.67142e-05
32 *1234:B1 *309:32 1.24368e-05
33 *1234:B1 *309:38 4.46231e-06
34 *1234:B2 *309:32 0.00010096
35 *1236:C1 *1487:A 0
36 *1292:A *309:38 0.000125248
37 *1374:A1 *1175:D_N 0.000100625
38 *1380:B1 *309:38 0.000103004
39 *1443:A *309:10 3.5707e-05
40 *1485:A *1487:A 0.000431785
41 *1485:A *309:40 0.000147336
42 *134:14 *309:38 0.000107403
43 *135:10 *309:10 7.83366e-05
44 *135:21 *309:10 5.80706e-06
45 *135:21 *309:23 0.000223443
46 *148:8 *1190:B1 3.14078e-05
47 *148:10 *1175:D_N 0
48 *148:10 *309:42 0
49 *153:10 *309:10 0
50 *153:10 *309:23 0
51 *294:35 *309:10 0
52 *297:31 *309:38 1.90111e-05
53 *302:8 *309:10 0
54 *302:74 *309:10 0
55 *305:21 *1177:B 0.000227532
56 *305:27 *309:42 0
57 *305:49 *1177:B 0.000259934
58 *305:101 *1487:A 0
59 *307:34 *1175:D_N 2.61337e-05
60 *307:45 *1175:D_N 7.06079e-05
61 *307:45 *309:42 5.80706e-06
62 *307:56 *309:40 3.92854e-05
63 *307:56 *309:42 0.000165761
*RES
1 *1384:Q *309:10 18.7107 
2 *309:10 *1294:A 13.8 
3 *309:10 *309:23 17.3036 
4 *309:23 *1233:A 9.3 
5 *309:23 *309:32 2.60714 
6 *309:32 *309:38 18.3929 
7 *309:38 *309:40 4.67857 
8 *309:40 *309:42 4.375 
9 *309:42 *1175:D_N 21.0143 
10 *309:42 *309:57 4.5 
11 *309:57 *1190:B1 15.6214 
12 *309:57 *1180:A 9.3 
13 *309:40 *1177:B 18.4429 
14 *309:38 *1487:A 31.3714 
15 *309:32 *1232:A 9.3 
*END

*D_NET *310 0.010402
*CONN
*I *1488:A I *D sky130_fd_sc_hd__buf_2
*I *1459:A I *D sky130_fd_sc_hd__dlygate4sd3_1
*I *1235:B2 I *D sky130_fd_sc_hd__o2bb2a_1
*I *1178:A I *D sky130_fd_sc_hd__or3b_2
*I *1190:A1 I *D sky130_fd_sc_hd__a21o_1
*I *1174:A I *D sky130_fd_sc_hd__or2_1
*I *1187:A I *D sky130_fd_sc_hd__and3_1
*I *1234:A1 I *D sky130_fd_sc_hd__a221o_1
*I *1432:Q O *D sky130_fd_sc_hd__dfxtp_2
*CAP
1 *1488:A 0.000832919
2 *1459:A 0.000127611
3 *1235:B2 1.64323e-05
4 *1178:A 0
5 *1190:A1 0.000157949
6 *1174:A 0.000101848
7 *1187:A 0
8 *1234:A1 0.000221602
9 *1432:Q 0
10 *310:84 0.00112435
11 *310:73 0.00043315
12 *310:36 0.000968282
13 *310:30 0.000828279
14 *310:21 0.000626269
15 *310:4 0.000475182
16 *1174:A *1489:A 0.000171375
17 *1174:A *314:44 2.59355e-05
18 *1234:A1 *375:26 0.000205103
19 *1488:A *1161:A 0
20 *1488:A *375:14 0
21 *310:36 *1379:A 8.02709e-05
22 *310:73 *1163:A 0
23 *310:73 *312:12 0.00012401
24 *1178:C_N *310:21 0.000184745
25 *1178:C_N *310:30 0
26 *1178:C_N *310:36 0
27 *1178:C_N *310:73 0.000108476
28 *1180:B *310:36 3.30237e-05
29 *1190:B1 *1190:A1 0.000304139
30 *1190:B1 *310:36 0.000307349
31 *1234:B1 *1234:A1 0.00010326
32 *1235:B1 *310:84 0.000125724
33 *1237:A *1488:A 0
34 *1292:A *1235:B2 9.90431e-05
35 *1407:D *1488:A 0
36 *1487:A *1488:A 0.000529363
37 *133:23 *310:30 2.10446e-05
38 *133:23 *310:36 8.96143e-05
39 *133:34 *310:30 2.37761e-05
40 *133:45 *310:30 1.5942e-05
41 *133:45 *310:73 0.000103032
42 *133:45 *310:84 9.42015e-05
43 *133:62 *1459:A 9.71197e-05
44 *133:62 *1488:A 1.08359e-05
45 *133:62 *310:84 0.000132442
46 *136:10 *1488:A 0.000125731
47 *136:10 *310:84 0.0002617
48 *142:17 *1174:A 8.68665e-05
49 *144:6 *310:73 0.000111235
50 *146:6 *310:36 0.000180777
51 *146:17 *1190:A1 0.000169359
52 *146:17 *310:36 5.52238e-05
53 *147:16 *310:36 0
54 *148:8 *310:36 3.65178e-05
55 *294:23 *310:36 0
56 *294:29 *1234:A1 5.19842e-06
57 *294:29 *310:21 2.72859e-05
58 *294:73 *1234:A1 0.000180461
59 *305:14 *1488:A 0
60 *305:14 *310:30 5.83233e-05
61 *305:14 *310:73 9.31209e-05
62 *305:21 *310:73 7.43578e-06
63 *309:38 *1235:B2 9.90431e-05
*RES
1 *1432:Q *310:4 9.3 
2 *310:4 *1234:A1 25.0321 
3 *310:4 *310:21 4.66071 
4 *310:21 *1187:A 9.3 
5 *310:21 *310:30 7.35714 
6 *310:30 *310:36 18.0536 
7 *310:36 *1174:A 21.0857 
8 *310:36 *1190:A1 13.5679 
9 *310:30 *1178:A 13.8 
10 *310:21 *310:73 10.75 
11 *310:73 *1235:B2 14.7464 
12 *310:73 *310:84 5.58929 
13 *310:84 *1459:A 15.9786 
14 *310:84 *1488:A 29.175 
*END

*D_NET *311 0.0097461
*CONN
*I *1489:A I *D sky130_fd_sc_hd__buf_2
*I *1379:D I *D sky130_fd_sc_hd__or4_1
*I *1227:A2 I *D sky130_fd_sc_hd__a31o_1
*I *1207:A2 I *D sky130_fd_sc_hd__a221oi_1
*I *1184:Y O *D sky130_fd_sc_hd__inv_2
*CAP
1 *1489:A 0.000883162
2 *1379:D 0.000505864
3 *1227:A2 0.000148828
4 *1207:A2 0.000183814
5 *1184:Y 0
6 *311:25 0.00141241
7 *311:8 0.00148814
8 *311:4 0.00142978
9 *1227:A2 *391:60 3.51531e-05
10 *1379:D *1379:A 3.70314e-05
11 *1379:D *1379:C 0.000209236
12 *1489:A *1226:B 7.6644e-05
13 *1489:A *314:44 0
14 *1174:A *1489:A 0.000171375
15 *1183:C_N *1489:A 2.72449e-05
16 *1189:A *1489:A 0
17 *1189:B *1489:A 2.89114e-05
18 *1190:A2 *1489:A 0
19 *1191:A3 *1489:A 2.13511e-05
20 *1191:B1 *1489:A 0.000129944
21 *1191:B2 *1489:A 3.0285e-05
22 *1194:B *1379:D 0
23 *1214:A *1207:A2 1.02504e-05
24 *1215:B1 *1207:A2 0.000153117
25 *1215:B1 *311:25 2.1527e-05
26 *1218:B1 *1227:A2 0.000185643
27 *1226:C *311:8 1.74352e-05
28 *1227:B1 *1227:A2 5.03772e-05
29 *1227:B1 *311:8 3.47826e-05
30 *1374:B1_N *1379:D 2.04825e-05
31 *1380:A2 *1379:D 6.7667e-05
32 *1432:D *1379:D 4.1331e-06
33 *1454:A *1489:A 0
34 *142:17 *1489:A 2.05938e-05
35 *145:27 *1379:D 2.58821e-05
36 *146:17 *1489:A 2.15363e-05
37 *148:16 *311:8 0.000288586
38 *154:10 *1379:D 0
39 *154:23 *311:25 0.000961599
40 *162:21 *1227:A2 8.59056e-05
41 *162:21 *1379:D 9.48835e-05
42 *193:10 *1489:A 0
43 *301:33 *311:25 9.90367e-05
44 *302:22 *1227:A2 8.359e-05
45 *302:22 *1379:D 0.000165714
46 *306:48 *1207:A2 0.000422111
47 *306:48 *311:25 7.6644e-05
48 *306:52 *311:25 1.5424e-05
49 *308:21 *1489:A 0
*RES
1 *1184:Y *311:4 9.3 
2 *311:4 *311:8 11.6071 
3 *311:8 *1207:A2 19.3893 
4 *311:8 *311:25 20.4286 
5 *311:25 *1227:A2 18.2464 
6 *311:25 *1379:D 24.8357 
7 *311:4 *1489:A 33.1929 
*END

*D_NET *312 0.00291392
*CONN
*I *1188:B I *D sky130_fd_sc_hd__or2_1
*I *1490:A I *D sky130_fd_sc_hd__buf_2
*I *1187:X O *D sky130_fd_sc_hd__and3_1
*CAP
1 *1188:B 0
2 *1490:A 0.000287184
3 *1187:X 0.000604043
4 *312:12 0.000891227
5 *1490:A *364:10 0
6 *312:12 *1163:A 0
7 global_state_escalated *1490:A 0
8 *1181:B *312:12 0.000269422
9 *133:45 *312:12 0.000197269
10 *134:6 *312:12 0.00052833
11 *193:10 *1490:A 0
12 *297:31 *1490:A 1.24368e-05
13 *310:73 *312:12 0.00012401
*RES
1 *1187:X *312:12 31.6571 
2 *312:12 *1490:A 23.2286 
3 *312:12 *1188:B 9.3 
*END

*D_NET *313 0.0104947
*CONN
*I *1379:C I *D sky130_fd_sc_hd__or4_1
*I *1491:A I *D sky130_fd_sc_hd__buf_2
*I *1213:A I *D sky130_fd_sc_hd__nand2_1
*I *1211:A2 I *D sky130_fd_sc_hd__a31o_1
*I *1182:Y O *D sky130_fd_sc_hd__inv_2
*CAP
1 *1379:C 0.000569899
2 *1491:A 0.0010762
3 *1213:A 0.000147569
4 *1211:A2 7.37465e-05
5 *1182:Y 0
6 *313:21 0.00129535
7 *313:10 0.000554667
8 *313:4 0.000979236
9 *1379:C *1379:A 2.59355e-05
10 *1491:A *1207:A1 0.00014183
11 *1491:A *339:10 0.000177941
12 *1491:A *339:14 0.000950182
13 *1491:A *392:28 3.57315e-05
14 *1202:A1 *1213:A 1.52978e-05
15 *1202:A1 *313:10 3.17148e-05
16 *1205:A2 *1491:A 0.00010462
17 *1211:A1 *1211:A2 5.52238e-05
18 *1211:A1 *313:21 5.33005e-05
19 *1214:B *313:10 4.51251e-05
20 *1214:C *1213:A 9.7049e-06
21 *1215:A1 *1491:A 0.000230482
22 *1220:A_N *1213:A 6.0486e-05
23 *1222:A *313:10 0.000136276
24 *1222:B *313:10 7.83587e-05
25 *1222:C_N *1211:A2 2.14757e-05
26 *1228:A1 *313:10 0.000311028
27 *1379:D *1379:C 0.000209236
28 *1401:CLK *1213:A 0.000158546
29 *1432:D *1379:C 0
30 *1442:A *1213:A 0.000123288
31 *135:101 *313:10 0.000384748
32 *135:103 *1213:A 8.359e-05
33 *135:103 *313:10 0.000495671
34 *145:27 *1379:C 1.4487e-05
35 *147:29 *1379:C 0.000325397
36 *163:14 *1491:A 0.000543702
37 *163:14 *313:21 4.43256e-05
38 *164:6 *1491:A 1.21289e-05
39 *170:29 *313:10 4.03318e-05
40 *171:18 *313:10 0
41 *172:21 *1213:A 5.6224e-05
42 *293:8 *1491:A 0.000567277
43 *295:6 *1491:A 8.25843e-06
44 *302:16 *1379:C 4.56437e-05
45 *302:22 *1379:C 0.00020042
*RES
1 *1182:Y *313:4 9.3 
2 *313:4 *313:10 20.9643 
3 *313:10 *1211:A2 10.675 
4 *313:10 *313:21 1.35714 
5 *313:21 *1213:A 22.8893 
6 *313:21 *1491:A 44.9071 
7 *313:4 *1379:C 28.2821 
*END

*D_NET *314 0.00910029
*CONN
*I *1188:A I *D sky130_fd_sc_hd__or2_1
*I *1492:A I *D sky130_fd_sc_hd__buf_2
*I *1379:A I *D sky130_fd_sc_hd__or4_1
*I *1207:B2 I *D sky130_fd_sc_hd__a221oi_1
*I *1176:Y O *D sky130_fd_sc_hd__inv_2
*CAP
1 *1188:A 0.000169869
2 *1492:A 0
3 *1379:A 0.00059506
4 *1207:B2 0.000444872
5 *1176:Y 0.000152849
6 *314:44 0.000865809
7 *314:16 0.00129835
8 *314:12 0.00110721
9 *1207:B2 *1163:A 0
10 *1207:B2 *1205:A1 0.000146395
11 *1379:A *1163:A 0
12 global_state_boot *314:44 3.22243e-05
13 global_state_safe_mode *1188:A 3.40128e-05
14 global_state_safe_mode *314:44 5.45041e-05
15 *1174:A *314:44 2.59355e-05
16 *1174:B *314:44 0.000104611
17 *1175:B *314:16 0.000313241
18 *1175:C *314:16 6.57815e-05
19 *1175:C *314:44 3.97677e-05
20 *1175:D_N *314:16 0.000440705
21 *1181:B *1188:A 0
22 *1181:B *314:44 0
23 *1189:A *314:44 0
24 *1189:B *314:44 2.31704e-05
25 *1190:A2 *314:44 0.000176234
26 *1207:C1 *1207:B2 0.000123288
27 *1215:B1 *1207:B2 0.000524649
28 *1217:B *1207:B2 3.42121e-05
29 *1219:A *1207:B2 0.000228206
30 *1374:A1 *314:16 4.88546e-05
31 *1374:A2 *1207:B2 7.69776e-06
32 *1379:C *1379:A 2.59355e-05
33 *1379:D *1379:A 3.70314e-05
34 *1380:A2 *1379:A 3.99614e-06
35 *1383:CLK *314:12 0.00048746
36 *1383:D *314:12 0.000140471
37 *1489:A *314:44 0
38 *133:10 *1207:B2 0.000123145
39 *133:23 *1207:B2 0.000247057
40 *133:23 *1379:A 0.000113113
41 *142:6 *314:44 2.89114e-05
42 *143:10 *1207:B2 0
43 *143:12 *1207:B2 0
44 *145:27 *1379:A 6.37237e-05
45 *146:17 *314:44 0
46 *193:10 *314:12 0.00022117
47 *305:57 *314:44 0
48 *307:23 *314:12 0.000186669
49 *307:34 *314:12 0.000276394
50 *308:25 *314:44 7.43578e-06
51 *310:36 *1379:A 8.02709e-05
*RES
1 *1176:Y *314:12 25.8 
2 *314:12 *314:16 11.1964 
3 *314:16 *1207:B2 26.3714 
4 *314:16 *1379:A 24.3 
5 *314:12 *314:44 17.0714 
6 *314:44 *1492:A 13.8 
7 *314:44 *1188:A 16.6929 
*END

*D_NET *315 0.00500585
*CONN
*I *1462:A I *D sky130_fd_sc_hd__dlygate4sd3_1
*I *1241:D I *D sky130_fd_sc_hd__and4_2
*I *1240:C I *D sky130_fd_sc_hd__and3_1
*I *1250:A2 I *D sky130_fd_sc_hd__a21oi_1
*I *1493:A I *D sky130_fd_sc_hd__buf_2
*I *1248:B I *D sky130_fd_sc_hd__xnor2_1
*I *1385:Q O *D sky130_fd_sc_hd__dfxtp_1
*CAP
1 *1462:A 0.000189829
2 *1241:D 8.00076e-05
3 *1240:C 0
4 *1250:A2 2.03441e-05
5 *1493:A 0.000124812
6 *1248:B 0.00021983
7 *1385:Q 0
8 *315:43 0.000280595
9 *315:14 0.000840937
10 *315:12 0.000539025
11 *315:10 0.000458408
12 *315:4 0.000425264
13 *1241:D *1241:C 3.69697e-05
14 *1241:D *1503:A 7.83659e-05
15 *1248:B *1248:A 0.000152873
16 *1250:A2 *1240:A 0
17 *1250:A2 *1250:A1 5.7661e-06
18 *1493:A *1500:A 0.000150096
19 *315:10 *1247:A1 0.000150625
20 *315:10 *1503:A 0
21 *315:10 *371:63 0.000181368
22 *315:10 *373:79 0.000103267
23 *315:12 *1240:A 0
24 *315:14 *323:30 0.000199711
25 *315:43 *1250:A1 3.18676e-05
26 *315:43 *1250:B1 3.18676e-05
27 *315:43 *323:30 3.61629e-06
28 *315:43 *323:41 3.61629e-06
29 *315:43 *324:10 5.73382e-05
30 *1249:A2 *1248:B 5.11569e-05
31 *1249:A2 *1493:A 8.55393e-05
32 *1249:A2 *315:14 2.8078e-05
33 *1386:D *315:14 0.000147142
34 *1391:CLK *1462:A 0.00030824
35 *302:42 *1241:D 1.92905e-05
*RES
1 *1385:Q *315:4 9.3 
2 *315:4 *315:10 14.8929 
3 *315:10 *315:12 0.428571 
4 *315:12 *315:14 9.16071 
5 *315:14 *1248:B 13.4429 
6 *315:14 *1493:A 21.4607 
7 *315:12 *1250:A2 9.72857 
8 *315:10 *315:43 2.68304 
9 *315:43 *1240:C 9.3 
10 *315:43 *1241:D 19.8714 
11 *315:4 *1462:A 13.0321 
*END

*D_NET *316 0.00596986
*CONN
*I *1224:A I *D sky130_fd_sc_hd__or3_1
*I *1209:A1 I *D sky130_fd_sc_hd__a31o_1
*I *1272:B1 I *D sky130_fd_sc_hd__a21oi_1
*I *1243:A I *D sky130_fd_sc_hd__and4_1
*I *1199:A I *D sky130_fd_sc_hd__or3_1
*I *1494:A I *D sky130_fd_sc_hd__buf_2
*I *1395:Q O *D sky130_fd_sc_hd__dfxtp_1
*CAP
1 *1224:A 0
2 *1209:A1 7.42163e-05
3 *1272:B1 0.000239146
4 *1243:A 0.000313942
5 *1199:A 4.9663e-05
6 *1494:A 0.000752107
7 *1395:Q 0
8 *316:72 0.000362147
9 *316:14 0.000920076
10 *316:12 0.000539436
11 *316:10 0.000523246
12 *316:6 0.000464843
13 *1209:A1 *371:24 1.74352e-05
14 *1272:B1 *373:27 8.3725e-05
15 *1494:A *1223:A2 0
16 *1494:A *1506:A 0
17 *1494:A *1507:A 6.2589e-06
18 *1494:A *330:19 0
19 *1494:A *331:12 7.38748e-05
20 *1494:A *331:18 4.46921e-05
21 *1494:A *332:23 0.000124957
22 *1494:A *332:36 0.000192931
23 *316:12 *1223:A2 0
24 *316:14 *1223:A2 0
25 *316:72 *371:24 9.16714e-05
26 global_timeout_count[10] *1494:A 7.43578e-06
27 *1199:C *1199:A 5.52238e-05
28 *1200:A2 *1494:A 0
29 *1209:B1 *1209:A1 7.61932e-05
30 *1209:B1 *316:72 4.58976e-05
31 *1211:A3 *1209:A1 7.43578e-06
32 *1224:B *316:72 2.89016e-05
33 *1227:A3 *316:72 4.01768e-05
34 *1243:D *1243:A 2.42516e-05
35 *1270:D *1494:A 0.00011335
36 *1273:A *316:72 2.19778e-05
37 *1274:A1 *1494:A 0
38 *1274:A1 *316:10 0
39 *1274:A1 *316:12 0
40 *1274:A1 *316:14 0
41 *1274:A2 *1272:B1 6.05161e-06
42 *1274:A2 *316:10 0.000148196
43 *156:6 *1243:A 4.87854e-05
44 *157:10 *1494:A 0
45 *161:14 *1272:B1 5.09046e-05
46 *161:14 *316:72 0
47 *161:27 *316:72 0
48 *198:10 *1243:A 5.70551e-05
49 *198:10 *1272:B1 5.41797e-06
50 *198:10 *316:10 1.18451e-05
51 *198:10 *316:12 3.15517e-05
52 *198:10 *316:72 7.79781e-06
53 *211:14 *1494:A 0.000307042
*RES
1 *1395:Q *316:6 13.8 
2 *316:6 *316:10 3.24107 
3 *316:10 *316:12 2.09821 
4 *316:12 *316:14 1.94643 
5 *316:14 *1494:A 30.8179 
6 *316:14 *1199:A 14.7464 
7 *316:12 *1243:A 18.8536 
8 *316:10 *1272:B1 18.0411 
9 *316:6 *316:72 10.8036 
10 *316:72 *1209:A1 11.0679 
11 *316:72 *1224:A 9.3 
*END

*D_NET *317 0.00782123
*CONN
*I *1290:A2 I *D sky130_fd_sc_hd__o211a_1
*I *1287:B1_N I *D sky130_fd_sc_hd__a21boi_1
*I *1303:B I *D sky130_fd_sc_hd__or4_1
*I *1304:A2 I *D sky130_fd_sc_hd__o41ai_1
*I *1474:X O *D sky130_fd_sc_hd__buf_1
*CAP
1 *1290:A2 0
2 *1287:B1_N 8.84012e-05
3 *1303:B 0
4 *1304:A2 0.000158078
5 *1474:X 0.00113884
6 *317:30 0.000895928
7 *317:14 0.00210444
8 *1287:B1_N *1290:A1 0.000175512
9 *1287:B1_N *391:10 9.71197e-05
10 *1304:A2 *361:18 0.000236105
11 *317:14 *1202:B1 4.25716e-05
12 *317:14 *346:23 0.000294688
13 *317:14 *346:27 0.000234521
14 *317:14 *350:12 0.000419682
15 *317:30 *361:18 0.000140933
16 *1290:B1 *1287:B1_N 9.01334e-05
17 *1290:B1 *317:30 2.27416e-05
18 *1350:A2 *317:14 0.000226237
19 *1371:A2 *317:30 0.000227539
20 *1440:A *317:14 0
21 *1444:A *317:14 5.52302e-05
22 *171:18 *1287:B1_N 9.71197e-05
23 *231:39 *317:14 0.000615849
24 *231:45 *317:14 0.00022684
25 *235:12 *317:14 6.04162e-05
26 *291:6 *317:14 8.66063e-05
27 *291:8 *317:14 8.57023e-05
*RES
1 *1474:X *317:14 45.3357 
2 *317:14 *1304:A2 11.5589 
3 *317:14 *1303:B 9.3 
4 *317:14 *317:30 10.6071 
5 *317:30 *1287:B1_N 21.4964 
6 *317:30 *1290:A2 9.3 
*END

*D_NET *318 0.00415343
*CONN
*I *1495:A I *D sky130_fd_sc_hd__buf_2
*I *1244:B I *D sky130_fd_sc_hd__and3_1
*I *1277:A1 I *D sky130_fd_sc_hd__a21oi_1
*I *1201:A I *D sky130_fd_sc_hd__or2_1
*I *1275:A I *D sky130_fd_sc_hd__xnor2_1
*I *1396:Q O *D sky130_fd_sc_hd__dfxtp_1
*CAP
1 *1495:A 0
2 *1244:B 0
3 *1277:A1 2.16107e-05
4 *1201:A 0.000155076
5 *1275:A 0.000163235
6 *1396:Q 0.000136287
7 *318:39 0.00020755
8 *318:24 0.000323912
9 *318:22 0.000984305
10 *318:10 0.000990779
11 *1201:A *373:27 6.05161e-06
12 *318:22 *319:6 9.33978e-07
13 *318:22 *319:10 0.000129696
14 global_timeout_count[11] *318:22 3.92854e-05
15 *1244:C *1201:A 2.28499e-05
16 *1244:C *1277:A1 6.09963e-05
17 *1244:C *318:24 3.61629e-06
18 *1274:B1 *1201:A 9.0553e-05
19 *1278:A *318:22 0.000227539
20 *1278:A *318:24 1.54142e-05
21 *1278:B *1277:A1 3.57366e-05
22 *1278:B *318:24 1.55885e-05
23 *1278:B *318:39 3.57366e-05
24 *1279:A2 *318:22 0.00010096
25 *1397:D *318:22 2.7626e-05
26 *1472:A *318:10 3.22243e-05
27 *193:30 *1275:A 0
28 *198:35 *1275:A 0.00012401
29 *199:8 *318:22 1.04232e-05
30 *199:8 *318:24 5.71472e-05
31 *293:67 *1275:A 7.50601e-05
32 *293:134 *318:22 5.92264e-05
*RES
1 *1396:Q *318:10 15.9786 
2 *318:10 *318:22 18.2321 
3 *318:22 *318:24 1.76786 
4 *318:24 *1275:A 21.6036 
5 *318:24 *318:39 0.732143 
6 *318:39 *1201:A 13.1393 
7 *318:39 *1277:A1 10.2643 
8 *318:22 *1244:B 9.3 
9 *318:10 *1495:A 13.8 
*END

*D_NET *319 0.00433446
*CONN
*I *1496:A I *D sky130_fd_sc_hd__buf_2
*I *1198:D I *D sky130_fd_sc_hd__or4_1
*I *1244:A I *D sky130_fd_sc_hd__and3_1
*I *1277:B1 I *D sky130_fd_sc_hd__a21oi_1
*I *1397:Q O *D sky130_fd_sc_hd__dfxtp_1
*CAP
1 *1496:A 0
2 *1198:D 0.000524053
3 *1244:A 0
4 *1277:B1 6.70145e-05
5 *1397:Q 7.69841e-05
6 *319:28 0.000770859
7 *319:10 0.00086756
8 *319:6 0.00112434
9 *1198:D *1280:A2 0.000276211
10 *1244:C *1277:B1 0.000128358
11 *1244:C *319:10 0
12 *1278:A *319:10 3.30352e-05
13 *1278:B *1277:B1 0.000226513
14 *1278:B *319:10 2.14658e-05
15 *1397:D *319:10 4.64501e-05
16 *1473:A *319:28 2.69614e-05
17 *293:134 *319:10 1.40306e-05
18 *318:22 *319:6 9.33978e-07
19 *318:22 *319:10 0.000129696
*RES
1 *1397:Q *319:6 10.2464 
2 *319:6 *319:10 10.4107 
3 *319:10 *1277:B1 11.4786 
4 *319:10 *1244:A 9.3 
5 *319:6 *319:28 13.375 
6 *319:28 *1198:D 18.0679 
7 *319:28 *1496:A 9.3 
*END

*D_NET *320 0.00343468
*CONN
*I *1463:A I *D sky130_fd_sc_hd__dlygate4sd3_1
*I *1497:A I *D sky130_fd_sc_hd__buf_2
*I *1198:C I *D sky130_fd_sc_hd__or4_1
*I *1245:A I *D sky130_fd_sc_hd__and2_1
*I *1398:Q O *D sky130_fd_sc_hd__dfxtp_1
*CAP
1 *1463:A 0
2 *1497:A 0.000102658
3 *1198:C 7.38338e-05
4 *1245:A 0.000117597
5 *1398:Q 0.000115922
6 *320:34 0.000260552
7 *320:10 0.000961826
8 *320:6 0.00104421
9 *1245:A *1246:B 5.33005e-05
10 global_timeout_count[13] *1497:A 0.000107124
11 global_timeout_count[13] *320:34 4.03916e-05
12 global_timeout_count[15] *1497:A 1.01912e-05
13 *1280:B1_N *1198:C 2.56694e-05
14 *1280:B1_N *1245:A 2.19684e-05
15 *1280:B1_N *320:10 2.89016e-05
16 *1398:CLK *320:10 2.59355e-05
17 *1398:D *320:10 4.8032e-05
18 *1399:CLK *1245:A 0
19 *1449:A *1198:C 0.000115474
20 *1449:A *1245:A 8.07951e-05
21 *200:51 *1245:A 0.000177821
22 *200:51 *320:10 2.24763e-05
23 *293:138 *1198:C 0
*RES
1 *1398:Q *320:6 10.6571 
2 *320:6 *320:10 13.6607 
3 *320:10 *1245:A 16.6036 
4 *320:10 *1198:C 15.4429 
5 *320:6 *320:34 7.66071 
6 *320:34 *1497:A 16.3536 
7 *320:34 *1463:A 13.8 
*END

*D_NET *321 0.00686508
*CONN
*I *1498:A I *D sky130_fd_sc_hd__buf_2
*I *1283:A1 I *D sky130_fd_sc_hd__o211a_1
*I *1198:B I *D sky130_fd_sc_hd__or4_1
*I *1280:A2 I *D sky130_fd_sc_hd__a21bo_1
*I *1246:B I *D sky130_fd_sc_hd__nand3_2
*I *1284:A1 I *D sky130_fd_sc_hd__a21oi_1
*I *1282:B I *D sky130_fd_sc_hd__nand3b_1
*I *1399:Q O *D sky130_fd_sc_hd__dfxtp_1
*CAP
1 *1498:A 0
2 *1283:A1 0
3 *1198:B 7.84349e-05
4 *1280:A2 0.000154959
5 *1246:B 3.04135e-05
6 *1284:A1 0
7 *1282:B 8.55634e-05
8 *1399:Q 0.000214582
9 *321:69 0.000272567
10 *321:58 0.000485067
11 *321:34 0.000432919
12 *321:18 0.0010467
13 *321:14 0.000485848
14 *321:12 0.000416569
15 *1198:B *1280:A1 6.05161e-06
16 *1198:B *322:49 3.53049e-05
17 *1280:A2 *1280:A1 0.000317285
18 *1280:A2 *322:49 5.33005e-05
19 *1282:B *1282:A_N 0
20 *1282:B *1284:B1 4.72538e-05
21 *321:58 *322:10 5.26091e-05
22 *321:58 *322:25 0.000198698
23 *321:58 *322:36 0.000385003
24 *321:58 *322:49 1.02504e-05
25 *321:69 *322:49 0.000144512
26 global_timeout_count[14] *321:12 3.92757e-05
27 *1198:D *1280:A2 0.000276211
28 *1245:A *1246:B 5.33005e-05
29 *1283:A2 *321:18 0.00017849
30 *1283:A2 *321:34 0.000166239
31 *1283:A2 *321:58 0
32 *1283:B1 *1282:B 7.53841e-05
33 *1283:B1 *321:12 0
34 *1283:C1 *321:18 0.000363837
35 *1283:C1 *321:58 0
36 *1284:A2 *1282:B 5.00159e-05
37 *1399:D *321:12 0
38 *1400:CLK *321:34 0
39 *1400:D *1282:B 1.24368e-05
40 *1400:D *321:34 0.000103253
41 *1400:D *321:58 0
42 *1449:A *1198:B 0.000103974
43 *1449:A *321:58 6.73939e-05
44 *1449:A *321:69 0.00015134
45 *193:57 *1198:B 4.00025e-05
46 *200:25 *1282:B 2.00474e-05
47 *200:25 *321:58 0
48 *201:14 *321:58 0.000196262
49 *293:73 *321:34 1.37292e-05
*RES
1 *1399:Q *321:12 21.3 
2 *321:12 *321:14 3.41071 
3 *321:14 *321:18 7.125 
4 *321:18 *321:34 15.875 
5 *321:34 *1282:B 12.0768 
6 *321:34 *1284:A1 9.3 
7 *321:18 *321:58 14.6429 
8 *321:58 *1246:B 14.3357 
9 *321:58 *321:69 1.94643 
10 *321:69 *1280:A2 18.5857 
11 *321:69 *1198:B 15.675 
12 *321:14 *1283:A1 9.3 
13 *321:12 *1498:A 9.3 
*END

*D_NET *322 0.00454124
*CONN
*I *1453:A I *D sky130_fd_sc_hd__dlygate4sd3_1
*I *1280:A1 I *D sky130_fd_sc_hd__a21bo_1
*I *1198:A I *D sky130_fd_sc_hd__or4_1
*I *1246:A I *D sky130_fd_sc_hd__nand3_2
*I *1499:A I *D sky130_fd_sc_hd__buf_2
*I *1282:A_N I *D sky130_fd_sc_hd__nand3b_1
*I *1400:Q O *D sky130_fd_sc_hd__dfxtp_1
*CAP
1 *1453:A 5.346e-05
2 *1280:A1 0.000157795
3 *1198:A 0
4 *1246:A 0
5 *1499:A 0.000550923
6 *1282:A_N 4.13585e-05
7 *1400:Q 5.8917e-05
8 *322:49 0.000249849
9 *322:36 0.00024848
10 *322:25 0.000808891
11 *322:12 0.000232892
12 *322:10 0.000202368
13 *1282:A_N *1284:B1 3.48705e-05
14 *322:12 *1284:B1 6.05161e-06
15 *1198:B *1280:A1 6.05161e-06
16 *1198:B *322:49 3.53049e-05
17 *1280:A2 *1280:A1 0.000317285
18 *1280:A2 *322:49 5.33005e-05
19 *1281:A2 *322:36 1.37292e-05
20 *1282:B *1282:A_N 0
21 *1283:B1 *1282:A_N 5.62995e-05
22 *1283:B1 *1453:A 2.77258e-05
23 *1283:B1 *322:12 6.09804e-05
24 *1283:C1 *322:10 0.000150618
25 *1284:A2 *1282:A_N 0
26 *158:8 *322:49 3.69047e-06
27 *193:57 *322:36 0.000197991
28 *193:57 *322:49 0.000169405
29 *200:10 *322:25 0
30 *200:10 *322:36 0
31 *200:25 *322:25 1.19309e-05
32 *321:58 *322:10 5.26091e-05
33 *321:58 *322:25 0.000198698
34 *321:58 *322:36 0.000385003
35 *321:58 *322:49 1.02504e-05
36 *321:69 *322:49 0.000144512
*RES
1 *1400:Q *322:10 20.2464 
2 *322:10 *322:12 1.76786 
3 *322:12 *1282:A_N 10.675 
4 *322:12 *322:25 7.05357 
5 *322:25 *1499:A 22.55 
6 *322:25 *322:36 4.98214 
7 *322:36 *1246:A 13.8 
8 *322:36 *322:49 7.69643 
9 *322:49 *1198:A 9.3 
10 *322:49 *1280:A1 13.1393 
11 *322:10 *1453:A 10.2464 
*END

*D_NET *323 0.00413001
*CONN
*I *1241:C I *D sky130_fd_sc_hd__and4_2
*I *1240:B I *D sky130_fd_sc_hd__and3_1
*I *1250:A1 I *D sky130_fd_sc_hd__a21oi_1
*I *1500:A I *D sky130_fd_sc_hd__buf_2
*I *1248:A I *D sky130_fd_sc_hd__xnor2_1
*I *1386:Q O *D sky130_fd_sc_hd__dfxtp_1
*CAP
1 *1241:C 0.000177919
2 *1240:B 0
3 *1250:A1 5.4539e-05
4 *1500:A 8.29395e-05
5 *1248:A 0.00017364
6 *1386:Q 0
7 *323:41 0.000296933
8 *323:30 0.000953521
9 *323:17 0.000895095
10 *323:4 0.000205828
11 *1241:C *1501:A 5.59013e-05
12 *1241:C *1503:A 2.18827e-05
13 *1250:A1 *1240:A 5.7661e-06
14 *1250:A1 *1501:A 0
15 *1241:D *1241:C 3.69697e-05
16 *1248:B *1248:A 0.000152873
17 *1249:A2 *1248:A 5.68713e-05
18 *1249:A2 *323:17 5.49489e-05
19 *1249:A2 *323:30 0.000137561
20 *1250:A2 *1250:A1 5.7661e-06
21 *1251:B *1241:C 9.60875e-05
22 *1251:B *323:41 0.00014183
23 *1386:D *323:30 5.58666e-05
24 *1493:A *1500:A 0.000150096
25 *195:10 *1241:C 7.83659e-05
26 *315:14 *323:30 0.000199711
27 *315:43 *1250:A1 3.18676e-05
28 *315:43 *323:30 3.61629e-06
29 *315:43 *323:41 3.61629e-06
*RES
1 *1386:Q *323:4 9.3 
2 *323:4 *1248:A 12.6393 
3 *323:4 *323:17 0.535714 
4 *323:17 *1500:A 20.2464 
5 *323:17 *323:30 10.3929 
6 *323:30 *1250:A1 10.8714 
7 *323:30 *323:41 1.76786 
8 *323:41 *1240:B 9.3 
9 *323:41 *1241:C 21.8 
*END

*D_NET *324 0.00143775
*CONN
*I *1241:B I *D sky130_fd_sc_hd__and4_2
*I *1501:A I *D sky130_fd_sc_hd__buf_2
*I *1240:A I *D sky130_fd_sc_hd__and3_1
*I *1250:B1 I *D sky130_fd_sc_hd__a21oi_1
*I *1387:Q O *D sky130_fd_sc_hd__dfxtp_1
*CAP
1 *1241:B 8.86665e-05
2 *1501:A 0.000137021
3 *1240:A 2.18344e-05
4 *1250:B1 9.04722e-06
5 *1387:Q 0
6 *324:10 7.51675e-05
7 *324:8 0.000261908
8 *324:4 0.000169268
9 *1501:A *1252:B1 5.71472e-05
10 *1501:A *1503:A 0.000102315
11 *1501:A *371:76 2.89016e-05
12 *1241:C *1501:A 5.59013e-05
13 *1250:A1 *1240:A 5.7661e-06
14 *1250:A1 *1501:A 0
15 *1250:A2 *1240:A 0
16 *1251:A *1241:B 2.59355e-05
17 *1251:B *1241:B 3.92757e-05
18 *1251:B *1250:B1 3.18676e-05
19 *1251:B *324:8 6.71755e-05
20 *1251:B *324:10 6.57914e-05
21 *1252:A2 *1501:A 0
22 *195:10 *1241:B 7.6644e-05
23 *195:10 *324:8 2.89114e-05
24 *315:12 *1240:A 0
25 *315:43 *1250:B1 3.18676e-05
26 *315:43 *324:10 5.73382e-05
*RES
1 *1387:Q *324:4 9.3 
2 *324:4 *324:8 2.08929 
3 *324:8 *324:10 1.35714 
4 *324:10 *1250:B1 9.83571 
5 *324:10 *1240:A 9.72857 
6 *324:8 *1501:A 21.8179 
7 *324:4 *1241:B 19.8714 
*END

*D_NET *325 0.00684278
*CONN
*I *1200:A1 I *D sky130_fd_sc_hd__a31o_1
*I *1223:A2 I *D sky130_fd_sc_hd__o211a_1
*I *1502:A I *D sky130_fd_sc_hd__buf_2
*I *1241:A I *D sky130_fd_sc_hd__and4_2
*I *1253:A I *D sky130_fd_sc_hd__nor2_1
*I *1388:Q O *D sky130_fd_sc_hd__dfxtp_1
*CAP
1 *1200:A1 0
2 *1223:A2 0.000392621
3 *1502:A 0.000352028
4 *1241:A 6.20371e-05
5 *1253:A 5.5939e-05
6 *1388:Q 0
7 *325:49 0.00119136
8 *325:25 0.000654023
9 *325:12 0.000692626
10 *325:4 0.00119546
11 *1223:A2 *1223:A1 2.51686e-05
12 *1199:B *325:49 5.33005e-05
13 *1200:A2 *325:49 1.92905e-05
14 *1200:B1 *325:49 1.3701e-05
15 *1202:A3 *325:49 5.71472e-05
16 *1242:A *325:49 0.00044942
17 *1251:B *1502:A 0
18 *1252:A2 *1502:A 0.000123409
19 *1253:B *1502:A 0
20 *1253:B *325:25 0
21 *1254:B *325:12 0
22 *1262:B1_N *325:12 0
23 *1273:B *1223:A2 0
24 *1387:D *1502:A 5.5782e-05
25 *1391:CLK *1253:A 0.00014285
26 *1391:CLK *325:12 0.000228558
27 *1494:A *1223:A2 0
28 *157:10 *1223:A2 5.58941e-05
29 *157:21 *1223:A2 0.000150625
30 *157:30 *1223:A2 0.000125724
31 *157:43 *1223:A2 0.000223599
32 *161:14 *1223:A2 0
33 *195:10 *1502:A 0
34 *197:10 *325:49 0.000160305
35 *198:10 *1223:A2 0
36 *302:42 *1241:A 0.000144773
37 *302:42 *1502:A 0.000217141
38 *316:12 *1223:A2 0
39 *316:14 *1223:A2 0
*RES
1 *1388:Q *325:4 9.3 
2 *325:4 *325:12 16.7679 
3 *325:12 *1253:A 10.6571 
4 *325:12 *325:25 13.375 
5 *325:25 *1241:A 10.6571 
6 *325:25 *1502:A 26.0679 
7 *325:4 *325:49 14.5179 
8 *325:49 *1223:A2 26.3714 
9 *325:49 *1200:A1 9.3 
*END

*D_NET *326 0.00971589
*CONN
*I *1208:B I *D sky130_fd_sc_hd__or2_1
*I *1223:A1 I *D sky130_fd_sc_hd__o211a_1
*I *1258:A1 I *D sky130_fd_sc_hd__a21oi_1
*I *1196:B I *D sky130_fd_sc_hd__and2_1
*I *1503:A I *D sky130_fd_sc_hd__buf_2
*I *1256:A I *D sky130_fd_sc_hd__xnor2_1
*I *1389:Q O *D sky130_fd_sc_hd__dfxtp_1
*CAP
1 *1208:B 0
2 *1223:A1 0.000403412
3 *1258:A1 0
4 *1196:B 0.000208906
5 *1503:A 0.000939928
6 *1256:A 0.00036655
7 *1389:Q 0
8 *326:60 0.000590982
9 *326:36 0.000293913
10 *326:34 0.000844109
11 *326:6 0.00169932
12 *326:4 0.000964373
13 *1196:B *1196:A 0.000139913
14 *1196:B *327:10 4.73656e-05
15 *1196:B *327:12 0.000128161
16 *1196:B *371:32 0
17 *1223:A1 *1223:C1 0.00041671
18 *1223:A1 *327:10 0
19 *1503:A *371:38 0.000132487
20 *1503:A *371:44 0.000156272
21 *1503:A *371:63 0
22 *1503:A *373:69 0
23 *326:34 *1260:B1 4.38027e-05
24 *326:36 *327:10 0.000145753
25 *326:60 *1260:B1 0
26 *326:60 *327:10 0.000345698
27 *326:60 *327:43 0.000230475
28 *326:60 *371:24 0.00040381
29 *1223:A2 *1223:A1 2.51686e-05
30 *1241:C *1503:A 2.18827e-05
31 *1241:D *1503:A 7.83659e-05
32 *1253:B *1503:A 0
33 *1255:A2 *1503:A 6.42338e-05
34 *1256:B *1256:A 5.9232e-05
35 *1257:A2 *1503:A 0
36 *1258:A2 *1196:B 1.02504e-05
37 *1258:A2 *326:36 4.56437e-05
38 *1389:CLK *1256:A 3.72217e-05
39 *1389:D *1256:A 4.87669e-06
40 *1389:D *1503:A 7.6644e-05
41 *1501:A *1503:A 0.000102315
42 *195:10 *1503:A 0
43 *196:12 *1503:A 0.000559974
44 *197:34 *1196:B 0.000128146
45 *315:10 *1503:A 0
*RES
1 *1389:Q *326:4 9.3 
2 *326:4 *326:6 4.64286 
3 *326:6 *1256:A 14.4071 
4 *326:6 *1503:A 39.675 
5 *326:4 *326:34 11.1964 
6 *326:34 *326:36 1.94643 
7 *326:36 *1196:B 18.6393 
8 *326:36 *1258:A1 13.8 
9 *326:34 *326:60 11.1786 
10 *326:60 *1223:A1 25.425 
11 *326:60 *1208:B 9.3 
*END

*D_NET *327 0.00623834
*CONN
*I *1208:A I *D sky130_fd_sc_hd__or2_1
*I *1223:C1 I *D sky130_fd_sc_hd__o211a_1
*I *1258:B1 I *D sky130_fd_sc_hd__a21oi_1
*I *1196:A I *D sky130_fd_sc_hd__and2_1
*I *1504:A I *D sky130_fd_sc_hd__buf_2
*I *1390:Q O *D sky130_fd_sc_hd__dfxtp_1
*CAP
1 *1208:A 3.59997e-05
2 *1223:C1 0.000192633
3 *1258:B1 5.65133e-05
4 *1196:A 6.38633e-05
5 *1504:A 0.000580094
6 *1390:Q 0
7 *327:43 0.000401698
8 *327:12 0.000697434
9 *327:10 0.000416517
10 *327:4 0.000479592
11 *1208:A *371:24 7.59642e-05
12 *1504:A *1266:B1 0.000967915
13 *1504:A *373:31 0.000199558
14 *327:10 *373:31 4.78056e-05
15 *327:12 *373:31 7.6021e-05
16 *327:43 *371:24 1.38323e-05
17 *1196:B *1196:A 0.000139913
18 *1196:B *327:10 4.73656e-05
19 *1196:B *327:12 0.000128161
20 *1223:A1 *1223:C1 0.00041671
21 *1223:A1 *327:10 0
22 *1262:A2 *1504:A 0.000202005
23 *1272:A2 *1258:B1 5.54247e-05
24 *197:12 *1504:A 9.24395e-05
25 *197:34 *1504:A 0.000120655
26 *197:34 *327:12 8.2958e-06
27 *302:36 *1223:C1 0
28 *326:36 *327:10 0.000145753
29 *326:60 *327:10 0.000345698
30 *326:60 *327:43 0.000230475
*RES
1 *1390:Q *327:4 9.3 
2 *327:4 *327:10 10.8393 
3 *327:10 *327:12 1.94643 
4 *327:12 *1504:A 30.925 
5 *327:12 *1196:A 15.1571 
6 *327:10 *1258:B1 14.7643 
7 *327:4 *327:43 2.58929 
8 *327:43 *1223:C1 22.9429 
9 *327:43 *1208:A 10.2554 
*END

*D_NET *328 0.000743789
*CONN
*I *1226:B I *D sky130_fd_sc_hd__or4_1
*I *1475:X O *D sky130_fd_sc_hd__clkbuf_1
*CAP
1 *1226:B 0.00023872
2 *1475:X 0.00023872
3 *1226:D *1226:B 3.92854e-05
4 *1227:B1 *1226:B 9.71197e-05
5 *1469:A *1226:B 0
6 *1475:A *1226:B 5.33005e-05
7 *1489:A *1226:B 7.6644e-05
8 *193:10 *1226:B 0
*RES
1 *1475:X *1226:B 31.6357 
*END

*D_NET *329 0.00516644
*CONN
*I *1197:D I *D sky130_fd_sc_hd__and4_1
*I *1263:B I *D sky130_fd_sc_hd__and3_1
*I *1261:A1 I *D sky130_fd_sc_hd__a31o_1
*I *1456:A I *D sky130_fd_sc_hd__dlygate4sd3_1
*I *1264:A1 I *D sky130_fd_sc_hd__a31o_1
*I *1505:A I *D sky130_fd_sc_hd__buf_2
*I *1391:Q O *D sky130_fd_sc_hd__dfxtp_1
*CAP
1 *1197:D 2.94999e-05
2 *1263:B 3.54071e-05
3 *1261:A1 0.000669007
4 *1456:A 0
5 *1264:A1 0.000152352
6 *1505:A 0.000477917
7 *1391:Q 0.000255876
8 *329:47 0.000759429
9 *329:41 0.000250217
10 *329:12 0.000742336
11 *329:8 0.000533646
12 *1261:A1 *1261:A3 2.9561e-05
13 *1261:A1 *1261:B1 4.87953e-05
14 *1505:A *1261:A3 0
15 *1505:A *1506:A 0
16 *1505:A *330:19 0
17 *329:12 *1261:A3 0
18 *329:12 *1262:A1 0
19 *1263:C *1261:A1 3.21389e-05
20 *1264:A2 *1264:A1 2.44318e-05
21 *1264:A2 *329:47 0.000148903
22 *1264:A3 *1264:A1 0.000273269
23 *1264:A3 *329:12 0.000202835
24 *1265:B *1264:A1 0.000227539
25 *1265:B *1505:A 5.03694e-05
26 *1266:A2 *1505:A 0
27 *157:10 *1197:D 1.58163e-05
28 *157:10 *329:41 1.92789e-05
29 *211:10 *1261:A1 5.52238e-05
30 *211:10 *1263:B 5.33005e-05
31 *302:36 *1505:A 0
32 *302:36 *329:12 0
33 *302:36 *329:47 7.92879e-05
*RES
1 *1391:Q *329:8 13.4429 
2 *329:8 *329:12 7.35714 
3 *329:12 *1505:A 22.2643 
4 *329:12 *1264:A1 18.05 
5 *329:8 *1456:A 9.3 
6 *329:8 *329:41 2.58929 
7 *329:41 *329:47 10.9464 
8 *329:47 *1261:A1 17.55 
9 *329:47 *1263:B 9.83571 
10 *329:41 *1197:D 9.83571 
*END

*D_NET *330 0.00286539
*CONN
*I *1263:A I *D sky130_fd_sc_hd__and3_1
*I *1195:C I *D sky130_fd_sc_hd__and3_1
*I *1197:C I *D sky130_fd_sc_hd__and4_1
*I *1264:B1 I *D sky130_fd_sc_hd__a31o_1
*I *1506:A I *D sky130_fd_sc_hd__buf_2
*I *1392:Q O *D sky130_fd_sc_hd__dfxtp_1
*CAP
1 *1263:A 0.000194149
2 *1195:C 0.000110706
3 *1197:C 8.23937e-05
4 *1264:B1 0
5 *1506:A 0.000112655
6 *1392:Q 0.000219408
7 *330:30 0.000193099
8 *330:28 0.000291033
9 *330:19 0.00043361
10 *330:8 0.000668788
11 *1195:C *1197:A 0.000132391
12 *1195:C *1197:B 3.81416e-06
13 *1197:C *1197:B 5.39166e-06
14 *1200:A2 *1263:A 0.000103275
15 *1264:A2 *1263:A 4.19577e-05
16 *1264:A2 *330:28 3.79467e-05
17 *1270:D *330:19 0
18 *1271:C *330:19 2.79092e-05
19 *1494:A *1506:A 0
20 *1494:A *330:19 0
21 *1505:A *1506:A 0
22 *1505:A *330:19 0
23 *157:10 *1197:C 1.58213e-06
24 *157:10 *1263:A 9.24395e-05
25 *211:10 *1263:A 1.92789e-05
26 *211:14 *1263:A 0
27 *211:14 *330:19 0
28 *211:14 *330:28 0
29 *293:79 *330:8 9.3562e-05
30 *302:36 *330:19 0
31 *302:36 *330:28 0
*RES
1 *1392:Q *330:8 16.8 
2 *330:8 *1506:A 15.7464 
3 *330:8 *330:19 5.58929 
4 *330:19 *1264:B1 13.8 
5 *330:19 *330:28 1.94643 
6 *330:28 *330:30 4.5 
7 *330:30 *1197:C 10.2464 
8 *330:30 *1195:C 10.9518 
9 *330:28 *1263:A 18.1036 
*END

*D_NET *331 0.00438556
*CONN
*I *1267:A I *D sky130_fd_sc_hd__xnor2_1
*I *1195:B I *D sky130_fd_sc_hd__and3_1
*I *1197:B I *D sky130_fd_sc_hd__and4_1
*I *1269:A1 I *D sky130_fd_sc_hd__a31o_1
*I *1270:B I *D sky130_fd_sc_hd__nand4_1
*I *1507:A I *D sky130_fd_sc_hd__buf_2
*I *1393:Q O *D sky130_fd_sc_hd__dfxtp_1
*CAP
1 *1267:A 0
2 *1195:B 0
3 *1197:B 0.000231152
4 *1269:A1 0
5 *1270:B 0.000195585
6 *1507:A 0.000247458
7 *1393:Q 0.000177685
8 *331:51 0.000411207
9 *331:20 0.00048419
10 *331:18 0.000193929
11 *331:12 0.000408088
12 *331:8 0.000252936
13 *1197:B *1197:A 4.37999e-05
14 *1507:A *1508:A 0
15 *1507:A *332:23 0.000126446
16 *331:18 *332:36 0.000359568
17 *331:20 *332:23 0.000116474
18 *331:20 *332:36 1.02504e-05
19 *331:51 *1197:A 2.15245e-05
20 *331:51 *332:36 3.55552e-05
21 global_timeout_count[8] *1507:A 5.33433e-05
22 *1195:C *1197:B 3.81416e-06
23 *1197:C *1197:B 5.39166e-06
24 *1268:A2 *331:12 2.56694e-05
25 *1268:A2 *331:18 3.97779e-05
26 *1270:C *1507:A 7.90803e-05
27 *1270:C *331:18 1.02504e-05
28 *1270:C *331:20 0.000125724
29 *1271:A *331:18 0
30 *1274:A1 *331:12 0
31 *1274:A1 *331:18 0
32 *1494:A *1507:A 6.2589e-06
33 *1494:A *331:12 7.38748e-05
34 *1494:A *331:18 4.46921e-05
35 *201:33 *331:18 0.000336389
36 *293:79 *1270:B 0.000265447
*RES
1 *1393:Q *331:8 12.2107 
2 *331:8 *331:12 6.44643 
3 *331:12 *331:18 6.55357 
4 *331:18 *331:20 1.64286 
5 *331:20 *1507:A 19.0321 
6 *331:20 *1270:B 16.3893 
7 *331:18 *1269:A1 13.8 
8 *331:12 *331:51 6.67857 
9 *331:51 *1197:B 12.5143 
10 *331:51 *1195:B 9.3 
11 *331:8 *1267:A 9.3 
*END

*D_NET *332 0.00344034
*CONN
*I *1508:A I *D sky130_fd_sc_hd__buf_2
*I *1195:A I *D sky130_fd_sc_hd__and3_1
*I *1197:A I *D sky130_fd_sc_hd__and4_1
*I *1269:B1 I *D sky130_fd_sc_hd__a31o_1
*I *1270:A I *D sky130_fd_sc_hd__nand4_1
*I *1394:Q O *D sky130_fd_sc_hd__dfxtp_1
*CAP
1 *1508:A 0.000394114
2 *1195:A 0
3 *1197:A 7.92406e-05
4 *1269:B1 0
5 *1270:A 0.000173105
6 *1394:Q 0
7 *332:36 0.00026556
8 *332:23 0.00027894
9 *332:19 0.000550795
10 *332:4 0.000237165
11 *1195:C *1197:A 0.000132391
12 *1197:B *1197:A 4.37999e-05
13 *1270:C *1270:A 5.73295e-05
14 *1270:C *1508:A 4.87953e-05
15 *1270:C *332:19 5.03772e-05
16 *1494:A *332:23 0.000124957
17 *1494:A *332:36 0.000192931
18 *1507:A *1508:A 0
19 *1507:A *332:23 0.000126446
20 *293:79 *1270:A 5.14879e-05
21 *293:79 *1508:A 8.95278e-05
22 *331:18 *332:36 0.000359568
23 *331:20 *332:23 0.000116474
24 *331:20 *332:36 1.02504e-05
25 *331:51 *1197:A 2.15245e-05
26 *331:51 *332:36 3.55552e-05
*RES
1 *1394:Q *332:4 9.3 
2 *332:4 *1270:A 12.4607 
3 *332:4 *332:19 0.946429 
4 *332:19 *332:23 7.66071 
5 *332:23 *1269:B1 13.8 
6 *332:23 *332:36 10.5357 
7 *332:36 *1197:A 11.4786 
8 *332:36 *1195:A 9.3 
9 *332:19 *1508:A 24.0679 
*END

*D_NET *333 0.00205312
*CONN
*I *1509:A I *D sky130_fd_sc_hd__buf_2
*I *1452:A I *D sky130_fd_sc_hd__dlygate4sd3_1
*I *1408:Q O *D sky130_fd_sc_hd__dfxtp_1
*CAP
1 *1509:A 0.000457732
2 *1452:A 0
3 *1408:Q 0.000190814
4 *333:8 0.000648546
5 *1509:A *1368:A2 0
6 *1509:A *366:28 9.34004e-05
7 *1509:A *367:20 0.000118352
8 *1509:A *367:32 0.000153054
9 *1480:A *1509:A 0
10 *135:40 *333:8 0.000170955
11 *135:57 *1509:A 1.91414e-05
12 *135:70 *1509:A 0.000201127
*RES
1 *1408:Q *333:8 13.1393 
2 *333:8 *1452:A 9.3 
3 *333:8 *1509:A 28.3714 
*END

*D_NET *334 0.00590324
*CONN
*I *1510:A I *D sky130_fd_sc_hd__buf_2
*I *1434:A I *D sky130_fd_sc_hd__clkbuf_1
*I *1170:Y O *D sky130_fd_sc_hd__inv_2
*CAP
1 *1510:A 0.000731663
2 *1434:A 0.000421306
3 *1170:Y 0.000928882
4 *334:8 0.00208185
5 *1434:A *1298:A 0.000148105
6 *1434:A *1533:A 0
7 *1434:A *359:22 0
8 *1434:A *370:18 9.50762e-05
9 *1434:A *370:20 9.05381e-05
10 *1510:A *1324:A 0.000219774
11 *1510:A *1532:A 0
12 *1510:A *1534:A 0
13 *1510:A *360:23 0
14 *1510:A *370:18 0.000228428
15 *334:8 *1307:A1 4.3154e-05
16 *334:8 *1307:A2 1.02911e-05
17 *334:8 *1307:B1 0.000213175
18 *334:8 *362:34 1.09145e-05
19 group_timeout_count[0] *1510:A 5.52238e-05
20 *1324:C *1510:A 0
21 *1345:B *1434:A 0
22 *1410:CLK *1510:A 0.000212563
23 *1411:D *1510:A 0.000103267
24 *1417:D *1434:A 4.78056e-05
25 *1471:A *1434:A 5.10602e-05
26 *240:6 *334:8 0.000184521
27 *292:54 *1510:A 2.56425e-05
*RES
1 *1170:Y *334:8 25.425 
2 *334:8 *1434:A 23.1929 
3 *334:8 *1510:A 32.0679 
*END

*D_NET *335 0.00632992
*CONN
*I *1511:A I *D sky130_fd_sc_hd__buf_2
*I *1185:B I *D sky130_fd_sc_hd__or4b_1
*I *1169:A I *D sky130_fd_sc_hd__or4b_2
*I *1171:D_N I *D sky130_fd_sc_hd__or4b_2
*I *1167:B I *D sky130_fd_sc_hd__or4b_2
*I *1427:Q O *D sky130_fd_sc_hd__dfxtp_1
*CAP
1 *1511:A 0.000493779
2 *1185:B 0
3 *1169:A 1.16062e-05
4 *1171:D_N 0.000298763
5 *1167:B 0
6 *1427:Q 0.000747207
7 *335:43 0.000934954
8 *335:32 0.000500489
9 *335:14 0.000571779
10 *335:10 0.00106793
11 *1169:A *1169:B 5.52302e-05
12 *1171:D_N *1169:B 8.57023e-05
13 *1171:D_N *336:36 0
14 *1171:D_N *338:16 9.90367e-05
15 *1171:D_N *338:29 0.000171289
16 *1511:A *1513:A 0.000186662
17 *1511:A *1517:A 0.00016586
18 *1511:A *1519:A 7.95581e-05
19 *335:10 *337:10 0
20 *335:10 *375:54 0
21 *335:14 *1169:B 0.000172745
22 *335:32 *1169:C 0
23 *335:43 *1517:A 7.6021e-05
24 *335:43 *1519:A 2.56694e-05
25 *335:43 *337:44 0
26 group_state_bits[2] *1511:A 3.05446e-05
27 group_state_suspended *1511:A 1.15281e-05
28 *1296:C *1169:A 5.52302e-05
29 *1318:B *335:43 6.1684e-05
30 *1408:CLK *335:43 0
31 *1429:CLK *335:10 0
32 *139:12 *335:10 0.000171375
33 *139:12 *335:32 7.15521e-05
34 *139:12 *335:43 4.73656e-05
35 *140:14 *1171:D_N 2.55587e-05
36 *230:22 *335:10 0.000101545
37 *230:22 *335:32 9.25014e-06
38 *302:104 *335:10 0
39 *302:104 *335:43 0
*RES
1 *1427:Q *335:10 27.5143 
2 *335:10 *335:14 7.91071 
3 *335:14 *1167:B 9.3 
4 *335:14 *1171:D_N 15.1036 
5 *335:10 *335:32 1.03571 
6 *335:32 *1169:A 14.3357 
7 *335:32 *335:43 8.92857 
8 *335:43 *1185:B 13.8 
9 *335:43 *1511:A 23.3714 
*END

*D_NET *336 0.00654248
*CONN
*I *1185:A I *D sky130_fd_sc_hd__or4b_1
*I *1512:A I *D sky130_fd_sc_hd__buf_2
*I *1169:D_N I *D sky130_fd_sc_hd__or4b_2
*I *1167:A I *D sky130_fd_sc_hd__or4b_2
*I *1171:A I *D sky130_fd_sc_hd__or4b_2
*I *1319:A I *D sky130_fd_sc_hd__xor2_1
*I *1428:Q O *D sky130_fd_sc_hd__dfxtp_1
*CAP
1 *1185:A 0.000621267
2 *1512:A 0.000267514
3 *1169:D_N 0.000104436
4 *1167:A 1.24159e-05
5 *1171:A 0
6 *1319:A 8.86767e-05
7 *1428:Q 0.000120671
8 *336:56 0.0010034
9 *336:36 0.000266411
10 *336:27 0.000766892
11 *336:12 0.000837707
12 *336:8 0.00036699
13 *1167:A *1167:C 5.7661e-06
14 *1169:D_N *1169:B 0.000111511
15 *1185:A *1185:C 7.3237e-05
16 *1185:A *1185:D_N 0
17 *1185:A *1370:A 0.000303747
18 *1185:A *338:8 0.000126848
19 *1512:A *1370:A 0.000140933
20 *1512:A *1515:A 0
21 *336:12 *1370:A 0
22 *336:12 *1515:A 9.59415e-05
23 *336:27 *1171:C 4.48206e-05
24 *336:27 *338:10 0.000225307
25 *336:27 *338:16 0.000177234
26 *336:27 *375:54 0
27 *336:36 *1167:C 0
28 *336:36 *1169:B 5.33334e-05
29 *336:36 *338:16 2.89016e-05
30 *336:36 *338:29 9.76689e-05
31 *336:56 *1370:A 0
32 *336:56 *1515:A 5.53406e-05
33 *1171:D_N *336:36 0
34 *1295:D *336:27 0
35 *1296:C *1169:D_N 0
36 *1370:B *1512:A 5.52238e-05
37 *1430:CLK *1185:A 7.17235e-05
38 *1430:CLK *1512:A 6.26959e-05
39 *1430:D *1185:A 8.82363e-05
40 *138:10 *1169:D_N 9.71197e-05
41 *138:10 *336:36 0.000140933
42 *149:10 *1185:A 2.95726e-05
43 *294:142 *1185:A 0
*RES
1 *1428:Q *336:8 15.1571 
2 *336:8 *336:12 7.66071 
3 *336:12 *1319:A 10.6571 
4 *336:12 *336:27 19.8571 
5 *336:27 *1171:A 9.3 
6 *336:27 *336:36 3.42857 
7 *336:36 *1167:A 9.72857 
8 *336:36 *1169:D_N 11.9071 
9 *336:8 *336:56 6.75 
10 *336:56 *1512:A 23.2464 
11 *336:56 *1185:A 21.3536 
*END

*D_NET *337 0.00571438
*CONN
*I *1169:C I *D sky130_fd_sc_hd__or4b_2
*I *1513:A I *D sky130_fd_sc_hd__buf_2
*I *1185:C I *D sky130_fd_sc_hd__or4b_1
*I *1171:C I *D sky130_fd_sc_hd__or4b_2
*I *1167:D_N I *D sky130_fd_sc_hd__or4b_2
*I *1429:Q O *D sky130_fd_sc_hd__dfxtp_1
*CAP
1 *1169:C 9.83278e-05
2 *1513:A 0.000180084
3 *1185:C 5.84303e-05
4 *1171:C 0.000326337
5 *1167:D_N 0
6 *1429:Q 0.000360075
7 *337:44 0.00054233
8 *337:27 0.000690212
9 *337:18 0.00030032
10 *337:10 0.000698663
11 *1171:C *375:54 0
12 *1185:C *1185:D_N 9.21137e-05
13 *1513:A *1517:A 0.000100979
14 *337:44 *1517:A 9.76928e-05
15 group_state_suspended *1513:A 1.92789e-05
16 *1185:A *1185:C 7.3237e-05
17 *1295:D *337:18 9.90477e-05
18 *1295:D *337:27 5.51406e-05
19 *1295:D *337:44 0.000236595
20 *1318:B *1171:C 0.000187892
21 *1318:B *337:27 4.66203e-05
22 *1318:B *337:44 2.94103e-05
23 *1511:A *1513:A 0.000186662
24 *138:10 *1171:C 5.7616e-05
25 *139:12 *337:18 9.14944e-05
26 *149:10 *1185:C 5.52302e-05
27 *149:10 *337:44 8.9163e-05
28 *229:10 *337:18 7.50697e-05
29 *229:10 *337:27 1.76039e-05
30 *230:22 *1169:C 3.57163e-05
31 *230:22 *337:18 0.00022459
32 *302:104 *1169:C 0.000197991
33 *302:104 *337:10 0.000345632
34 *335:10 *337:10 0
35 *335:32 *1169:C 0
36 *335:43 *337:44 0
37 *336:27 *1171:C 4.48206e-05
*RES
1 *1429:Q *337:10 20.3536 
2 *337:10 *337:18 14.9643 
3 *337:18 *1167:D_N 13.8 
4 *337:18 *337:27 1.64286 
5 *337:27 *1171:C 27.8536 
6 *337:27 *337:44 8.01786 
7 *337:44 *1185:C 15.5679 
8 *337:44 *1513:A 18.1214 
9 *337:10 *1169:C 16.3536 
*END

*D_NET *338 0.00539533
*CONN
*I *1185:D_N I *D sky130_fd_sc_hd__or4b_1
*I *1514:A I *D sky130_fd_sc_hd__buf_2
*I *1315:A_N I *D sky130_fd_sc_hd__nand2b_1
*I *1169:B I *D sky130_fd_sc_hd__or4b_2
*I *1167:C I *D sky130_fd_sc_hd__or4b_2
*I *1171:B I *D sky130_fd_sc_hd__or4b_2
*I *1430:Q O *D sky130_fd_sc_hd__dfxtp_1
*CAP
1 *1185:D_N 0.000291069
2 *1514:A 0.000312689
3 *1315:A_N 0
4 *1169:B 0.000196707
5 *1167:C 2.03441e-05
6 *1171:B 3.43197e-05
7 *1430:Q 0
8 *338:29 0.000256522
9 *338:16 0.000176725
10 *338:10 0.000351024
11 *338:8 0.000932391
12 *338:4 0.00066268
13 *338:10 *1370:A 0
14 group_state_bits[0] *1514:A 4.01768e-05
15 *1167:A *1167:C 5.7661e-06
16 *1169:A *1169:B 5.52302e-05
17 *1169:D_N *1169:B 0.000111511
18 *1171:D_N *1169:B 8.57023e-05
19 *1171:D_N *338:16 9.90367e-05
20 *1171:D_N *338:29 0.000171289
21 *1185:A *1185:D_N 0
22 *1185:A *338:8 0.000126848
23 *1185:C *1185:D_N 9.21137e-05
24 *1295:D *338:10 0
25 *1296:C *1169:B 5.01909e-05
26 *1373:B *338:10 0.000202825
27 *1373:B *338:16 4.46186e-06
28 *1430:D *1514:A 4.00025e-05
29 *1430:D *338:8 1.05442e-06
30 *1430:D *338:10 3.92854e-05
31 *138:10 *1171:B 1.87955e-05
32 *138:10 *338:16 0
33 *149:10 *1185:D_N 5.52302e-05
34 *149:10 *1514:A 0
35 *149:10 *338:8 9.71197e-05
36 *149:10 *338:10 0
37 *247:10 *1171:B 0
38 *247:10 *338:16 0.000103266
39 *294:142 *1185:D_N 5.7661e-06
40 *335:14 *1169:B 0.000172745
41 *336:27 *338:10 0.000225307
42 *336:27 *338:16 0.000177234
43 *336:36 *1167:C 0
44 *336:36 *1169:B 5.33334e-05
45 *336:36 *338:16 2.89016e-05
46 *336:36 *338:29 9.76689e-05
*RES
1 *1430:Q *338:4 9.3 
2 *338:4 *338:8 9.55357 
3 *338:8 *338:10 6.80357 
4 *338:10 *338:16 8 
5 *338:16 *1171:B 19.0321 
6 *338:16 *338:29 1.76786 
7 *338:29 *1167:C 9.72857 
8 *338:29 *1169:B 14.675 
9 *338:10 *1315:A_N 13.8 
10 *338:8 *1514:A 19.55 
11 *338:4 *1185:D_N 13.9964 
*END

*D_NET *339 0.00541934
*CONN
*I *1226:A I *D sky130_fd_sc_hd__or4_1
*I *1221:B2 I *D sky130_fd_sc_hd__o32a_1
*I *1207:A1 I *D sky130_fd_sc_hd__a221oi_1
*I *1476:X O *D sky130_fd_sc_hd__buf_1
*CAP
1 *1226:A 0.000326008
2 *1221:B2 0.00021398
3 *1207:A1 5.18331e-05
4 *1476:X 0.00026628
5 *339:14 0.000454108
6 *339:10 0.000780583
7 *339:14 *392:28 1.56e-05
8 global_state_locked *339:10 1.91894e-05
9 *1203:B *1226:A 0
10 *1203:B *339:14 0.000109918
11 *1205:A2 *1207:A1 0
12 *1214:A *1221:B2 3.17148e-05
13 *1225:A *1226:A 6.75007e-05
14 *1225:C *1226:A 0.000125731
15 *1226:D *1226:A 0
16 *1227:B1 *1226:A 2.89016e-05
17 *1466:A *1226:A 0
18 *1467:A *1226:A 0
19 *1472:A *339:10 3.18676e-05
20 *1491:A *1207:A1 0.00014183
21 *1491:A *339:10 0.000177941
22 *1491:A *339:14 0.000950182
23 *137:6 *339:14 0.00010096
24 *148:16 *1221:B2 1.31516e-05
25 *164:6 *1207:A1 4.72818e-05
26 *295:6 *339:14 1.39726e-05
27 *301:10 *1221:B2 1.52978e-05
28 *301:27 *1221:B2 0.000497923
29 *306:14 *339:10 0
30 *306:14 *339:14 0.000183713
31 *306:29 *1207:A1 5.33005e-05
32 *306:29 *339:14 0.000153442
33 *306:48 *1221:B2 0.000547128
*RES
1 *1476:X *339:10 18.8179 
2 *339:10 *339:14 13.6607 
3 *339:14 *1207:A1 11.0857 
4 *339:14 *1221:B2 25.7107 
5 *339:10 *1226:A 19.6214 
*END

*D_NET *340 0.00310911
*CONN
*I *1515:A I *D sky130_fd_sc_hd__buf_2
*I *1308:B1 I *D sky130_fd_sc_hd__o31ai_1
*I *1172:Y O *D sky130_fd_sc_hd__inv_2
*CAP
1 *1515:A 0.000465217
2 *1308:B1 0.000204537
3 *1172:Y 4.91556e-05
4 *340:8 0.000718909
5 *1308:B1 *362:34 0
6 *1515:A *1370:A 0
7 *1308:A2 *1308:B1 4.72818e-05
8 *1316:B *1308:B1 0
9 *1320:D *1515:A 0
10 *1370:B *1515:A 0.000419599
11 *1512:A *1515:A 0
12 *1542:A *1308:B1 0.000142856
13 *139:24 *1308:B1 3.57163e-05
14 *140:14 *1308:B1 2.19684e-05
15 *140:14 *1515:A 7.58571e-05
16 *140:18 *340:8 1.58163e-05
17 *246:10 *1308:B1 0.000255845
18 *246:10 *1515:A 0.000505073
19 *336:12 *1515:A 9.59415e-05
20 *336:56 *1515:A 5.53406e-05
*RES
1 *1172:Y *340:8 14.3357 
2 *340:8 *1308:B1 19.2643 
3 *340:8 *1515:A 27.5857 
*END

*D_NET *341 0.000151024
*CONN
*I *1516:A I *D sky130_fd_sc_hd__buf_2
*I *1434:X O *D sky130_fd_sc_hd__clkbuf_1
*CAP
1 *1516:A 7.55121e-05
2 *1434:X 7.55121e-05
*RES
1 *1434:X *1516:A 19.8679 
*END

*D_NET *342 0.00110465
*CONN
*I *1435:A I *D sky130_fd_sc_hd__clkbuf_1
*I *1517:A I *D sky130_fd_sc_hd__buf_2
*I *1186:Y O *D sky130_fd_sc_hd__inv_2
*CAP
1 *1435:A 0
2 *1517:A 0.000200743
3 *1186:Y 6.13545e-05
4 *342:6 0.000262097
5 *1373:A *342:6 0.000139907
6 *1511:A *1517:A 0.00016586
7 *1513:A *1517:A 0.000100979
8 *335:43 *1517:A 7.6021e-05
9 *337:44 *1517:A 9.76928e-05
*RES
1 *1186:Y *342:6 10.6571 
2 *342:6 *1517:A 23.8179 
3 *342:6 *1435:A 9.3 
*END

*D_NET *343 0.00773335
*CONN
*I *1288:A1 I *D sky130_fd_sc_hd__o21a_1
*I *1289:A1 I *D sky130_fd_sc_hd__o21ai_1
*I *1304:B1 I *D sky130_fd_sc_hd__o41ai_1
*I *1436:A I *D sky130_fd_sc_hd__clkbuf_1
*I *1518:A I *D sky130_fd_sc_hd__buf_2
*I *1212:B I *D sky130_fd_sc_hd__nor2_1
*I *1168:Y O *D sky130_fd_sc_hd__inv_2
*CAP
1 *1288:A1 0
2 *1289:A1 2.0281e-05
3 *1304:B1 0.000123393
4 *1436:A 3.73329e-05
5 *1518:A 0.000761977
6 *1212:B 0
7 *1168:Y 0.000105228
8 *343:33 0.00221099
9 *343:25 0.00179648
10 *343:14 0.000389945
11 *343:12 0.000257812
12 *343:8 0.000214214
13 *1304:B1 *1212:A 0
14 *1304:B1 *1303:A 0
15 *1436:A *1338:A 0
16 *1518:A *348:12 0
17 *1518:A *350:12 0
18 *1518:A *361:12 0.000153047
19 *343:8 *1288:B1 1.41706e-05
20 *343:8 *1291:B2 0
21 *343:12 *1288:B1 3.01126e-05
22 *343:33 *1338:A 0.000144773
23 *343:33 *1531:A 0.00018742
24 group_timeout_count[10] *1518:A 0
25 *1290:B1 *343:12 0
26 *1299:C1 *343:33 0.000142856
27 *1304:A3 *1304:B1 1.00375e-05
28 *1371:A2 *343:8 0
29 *1371:A2 *343:12 0
30 *1415:CLK *1436:A 0
31 *1415:CLK *1518:A 0
32 *1421:CLK *1518:A 0
33 *1421:D *1518:A 0
34 *1478:A *1518:A 9.5746e-05
35 *3:11 *1436:A 0
36 *3:11 *1518:A 0
37 *171:18 *1289:A1 4.38128e-05
38 *171:18 *343:14 0.000358977
39 *171:18 *343:25 2.28499e-05
40 *226:12 *343:12 5.56943e-05
41 *232:10 *343:33 0.00014285
42 *237:20 *1304:B1 6.19181e-05
43 *262:29 *1436:A 0
44 *262:44 *343:33 0.000191025
45 *278:10 *1518:A 1.91512e-05
46 *278:14 *1518:A 0.000141254
*RES
1 *1168:Y *343:8 15.7464 
2 *343:8 *343:12 7.05357 
3 *343:12 *343:14 3.41071 
4 *343:14 *1212:B 9.3 
5 *343:14 *343:25 4.57143 
6 *343:25 *343:33 27.3571 
7 *343:33 *1518:A 29.2464 
8 *343:33 *1436:A 14.5321 
9 *343:25 *1304:B1 20.2464 
10 *343:12 *1289:A1 9.83571 
11 *343:8 *1288:A1 13.8 
*END

*D_NET *344 0.00080393
*CONN
*I *1519:A I *D sky130_fd_sc_hd__buf_2
*I *1435:X O *D sky130_fd_sc_hd__clkbuf_1
*CAP
1 *1519:A 0.000284155
2 *1435:X 0.000284155
3 *1519:A *1541:A 0
4 *1373:A *1519:A 7.77751e-05
5 *1408:CLK *1519:A 5.26184e-05
6 *1511:A *1519:A 7.95581e-05
7 *335:43 *1519:A 2.56694e-05
*RES
1 *1435:X *1519:A 33.0286 
*END

*D_NET *345 0.00760364
*CONN
*I *1520:A I *D sky130_fd_sc_hd__buf_2
*I *1321:A_N I *D sky130_fd_sc_hd__and2b_1
*I *1328:C I *D sky130_fd_sc_hd__and4_1
*I *1322:A I *D sky130_fd_sc_hd__nand2_1
*I *1323:A I *D sky130_fd_sc_hd__or2_1
*I *1325:B I *D sky130_fd_sc_hd__nand3_1
*I *1326:A1 I *D sky130_fd_sc_hd__a21o_1
*I *1329:A2 I *D sky130_fd_sc_hd__a31o_1
*I *1409:Q O *D sky130_fd_sc_hd__dfxtp_1
*CAP
1 *1520:A 0.000505475
2 *1321:A_N 6.66566e-05
3 *1328:C 0
4 *1322:A 5.94972e-05
5 *1323:A 7.87736e-05
6 *1325:B 0
7 *1326:A1 0.000122184
8 *1329:A2 0.000110747
9 *1409:Q 3.92359e-05
10 *345:53 0.000244461
11 *345:37 0.00016774
12 *345:31 0.000609424
13 *345:14 0.000630511
14 *345:12 0.000134963
15 *345:10 0.000229512
16 *345:8 0.00063469
17 *1322:A *1532:A 0.000225307
18 *1322:A *353:56 1.30241e-05
19 *1323:A *1323:B 5.33005e-05
20 *1326:A1 *1325:A 0.000136697
21 *1326:A1 *353:39 1.60597e-05
22 *1329:A2 *1329:A3 0.000277044
23 *1329:A2 *354:12 0.000247771
24 *1329:A2 *354:52 0.000143651
25 *1520:A *353:10 3.17148e-05
26 *1520:A *369:12 0
27 *345:8 *353:10 5.52238e-05
28 *345:10 *353:10 0.000176226
29 *345:12 *353:10 0.000140368
30 *345:12 *353:12 1.02504e-05
31 *345:12 *370:12 1.69115e-05
32 *345:14 *1329:A3 0.00012401
33 *345:14 *353:12 4.66511e-05
34 *345:14 *354:12 0.000159689
35 *345:31 *1325:A 3.48705e-05
36 *345:31 *353:35 5.52238e-05
37 *345:31 *353:39 0.000139907
38 *345:37 *1532:A 5.41794e-05
39 *345:37 *353:39 5.33005e-05
40 *345:53 *1532:A 0.000340788
41 *345:53 *353:45 0.000114838
42 *345:53 *353:56 1.76135e-05
43 group_timeout_count[3] *345:37 5.59013e-05
44 group_timeout_count[3] *345:53 9.4724e-05
45 group_timeout_count[6] *1322:A 0.000187622
46 *1324:C *1323:A 5.30637e-06
47 *1327:B *345:31 0.000395873
48 *1330:B *1329:A2 1.34631e-05
49 *1409:D *1520:A 0
50 *1447:A *1520:A 0
51 *292:32 *1329:A2 0
52 *292:46 *345:31 0.00053226
*RES
1 *1409:Q *345:8 14.3357 
2 *345:8 *345:10 2.25 
3 *345:10 *345:12 1.94643 
4 *345:12 *345:14 2.25 
5 *345:14 *1329:A2 18.3179 
6 *345:14 *345:31 19.8036 
7 *345:31 *345:37 5.76786 
8 *345:37 *1326:A1 11.3893 
9 *345:37 *1325:B 9.3 
10 *345:31 *345:53 4.375 
11 *345:53 *1323:A 15.1571 
12 *345:53 *1322:A 16.6571 
13 *345:12 *1328:C 13.8 
14 *345:10 *1321:A_N 14.7464 
15 *345:8 *1520:A 22.425 
*END

*D_NET *346 0.00769979
*CONN
*I *1299:B1 I *D sky130_fd_sc_hd__o211a_1
*I *1350:B1 I *D sky130_fd_sc_hd__a21o_1
*I *1349:A I *D sky130_fd_sc_hd__and3_1
*I *1351:A I *D sky130_fd_sc_hd__and3_1
*I *1521:A I *D sky130_fd_sc_hd__buf_2
*I *1305:A I *D sky130_fd_sc_hd__or3_2
*I *1419:Q O *D sky130_fd_sc_hd__dfxtp_1
*CAP
1 *1299:B1 0.000184932
2 *1350:B1 2.22847e-05
3 *1349:A 0.000303706
4 *1351:A 0
5 *1521:A 0.000707752
6 *1305:A 0.00018062
7 *1419:Q 4.31953e-05
8 *346:42 0.000425317
9 *346:27 0.000956642
10 *346:23 0.00030044
11 *346:10 0.000412881
12 *346:8 0.000309512
13 *1299:B1 *1299:A2 1.02504e-05
14 *1349:A *361:12 9.40469e-05
15 *1521:A *1301:B 0.000107713
16 *1521:A *1357:B 3.97543e-05
17 *1521:A *1522:A 2.8266e-06
18 *1521:A *347:31 4.06782e-05
19 *346:8 *361:12 1.92789e-05
20 *346:23 *350:12 0.00078755
21 *346:27 *350:12 0.000655288
22 *1302:A *1305:A 8.15939e-05
23 *1350:A2 *1349:A 1.95435e-05
24 *1350:A2 *346:27 0.000224314
25 *1350:A2 *346:42 0
26 *1351:B *346:42 4.15914e-05
27 *1357:C *1521:A 0
28 *1357:C *346:42 0
29 *1415:CLK *346:42 2.84494e-05
30 *1421:CLK *1521:A 0.000108848
31 *1421:CLK *346:42 8.66324e-05
32 *1421:D *1521:A 0
33 *1444:A *346:23 5.33005e-05
34 *231:39 *1299:B1 0
35 *233:10 *1305:A 4.25523e-05
36 *238:12 *1299:B1 9.31871e-05
37 *238:12 *1305:A 0.000181378
38 *238:12 *346:10 6.19181e-05
39 *262:44 *1349:A 7.04695e-05
40 *262:44 *346:42 1.02504e-05
41 *262:51 *1349:A 0.000208129
42 *291:6 *346:23 9.90431e-05
43 *291:8 *346:23 9.71197e-05
44 *291:25 *346:10 0
45 *291:60 *1305:A 5.75896e-05
46 *317:14 *346:23 0.000294688
47 *317:14 *346:27 0.000234521
*RES
1 *1419:Q *346:8 14.3357 
2 *346:8 *346:10 1.64286 
3 *346:10 *1305:A 19.0857 
4 *346:10 *346:23 12.0179 
5 *346:23 *346:27 10.7857 
6 *346:27 *1521:A 27.0857 
7 *346:27 *346:42 7.35714 
8 *346:42 *1351:A 9.3 
9 *346:42 *1349:A 14.1036 
10 *346:23 *1350:B1 9.72857 
11 *346:8 *1299:B1 17.6214 
*END

*D_NET *347 0.00521811
*CONN
*I *1353:A I *D sky130_fd_sc_hd__nand2_1
*I *1354:A I *D sky130_fd_sc_hd__or2_1
*I *1301:C I *D sky130_fd_sc_hd__or3_1
*I *1357:B I *D sky130_fd_sc_hd__and3_1
*I *1356:A1 I *D sky130_fd_sc_hd__a21o_1
*I *1522:A I *D sky130_fd_sc_hd__buf_2
*I *1420:Q O *D sky130_fd_sc_hd__dfxtp_1
*CAP
1 *1353:A 0.000383284
2 *1354:A 0
3 *1301:C 0
4 *1357:B 0.000102471
5 *1356:A1 9.91655e-05
6 *1522:A 0.000748117
7 *1420:Q 0
8 *347:31 0.000293392
9 *347:18 0.000839873
10 *347:16 0.000269163
11 *347:12 0.000367894
12 *347:4 0.000482015
13 *1353:A *369:90 0.000131197
14 *1356:A1 *1357:A 9.90431e-05
15 *1357:B *369:96 0
16 *1522:A *1301:A 0.000103032
17 *1522:A *1301:B 0
18 *1522:A *1362:A 0
19 *1522:A *351:26 0.000143566
20 *1522:A *369:106 0.000342488
21 *347:16 *1301:B 2.51343e-06
22 *347:31 *1301:A 5.80706e-06
23 *347:31 *369:96 0
24 *1354:B *1353:A 0
25 *1354:B *347:12 0
26 *1354:B *347:16 5.49544e-05
27 *1355:C *347:12 7.47229e-05
28 *1355:C *347:16 9.99853e-05
29 *1356:A2 *1356:A1 2.14658e-05
30 *1357:C *1357:B 0.000100823
31 *1420:D *1353:A 0.000140088
32 *1423:D *1522:A 6.42338e-05
33 *1521:A *1357:B 3.97543e-05
34 *1521:A *1522:A 2.8266e-06
35 *1521:A *347:31 4.06782e-05
36 *234:10 *347:12 1.59373e-05
37 *234:10 *347:16 9.63177e-05
38 *272:19 *1353:A 0
39 *278:10 *1357:B 5.33005e-05
*RES
1 *1420:Q *347:4 9.3 
2 *347:4 *347:12 10.875 
3 *347:12 *347:16 5.07143 
4 *347:16 *347:18 4.5 
5 *347:18 *1522:A 29.1036 
6 *347:18 *347:31 1.64286 
7 *347:31 *1356:A1 15.1571 
8 *347:31 *1357:B 15.9786 
9 *347:16 *1301:C 9.3 
10 *347:12 *1354:A 9.3 
11 *347:4 *1353:A 24.8893 
*END

*D_NET *348 0.00264432
*CONN
*I *1523:A I *D sky130_fd_sc_hd__buf_2
*I *1357:A I *D sky130_fd_sc_hd__and3_1
*I *1356:B1 I *D sky130_fd_sc_hd__a21o_1
*I *1301:B I *D sky130_fd_sc_hd__or3_1
*I *1421:Q O *D sky130_fd_sc_hd__dfxtp_1
*CAP
1 *1523:A 0
2 *1357:A 5.52497e-05
3 *1356:B1 2.23854e-05
4 *1301:B 0.000356946
5 *1421:Q 0.000157603
6 *348:31 0.000102738
7 *348:16 0.000571988
8 *348:12 0.000347542
9 *1357:A *1358:B 6.87574e-05
10 *348:16 *1358:B 0.000117621
11 *348:31 *1358:B 2.89114e-05
12 group_timeout_count[12] *348:12 3.18676e-05
13 *1356:A1 *1357:A 9.90431e-05
14 *1356:A2 *1357:A 5.71472e-05
15 *1358:A_N *348:16 0.000227532
16 *1358:C *348:16 0.000229456
17 *1478:A *348:12 5.7903e-06
18 *1518:A *348:12 0
19 *1521:A *1301:B 0.000107713
20 *1522:A *1301:B 0
21 *3:11 *348:12 5.35169e-05
22 *278:14 *1301:B 0
23 *347:16 *1301:B 2.51343e-06
*RES
1 *1421:Q *348:12 21.6036 
2 *348:12 *348:16 5.07143 
3 *348:16 *1301:B 23.7464 
4 *348:16 *348:31 0.535714 
5 *348:31 *1356:B1 9.72857 
6 *348:31 *1357:A 11.0679 
7 *348:12 *1523:A 9.3 
*END

*D_NET *349 0.00425979
*CONN
*I *1301:A I *D sky130_fd_sc_hd__or3_1
*I *1359:A I *D sky130_fd_sc_hd__or2_1
*I *1524:A I *D sky130_fd_sc_hd__buf_2
*I *1360:A I *D sky130_fd_sc_hd__and2_1
*I *1363:B I *D sky130_fd_sc_hd__and3_1
*I *1422:Q O *D sky130_fd_sc_hd__dfxtp_1
*CAP
1 *1301:A 0.000178664
2 *1359:A 0
3 *1524:A 0.000112513
4 *1360:A 6.74219e-05
5 *1363:B 0.000231447
6 *1422:Q 0
7 *349:31 0.000211003
8 *349:29 0.000731074
9 *349:19 0.000939579
10 *349:6 0.000292356
11 *1301:A *369:96 0
12 *1301:A *369:106 0.000142082
13 *1363:B *369:106 7.6644e-05
14 *349:19 *369:106 0.000119618
15 *349:29 *1361:B 7.6644e-05
16 group_timeout_count[13] *1524:A 0
17 *1360:B *1360:A 5.33005e-05
18 *1360:B *1524:A 3.17148e-05
19 *1360:B *349:29 0
20 *1360:B *349:31 0.000174232
21 *1361:A_N *1360:A 2.22891e-05
22 *1361:A_N *349:31 1.00073e-05
23 *1361:C *349:29 5.31541e-05
24 *1362:B *1360:A 3.99614e-06
25 *1362:B *349:31 0.00014285
26 *1363:C *1363:B 2.65105e-05
27 *1364:A_N *1363:B 5.62995e-05
28 *1365:B *1363:B 5.62995e-05
29 *1422:CLK *349:29 6.52536e-05
30 *1422:D *349:29 0.00012515
31 *1522:A *1301:A 0.000103032
32 *3:11 *1524:A 0
33 *3:11 *349:29 0
34 *278:14 *349:29 0.000150847
35 *347:31 *1301:A 5.80706e-06
*RES
1 *1422:Q *349:6 13.8 
2 *349:6 *1363:B 17.425 
3 *349:6 *349:19 1.64286 
4 *349:19 *349:29 23.5536 
5 *349:29 *349:31 1.76786 
6 *349:31 *1360:A 10.675 
7 *349:31 *1524:A 20.2464 
8 *349:29 *1359:A 9.3 
9 *349:19 *1301:A 18.175 
*END

*D_NET *350 0.00569225
*CONN
*I *1212:A I *D sky130_fd_sc_hd__nor2_1
*I *1477:X O *D sky130_fd_sc_hd__clkbuf_1
*CAP
1 *1212:A 0.00017146
2 *1477:X 0.00129315
3 *350:12 0.00146461
4 *1212:A *1202:B1 6.19181e-05
5 *1212:A *1303:A 3.17163e-05
6 *350:12 *1202:B1 9.90431e-05
7 *350:12 *361:12 2.79092e-05
8 *1304:B1 *1212:A 0
9 *1351:B *350:12 0.000268396
10 *1352:B *350:12 0.000230155
11 *1440:A *1212:A 0.000181368
12 *1518:A *350:12 0
13 *3:11 *350:12 0
14 *237:20 *1212:A 0
15 *317:14 *350:12 0.000419682
16 *346:23 *350:12 0.00078755
17 *346:27 *350:12 0.000655288
*RES
1 *1477:X *350:12 46.05 
2 *350:12 *1212:A 22.675 
*END

*D_NET *351 0.00409919
*CONN
*I *1300:B I *D sky130_fd_sc_hd__or2_1
*I *1363:A I *D sky130_fd_sc_hd__and3_1
*I *1362:A I *D sky130_fd_sc_hd__or2_1
*I *1525:A I *D sky130_fd_sc_hd__buf_2
*I *1423:Q O *D sky130_fd_sc_hd__dfxtp_1
*CAP
1 *1300:B 0
2 *1363:A 0
3 *1362:A 8.64817e-05
4 *1525:A 0.00047704
5 *1423:Q 0.000254537
6 *351:26 0.00120274
7 *351:16 0.000879867
8 *351:14 0.000495181
9 *351:14 *1526:A 9.05199e-05
10 *351:14 *352:21 5.49489e-05
11 *351:16 *1365:A 0.000144222
12 *351:16 *352:21 0.000173559
13 *1365:B *351:16 7.57394e-05
14 *1423:CLK *351:14 2.07878e-05
15 *1423:D *1362:A 0
16 *1423:D *1525:A 0
17 *1522:A *1362:A 0
18 *1522:A *351:26 0.000143566
*RES
1 *1423:Q *351:14 23.1393 
2 *351:14 *351:16 4.64286 
3 *351:16 *351:26 21.5357 
4 *351:26 *1525:A 21.9071 
5 *351:26 *1362:A 15.1393 
6 *351:16 *1363:A 9.3 
7 *351:14 *1300:B 9.3 
*END

*D_NET *352 0.00352417
*CONN
*I *1526:A I *D sky130_fd_sc_hd__buf_2
*I *1300:A I *D sky130_fd_sc_hd__or2_1
*I *1365:A I *D sky130_fd_sc_hd__xor2_1
*I *1424:Q O *D sky130_fd_sc_hd__dfxtp_1
*CAP
1 *1526:A 0.000926586
2 *1300:A 0
3 *1365:A 4.94067e-05
4 *1424:Q 0.000115255
5 *352:21 0.00101728
6 *352:10 0.000255358
7 *1526:A *1249:A1 0.000170964
8 *1526:A *1249:B1 0.000230475
9 *1526:A *1252:B1 5.52302e-05
10 *1526:A *373:92 0
11 *1366:B *352:21 8.55173e-05
12 *1385:D *1526:A 0
13 *1386:CLK *1526:A 0
14 *1386:D *1526:A 0.000152333
15 *233:10 *1526:A 2.51343e-06
16 *291:76 *1526:A 0
17 *351:14 *1526:A 9.05199e-05
18 *351:14 *352:21 5.49489e-05
19 *351:16 *1365:A 0.000144222
20 *351:16 *352:21 0.000173559
*RES
1 *1424:Q *352:10 20.2464 
2 *352:10 *1365:A 10.6571 
3 *352:10 *352:21 3.01786 
4 *352:21 *1300:A 9.3 
5 *352:21 *1526:A 36.6393 
*END

*D_NET *353 0.00726458
*CONN
*I *1328:D I *D sky130_fd_sc_hd__and4_1
*I *1326:A2 I *D sky130_fd_sc_hd__a21o_1
*I *1325:C I *D sky130_fd_sc_hd__nand3_1
*I *1527:A I *D sky130_fd_sc_hd__buf_2
*I *1322:B I *D sky130_fd_sc_hd__nand2_1
*I *1323:B I *D sky130_fd_sc_hd__or2_1
*I *1329:A3 I *D sky130_fd_sc_hd__a31o_1
*I *1410:Q O *D sky130_fd_sc_hd__dfxtp_1
*CAP
1 *1328:D 0
2 *1326:A2 1.02833e-05
3 *1325:C 0
4 *1527:A 0.000252991
5 *1322:B 0
6 *1323:B 9.47953e-05
7 *1329:A3 0.000164852
8 *1410:Q 0.00034911
9 *353:56 0.000377401
10 *353:45 0.000447205
11 *353:39 0.000307059
12 *353:35 0.00062363
13 *353:12 0.000731428
14 *353:10 0.000381399
15 *1326:A2 *1325:A 1.44193e-05
16 *1527:A *1532:A 7.79781e-06
17 *353:35 *1325:A 2.44318e-05
18 *353:35 *1529:A 0.000830161
19 *353:35 *1532:A 5.03787e-05
20 *353:35 *354:27 7.2754e-05
21 *353:35 *355:49 0.00016641
22 *353:39 *1325:A 3.18676e-05
23 group_timeout_count[0] *1527:A 0.000170964
24 group_timeout_count[1] *1527:A 0
25 group_timeout_count[3] *353:45 0.000153054
26 group_timeout_count[6] *1527:A 0.000129868
27 group_timeout_count[6] *353:56 0.000190051
28 *1322:A *353:56 1.30241e-05
29 *1323:A *1323:B 5.33005e-05
30 *1326:A1 *353:39 1.60597e-05
31 *1329:A2 *1329:A3 0.000277044
32 *1330:B *1329:A3 0.000222491
33 *1520:A *353:10 3.17148e-05
34 *258:10 *353:35 0.000135028
35 *345:8 *353:10 5.52238e-05
36 *345:10 *353:10 0.000176226
37 *345:12 *353:10 0.000140368
38 *345:12 *353:12 1.02504e-05
39 *345:14 *1329:A3 0.00012401
40 *345:14 *353:12 4.66511e-05
41 *345:31 *353:35 5.52238e-05
42 *345:31 *353:39 0.000139907
43 *345:37 *353:39 5.33005e-05
44 *345:53 *353:45 0.000114838
45 *345:53 *353:56 1.76135e-05
*RES
1 *1410:Q *353:10 20.7643 
2 *353:10 *353:12 0.732143 
3 *353:12 *1329:A3 18.7107 
4 *353:12 *353:35 25.5536 
5 *353:35 *353:39 2.19643 
6 *353:39 *353:45 9.71429 
7 *353:45 *1323:B 15.1571 
8 *353:45 *353:56 3.16071 
9 *353:56 *1322:B 13.8 
10 *353:56 *1527:A 19.175 
11 *353:39 *1325:C 9.3 
12 *353:35 *1326:A2 9.72857 
13 *353:10 *1328:D 13.8 
*END

*D_NET *354 0.00603905
*CONN
*I *1307:A2 I *D sky130_fd_sc_hd__o211a_1
*I *1329:A1 I *D sky130_fd_sc_hd__a31o_1
*I *1328:B I *D sky130_fd_sc_hd__and4_1
*I *1326:B1 I *D sky130_fd_sc_hd__a21o_1
*I *1325:A I *D sky130_fd_sc_hd__nand3_1
*I *1528:A I *D sky130_fd_sc_hd__buf_2
*I *1411:Q O *D sky130_fd_sc_hd__dfxtp_1
*CAP
1 *1307:A2 0.00024619
2 *1329:A1 0
3 *1328:B 0
4 *1326:B1 0
5 *1325:A 7.78163e-05
6 *1528:A 2.52229e-05
7 *1411:Q 0.000125814
8 *354:52 0.000395482
9 *354:27 0.000185793
10 *354:14 0.000452373
11 *354:12 0.00046638
12 *354:6 0.000422313
13 *1307:A2 *1307:A1 0.000141132
14 *1307:A2 *1307:B1 1.02132e-05
15 *1307:A2 *1329:B1 0.000139202
16 *1307:A2 *355:10 2.24646e-05
17 *1307:A2 *355:12 0.000343203
18 *1307:A2 *362:34 0.000182592
19 *1528:A *1529:A 5.52238e-05
20 *354:12 *370:12 3.34687e-05
21 *354:14 *1529:A 0.000733041
22 *354:14 *355:49 9.71197e-05
23 *354:14 *370:12 5.03772e-05
24 *354:27 *1532:A 0
25 *1326:A1 *1325:A 0.000136697
26 *1326:A2 *1325:A 1.44193e-05
27 *1329:A2 *354:12 0.000247771
28 *1329:A2 *354:52 0.000143651
29 *1410:CLK *354:27 0.000207762
30 *258:10 *354:12 0.000148189
31 *258:16 *354:12 0.000225314
32 *292:32 *1307:A2 0.000365667
33 *292:32 *354:12 0
34 *292:54 *354:27 1.02504e-05
35 *334:8 *1307:A2 1.02911e-05
36 *345:14 *354:12 0.000159689
37 *345:31 *1325:A 3.48705e-05
38 *353:35 *1325:A 2.44318e-05
39 *353:35 *354:27 7.2754e-05
40 *353:39 *1325:A 3.18676e-05
*RES
1 *1411:Q *354:6 11.0679 
2 *354:6 *354:12 14.5893 
3 *354:12 *354:14 7.92857 
4 *354:14 *1528:A 9.83571 
5 *354:14 *354:27 11.8571 
6 *354:27 *1325:A 11.925 
7 *354:27 *1326:B1 9.3 
8 *354:12 *1328:B 9.3 
9 *354:6 *354:52 2.91071 
10 *354:52 *1329:A1 9.3 
11 *354:52 *1307:A2 26.9429 
*END

*D_NET *355 0.00944366
*CONN
*I *1328:A I *D sky130_fd_sc_hd__and4_1
*I *1529:A I *D sky130_fd_sc_hd__buf_2
*I *1329:B1 I *D sky130_fd_sc_hd__a31o_1
*I *1307:A1 I *D sky130_fd_sc_hd__o211a_1
*I *1309:A1 I *D sky130_fd_sc_hd__o211a_1
*I *1412:Q O *D sky130_fd_sc_hd__dfxtp_1
*CAP
1 *1328:A 0
2 *1529:A 0.000221177
3 *1329:B1 9.78954e-05
4 *1307:A1 4.98694e-05
5 *1309:A1 0.00115904
6 *1412:Q 0.000399007
7 *355:49 0.000585089
8 *355:12 0.00139691
9 *355:10 0.000372521
10 *355:8 0.000849544
11 *1307:A1 *362:34 2.14658e-05
12 *355:49 *370:12 8.66868e-05
13 group_timeout_count[2] *1529:A 9.90431e-05
14 *1307:A2 *1307:A1 0.000141132
15 *1307:A2 *1329:B1 0.000139202
16 *1307:A2 *355:10 2.24646e-05
17 *1307:A2 *355:12 0.000343203
18 *1309:B1 *1309:A1 0.000302294
19 *1346:A *1309:A1 5.83233e-05
20 *1348:C *1309:A1 0.000293415
21 *1414:CLK *1309:A1 2.04866e-05
22 *1448:A *355:49 5.33005e-05
23 *1528:A *1529:A 5.52238e-05
24 *231:29 *1309:A1 0.000160372
25 *240:6 *1307:A1 2.89016e-05
26 *253:10 *355:8 4.88142e-05
27 *253:10 *355:49 0.000126439
28 *258:10 *355:49 4.51769e-05
29 *292:32 *1309:A1 0.000238591
30 *292:32 *355:10 6.30388e-05
31 *292:32 *355:12 6.37408e-06
32 *292:32 *355:49 4.61027e-05
33 *292:105 *355:49 2.11543e-05
34 *292:147 *1309:A1 2.15245e-05
35 *334:8 *1307:A1 4.3154e-05
36 *353:35 *1529:A 0.000830161
37 *353:35 *355:49 0.00016641
38 *354:14 *1529:A 0.000733041
39 *354:14 *355:49 9.71197e-05
*RES
1 *1412:Q *355:8 18.4429 
2 *355:8 *355:10 1.94643 
3 *355:10 *355:12 4.67857 
4 *355:12 *1309:A1 34.3357 
5 *355:12 *1307:A1 15.5679 
6 *355:10 *1329:B1 15.5679 
7 *355:8 *355:49 12.7143 
8 *355:49 *1529:A 18.8893 
9 *355:49 *1328:A 9.3 
*END

*D_NET *356 0.00713003
*CONN
*I *1331:A I *D sky130_fd_sc_hd__nand2_1
*I *1309:A2 I *D sky130_fd_sc_hd__o211a_1
*I *1332:A I *D sky130_fd_sc_hd__or2_1
*I *1299:A2 I *D sky130_fd_sc_hd__o211a_1
*I *1335:A1 I *D sky130_fd_sc_hd__a21o_1
*I *1334:B I *D sky130_fd_sc_hd__and3_2
*I *1306:D I *D sky130_fd_sc_hd__and4_1
*I *1530:A I *D sky130_fd_sc_hd__buf_2
*I *1413:Q O *D sky130_fd_sc_hd__dfxtp_1
*CAP
1 *1331:A 0
2 *1309:A2 0.00015344
3 *1332:A 4.53801e-05
4 *1299:A2 0.000291639
5 *1335:A1 2.00462e-05
6 *1334:B 0
7 *1306:D 6.39651e-05
8 *1530:A 0.000374663
9 *1413:Q 5.98394e-05
10 *356:73 0.000282807
11 *356:69 0.000106372
12 *356:24 0.000975017
13 *356:18 0.00084225
14 *356:12 0.000504236
15 *356:10 0.00061621
16 *356:8 0.000228467
17 *1299:A2 *1299:A1 0.000464535
18 *1299:A2 *1309:C1 0.000117189
19 *1530:A *1348:A 0.000313241
20 *1530:A *358:43 4.35567e-05
21 *1530:A *359:16 0.000181899
22 *1530:A *359:22 5.71472e-05
23 *356:18 *357:16 0.00023888
24 *356:24 *1306:C 0
25 *356:24 *1342:C 0
26 *356:24 *1531:A 0
27 *356:24 *357:16 3.14193e-05
28 *356:24 *359:12 0
29 *1299:B1 *1299:A2 1.02504e-05
30 *1331:B *356:10 0.000224583
31 *1331:B *356:12 0.000399137
32 *1334:C *356:12 2.36643e-05
33 *1334:C *356:18 2.571e-05
34 *1342:B *1530:A 2.59355e-05
35 *231:14 *1306:D 0
36 *231:33 *1299:A2 0
37 *237:20 *1309:A2 0.000184531
38 *237:20 *356:73 0.000153047
39 *238:12 *1309:A2 0
40 *238:12 *356:73 0
41 *239:12 *1306:D 5.80706e-06
42 *258:56 *1335:A1 1.02132e-05
43 *262:12 *356:18 5.49553e-05
*RES
1 *1413:Q *356:8 10.2643 
2 *356:8 *356:10 3 
3 *356:10 *356:12 4.23214 
4 *356:12 *356:18 5.91071 
5 *356:18 *356:24 12.6786 
6 *356:24 *1530:A 22.1571 
7 *356:24 *1306:D 14.8357 
8 *356:18 *1334:B 9.3 
9 *356:12 *1335:A1 9.72857 
10 *356:10 *1299:A2 25.7107 
11 *356:8 *356:69 0.428571 
12 *356:69 *356:73 6.44643 
13 *356:73 *1332:A 14.3357 
14 *356:73 *1309:A2 16.9607 
15 *356:69 *1331:A 9.3 
*END

*D_NET *357 0.00846169
*CONN
*I *1309:C1 I *D sky130_fd_sc_hd__o211a_1
*I *1299:A1 I *D sky130_fd_sc_hd__o211a_1
*I *1335:B1 I *D sky130_fd_sc_hd__a21o_1
*I *1334:A I *D sky130_fd_sc_hd__and3_2
*I *1306:C I *D sky130_fd_sc_hd__and4_1
*I *1531:A I *D sky130_fd_sc_hd__buf_2
*I *1414:Q O *D sky130_fd_sc_hd__dfxtp_1
*CAP
1 *1309:C1 0.000279471
2 *1299:A1 0.00011792
3 *1335:B1 0
4 *1334:A 0
5 *1306:C 0.000387318
6 *1531:A 0.000986324
7 *1414:Q 0
8 *357:54 0.00039739
9 *357:18 0.00137364
10 *357:16 0.000147519
11 *357:12 0.000670158
12 *357:4 0.00052264
13 *1306:C *1348:A 0.000227532
14 *1309:C1 *369:25 0
15 *1531:A *1336:C 0
16 *1531:A *1338:A 1.74352e-05
17 *1531:A *1536:A 5.71472e-05
18 *1531:A *369:61 0
19 *1299:A2 *1299:A1 0.000464535
20 *1299:A2 *1309:C1 0.000117189
21 *1309:B1 *1309:C1 0.000139907
22 *1334:C *357:16 0.000443638
23 *1336:B *357:12 3.92854e-05
24 *1348:B *1306:C 2.79092e-05
25 *1414:CLK *1306:C 0
26 *1414:CLK *1531:A 0
27 *1414:CLK *357:12 2.47093e-05
28 *1439:A *357:12 0.00020562
29 *231:14 *1306:C 0
30 *231:33 *1309:C1 0
31 *238:12 *1299:A1 0.000464535
32 *238:12 *1309:C1 0.000527799
33 *262:12 *1531:A 5.35423e-05
34 *262:29 *1531:A 2.89114e-05
35 *262:44 *1531:A 0.000141985
36 *292:147 *1309:C1 0.000139907
37 *343:33 *1531:A 0.00018742
38 *356:18 *357:16 0.00023888
39 *356:24 *1306:C 0
40 *356:24 *1531:A 0
41 *356:24 *357:16 3.14193e-05
*RES
1 *1414:Q *357:4 9.3 
2 *357:4 *357:12 16.4107 
3 *357:12 *357:16 5.48214 
4 *357:16 *357:18 4.5 
5 *357:18 *1531:A 31.5143 
6 *357:18 *1306:C 20.9607 
7 *357:16 *1334:A 9.3 
8 *357:12 *1335:B1 9.3 
9 *357:4 *357:54 4.5 
10 *357:54 *1299:A1 19.6929 
11 *357:54 *1309:C1 21.9607 
*END

*D_NET *358 0.0103004
*CONN
*I *1337:A I *D sky130_fd_sc_hd__nand2_1
*I *1532:A I *D sky130_fd_sc_hd__buf_2
*I *1306:B I *D sky130_fd_sc_hd__and4_1
*I *1298:B I *D sky130_fd_sc_hd__and4_1
*I *1341:A1 I *D sky130_fd_sc_hd__a21o_1
*I *1338:A I *D sky130_fd_sc_hd__or2_1
*I *1415:Q O *D sky130_fd_sc_hd__dfxtp_1
*CAP
1 *1337:A 0
2 *1532:A 0.000969961
3 *1306:B 0.000182928
4 *1298:B 0.000232975
5 *1341:A1 0
6 *1338:A 0.000136293
7 *1415:Q 0.000163585
8 *358:50 0.00055867
9 *358:43 0.000339176
10 *358:39 0.00153467
11 *358:29 0.000634043
12 *358:10 0.000565617
13 *1298:B *1298:A 3.55552e-05
14 *1298:B *359:22 0
15 *1298:B *370:20 7.6644e-05
16 *1306:B *1348:A 4.72917e-05
17 *1306:B *359:16 0.000170385
18 *1532:A *1534:A 7.79781e-06
19 *358:10 *1339:A 0.000405733
20 *358:39 *1536:A 1.02504e-05
21 *358:39 *372:12 0
22 *358:43 *359:16 0.00010096
23 *358:43 *359:22 2.14757e-05
24 *358:50 *359:16 0.000219064
25 group_timeout_count[1] *1532:A 0
26 group_timeout_count[3] *1532:A 3.01894e-05
27 group_timeout_count[6] *1532:A 6.39901e-05
28 group_timeout_count[9] *1532:A 5.92267e-05
29 *1322:A *1532:A 0.000225307
30 *1324:C *1532:A 9.14786e-05
31 *1337:B *358:29 5.52238e-05
32 *1342:A_N *1532:A 0.000478322
33 *1342:A_N *358:39 0.0003342
34 *1342:B *358:39 0.00014534
35 *1343:B *1532:A 0.000250915
36 *1410:CLK *1532:A 0
37 *1415:CLK *1338:A 8.68665e-05
38 *1415:CLK *358:10 3.32631e-05
39 *1416:CLK *1532:A 0.000264982
40 *1416:CLK *358:39 0.00016236
41 *1436:A *1338:A 0
42 *1439:A *358:29 3.68898e-05
43 *1439:A *358:39 0.000188586
44 *1510:A *1532:A 0
45 *1527:A *1532:A 7.79781e-06
46 *1530:A *358:43 4.35567e-05
47 *1531:A *1338:A 1.74352e-05
48 *262:14 *358:29 9.71197e-05
49 *262:29 *1338:A 0.000174535
50 *262:29 *358:29 8.0089e-05
51 *262:44 *1338:A 4.18895e-05
52 *262:73 *358:29 1.52978e-05
53 *292:54 *1532:A 0
54 *292:60 *1532:A 0.000312381
55 *343:33 *1338:A 0.000144773
56 *345:37 *1532:A 5.41794e-05
57 *345:53 *1532:A 0.000340788
58 *353:35 *1532:A 5.03787e-05
59 *354:27 *1532:A 0
*RES
1 *1415:Q *358:10 18.3536 
2 *358:10 *1338:A 18.3179 
3 *358:10 *358:29 9.66071 
4 *358:29 *358:39 15.25 
5 *358:39 *358:43 7.08929 
6 *358:43 *1341:A1 9.3 
7 *358:43 *358:50 2.17857 
8 *358:50 *1298:B 21.5143 
9 *358:50 *1306:B 11.8893 
10 *358:39 *1532:A 39.7286 
11 *358:29 *1337:A 9.3 
*END

*D_NET *359 0.00341148
*CONN
*I *1306:A I *D sky130_fd_sc_hd__and4_1
*I *1341:B1 I *D sky130_fd_sc_hd__a21o_1
*I *1533:A I *D sky130_fd_sc_hd__buf_2
*I *1298:A I *D sky130_fd_sc_hd__and4_1
*I *1416:Q O *D sky130_fd_sc_hd__dfxtp_1
*CAP
1 *1306:A 0
2 *1341:B1 0
3 *1533:A 0.000161896
4 *1298:A 0.000263354
5 *1416:Q 0.000186423
6 *359:22 0.00056288
7 *359:16 0.000241696
8 *359:12 0.000290488
9 *1533:A *1345:A 5.33005e-05
10 *359:12 *1342:C 5.26091e-05
11 *359:12 *370:20 9.69119e-06
12 *359:16 *1348:A 0.000140933
13 *359:22 *370:20 0
14 *1298:B *1298:A 3.55552e-05
15 *1298:B *359:22 0
16 *1306:B *359:16 0.000170385
17 *1345:B *1533:A 8.2018e-05
18 *1346:B *359:12 4.01768e-05
19 *1416:CLK *1533:A 0.000164405
20 *1416:CLK *359:22 0.000227014
21 *1434:A *1298:A 0.000148105
22 *1434:A *1533:A 0
23 *1434:A *359:22 0
24 *1530:A *359:16 0.000181899
25 *1530:A *359:22 5.71472e-05
26 *356:24 *359:12 0
27 *358:43 *359:16 0.00010096
28 *358:43 *359:22 2.14757e-05
29 *358:50 *359:16 0.000219064
*RES
1 *1416:Q *359:12 21.4964 
2 *359:12 *359:16 5.07143 
3 *359:16 *359:22 7.89286 
4 *359:22 *1298:A 18.4429 
5 *359:22 *1533:A 17.4071 
6 *359:16 *1341:B1 9.3 
7 *359:12 *1306:A 9.3 
*END

*D_NET *360 0.00525575
*CONN
*I *1307:B1 I *D sky130_fd_sc_hd__o211a_1
*I *1347:A1 I *D sky130_fd_sc_hd__a31o_1
*I *1298:D I *D sky130_fd_sc_hd__and4_1
*I *1534:A I *D sky130_fd_sc_hd__buf_2
*I *1343:A I *D sky130_fd_sc_hd__nand2_1
*I *1344:A I *D sky130_fd_sc_hd__or2_1
*I *1417:Q O *D sky130_fd_sc_hd__dfxtp_1
*CAP
1 *1307:B1 0.00020732
2 *1347:A1 0.000168462
3 *1298:D 9.36901e-05
4 *1534:A 0.000276829
5 *1343:A 0
6 *1344:A 8.14082e-05
7 *1417:Q 0
8 *360:45 0.000420259
9 *360:43 0.000365428
10 *360:23 0.000336829
11 *360:8 0.000714606
12 *360:4 0.000573198
13 *1298:D *1298:C 9.80029e-05
14 *1307:B1 *362:34 0.000145702
15 *1307:B1 *362:36 5.97623e-05
16 *1347:A1 *1347:B1 0.000271352
17 *360:45 *1298:C 1.17968e-05
18 *360:45 *362:36 0.000143278
19 *1307:A2 *1307:B1 1.02132e-05
20 *1345:B *1344:A 5.66157e-05
21 *1345:B *360:23 7.6644e-05
22 *1417:CLK *1344:A 5.52302e-05
23 *1417:CLK *360:8 1.39726e-05
24 *1417:D *360:8 3.32132e-06
25 *1510:A *1534:A 0
26 *1510:A *360:23 0
27 *1532:A *1534:A 7.79781e-06
28 *239:12 *1298:D 9.34004e-05
29 *239:12 *1347:A1 2.39313e-05
30 *239:12 *360:45 2.84494e-05
31 *239:18 *360:45 0
32 *258:16 *1307:B1 0
33 *258:16 *360:45 0
34 *258:26 *360:45 0
35 *266:10 *1344:A 2.28499e-05
36 *266:10 *360:8 6.61171e-05
37 *292:54 *1534:A 2.8266e-06
38 *292:60 *1344:A 5.83304e-05
39 *292:60 *1534:A 0.000412868
40 *292:60 *360:23 0.000142082
41 *334:8 *1307:B1 0.000213175
*RES
1 *1417:Q *360:4 9.3 
2 *360:4 *360:8 11.1964 
3 *360:8 *1344:A 15.9071 
4 *360:8 *360:23 1.94643 
5 *360:23 *1343:A 13.8 
6 *360:23 *1534:A 20.1393 
7 *360:4 *360:43 4.5 
8 *360:43 *360:45 3.76786 
9 *360:45 *1298:D 16.5857 
10 *360:45 *1347:A1 17.2286 
11 *360:43 *1307:B1 19.6929 
*END

*D_NET *361 0.00719546
*CONN
*I *1304:A1 I *D sky130_fd_sc_hd__o41ai_1
*I *1303:A I *D sky130_fd_sc_hd__or4_1
*I *1202:B1 I *D sky130_fd_sc_hd__a41o_1
*I *1478:X O *D sky130_fd_sc_hd__buf_1
*CAP
1 *1304:A1 0
2 *1303:A 3.1954e-05
3 *1202:B1 0.0011019
4 *1478:X 0.000942382
5 *361:18 0.0013046
6 *361:12 0.00111312
7 *361:12 *1352:C 5.65955e-05
8 *1212:A *1202:B1 6.19181e-05
9 *1212:A *1303:A 3.17163e-05
10 *1303:C *361:18 4.63877e-05
11 *1303:D *361:18 0.000142856
12 *1304:A2 *361:18 0.000236105
13 *1304:B1 *1303:A 0
14 *1349:A *361:12 9.40469e-05
15 *1350:A2 *361:12 7.10673e-06
16 *1419:D *361:12 0.000170049
17 *1518:A *361:12 0.000153047
18 *3:11 *361:12 0
19 *162:10 *1202:B1 0.00010096
20 *262:44 *361:12 7.23864e-05
21 *262:51 *361:12 0.000194795
22 *291:25 *361:12 0.000168216
23 *291:29 *361:12 0.000835585
24 *317:14 *1202:B1 4.25716e-05
25 *317:30 *361:18 0.000140933
26 *346:8 *361:12 1.92789e-05
27 *350:12 *1202:B1 9.90431e-05
28 *350:12 *361:12 2.79092e-05
*RES
1 *1478:X *361:12 40.4964 
2 *361:12 *361:18 9.46429 
3 *361:18 *1202:B1 33.5321 
4 *361:18 *1303:A 14.5321 
5 *361:12 *1304:A1 9.3 
*END

*D_NET *362 0.00641037
*CONN
*I *1535:A I *D sky130_fd_sc_hd__buf_2
*I *1347:B1 I *D sky130_fd_sc_hd__a31o_1
*I *1298:C I *D sky130_fd_sc_hd__and4_1
*I *1308:A1 I *D sky130_fd_sc_hd__o31ai_1
*I *1316:A I *D sky130_fd_sc_hd__nor4_1
*I *1418:Q O *D sky130_fd_sc_hd__dfxtp_1
*CAP
1 *1535:A 0.000563867
2 *1347:B1 9.46794e-05
3 *1298:C 0.000104089
4 *1308:A1 0
5 *1316:A 5.23568e-05
6 *1418:Q 0.000235549
7 *362:36 0.000474024
8 *362:34 0.00170831
9 *362:23 0.000977277
10 *362:10 0.000395992
11 *1298:C *370:20 0
12 *1535:A *370:18 0
13 *362:10 *369:25 0.000103671
14 *362:23 *369:25 2.59795e-05
15 *362:36 *370:18 0
16 *362:36 *370:20 0
17 *1170:A *1316:A 3.67257e-05
18 *1170:A *362:23 0.000173812
19 *1170:A *362:34 9.63925e-05
20 *1298:D *1298:C 9.80029e-05
21 *1307:A1 *362:34 2.14658e-05
22 *1307:A2 *362:34 0.000182592
23 *1307:B1 *362:34 0.000145702
24 *1307:B1 *362:36 5.97623e-05
25 *1308:B1 *362:34 0
26 *1316:B *362:23 5.48581e-05
27 *1316:D *362:23 0
28 *1347:A1 *1347:B1 0.000271352
29 *238:12 *362:10 0
30 *238:16 *362:10 0
31 *238:16 *362:23 0
32 *239:12 *1347:B1 0.000186669
33 *240:6 *362:34 4.92678e-05
34 *258:16 *1535:A 0
35 *258:16 *362:36 0
36 *292:6 *362:10 5.52302e-05
37 *292:140 *362:10 1.76039e-05
38 *300:10 *1347:B1 5.91452e-05
39 *334:8 *362:34 1.09145e-05
40 *360:45 *1298:C 1.17968e-05
41 *360:45 *362:36 0.000143278
*RES
1 *1418:Q *362:10 18.4071 
2 *362:10 *1316:A 14.7464 
3 *362:10 *362:23 7.66071 
4 *362:23 *1308:A1 9.3 
5 *362:23 *362:34 16.0357 
6 *362:34 *362:36 5.89286 
7 *362:36 *1298:C 16.3536 
8 *362:36 *1347:B1 17.2107 
9 *362:34 *1535:A 22.55 
*END

*D_NET *363 0.000767782
*CONN
*I *1536:A I *D sky130_fd_sc_hd__buf_2
*I *1436:X O *D sky130_fd_sc_hd__clkbuf_1
*CAP
1 *1536:A 0.000244327
2 *1436:X 0.000244327
3 *1536:A *372:12 0
4 group_unlocked *1536:A 9.60337e-06
5 *1339:B *1536:A 0.000202128
6 *1339:C *1536:A 0
7 *1531:A *1536:A 5.71472e-05
8 *3:11 *1536:A 0
9 *358:39 *1536:A 1.02504e-05
*RES
1 *1436:X *1536:A 32.2071 
*END

*D_NET *364 0.000668221
*CONN
*I *1537:A I *D sky130_fd_sc_hd__buf_2
*I *1437:A I *D sky130_fd_sc_hd__clkbuf_1
*I *1188:X O *D sky130_fd_sc_hd__or2_1
*CAP
1 *1537:A 0
2 *1437:A 8.61686e-05
3 *1188:X 0.000196105
4 *364:10 0.000282273
5 global_state_escalated *364:10 4.15914e-05
6 safe_led *364:10 6.20827e-05
7 *1490:A *364:10 0
8 *297:31 *364:10 0
*RES
1 *1188:X *364:10 22.3714 
2 *364:10 *1437:A 10.6571 
3 *364:10 *1537:A 9.3 
*END

*D_NET *365 0.000314895
*CONN
*I *1538:A I *D sky130_fd_sc_hd__buf_2
*I *1437:X O *D sky130_fd_sc_hd__clkbuf_1
*CAP
1 *1538:A 0.000114925
2 *1437:X 0.000114925
3 security_breach *1538:A 2.28904e-05
4 *297:21 *1538:A 4.1331e-06
5 *297:31 *1538:A 5.80217e-05
*RES
1 *1437:X *1538:A 30.0821 
*END

*D_NET *366 0.00493744
*CONN
*I *1539:A I *D sky130_fd_sc_hd__buf_2
*I *1457:A I *D sky130_fd_sc_hd__dlygate4sd3_1
*I *1192:A1 I *D sky130_fd_sc_hd__o31a_1
*I *1193:A I *D sky130_fd_sc_hd__nor2_1
*I *1296:A I *D sky130_fd_sc_hd__or3_2
*I *1378:A1 I *D sky130_fd_sc_hd__o31ai_1
*I *1426:Q O *D sky130_fd_sc_hd__dfxtp_1
*CAP
1 *1539:A 0.000119022
2 *1457:A 0
3 *1192:A1 8.19616e-06
4 *1193:A 7.45833e-06
5 *1296:A 0.000125937
6 *1378:A1 4.15695e-05
7 *1426:Q 0.000164068
8 *366:43 0.000437987
9 *366:28 0.000663826
10 *366:14 0.000408009
11 *366:10 0.000235406
12 *366:8 0.000436347
13 *1193:A *1296:B 5.7661e-06
14 *1193:A *367:32 1.40034e-05
15 *1296:A *1296:B 6.79057e-05
16 *1378:A1 *1296:B 0
17 *1378:A1 *1378:A2 7.71367e-05
18 *1378:A1 *367:32 5.52302e-05
19 *1539:A *1368:A2 0
20 *1539:A *1540:A 5.52302e-05
21 *366:10 *1368:A2 0
22 *366:14 *1192:A2 0.000128146
23 *366:28 *367:32 5.75803e-05
24 *366:43 *1296:B 2.24763e-05
25 *366:43 *367:32 0.000274162
26 sticky_illegal *1539:A 1.92905e-05
27 *1192:A3 *366:28 0.000681951
28 *1192:B1 *366:28 0.00036192
29 *1296:C *1193:A 0
30 *1296:C *1296:A 3.93247e-05
31 *1297:B1 *1296:A 1.33343e-05
32 *1378:B1 *1378:A1 1.62121e-05
33 *1378:B1 *366:28 1.74352e-05
34 *1381:D *366:8 3.12916e-05
35 *1381:D *366:10 0.000120636
36 *1381:D *366:14 6.65302e-05
37 *1509:A *366:28 9.34004e-05
38 *294:125 *366:14 0
39 *294:129 *366:8 1.35046e-05
40 *294:138 *366:8 5.71472e-05
*RES
1 *1426:Q *366:8 15.9786 
2 *366:8 *366:10 3.46429 
3 *366:10 *366:14 6.75 
4 *366:14 *366:28 19.5179 
5 *366:28 *1378:A1 10.675 
6 *366:28 *366:43 4.67857 
7 *366:43 *1296:A 11.9071 
8 *366:43 *1193:A 9.72857 
9 *366:14 *1192:A1 9.46964 
10 *366:10 *1457:A 13.8 
11 *366:8 *1539:A 15.9786 
*END

*D_NET *367 0.00541374
*CONN
*I *1540:A I *D sky130_fd_sc_hd__buf_2
*I *1460:A I *D sky130_fd_sc_hd__dlygate4sd3_1
*I *1193:B I *D sky130_fd_sc_hd__nor2_1
*I *1296:B I *D sky130_fd_sc_hd__or3_2
*I *1425:Q O *D sky130_fd_sc_hd__dfxtp_1
*CAP
1 *1540:A 0.000610854
2 *1460:A 4.07394e-05
3 *1193:B 0
4 *1296:B 0.000189352
5 *1425:Q 0.000283847
6 *367:32 0.000419392
7 *367:20 0.000599085
8 *367:12 0.00122301
9 *367:20 *1367:A1 0
10 *367:20 *1378:A2 4.58096e-05
11 *367:32 *1378:A2 6.87574e-05
12 group_error *1540:A 3.88139e-05
13 sticky_illegal *1540:A 2.65105e-05
14 sticky_tamper *1540:A 1.72894e-05
15 *1192:B1 *1460:A 9.80173e-05
16 *1192:B1 *367:20 1.33343e-05
17 *1193:A *1296:B 5.7661e-06
18 *1193:A *367:32 1.40034e-05
19 *1296:A *1296:B 6.79057e-05
20 *1296:C *1296:B 1.24368e-05
21 *1367:A2 *367:12 0
22 *1367:A2 *367:20 0
23 *1378:A1 *1296:B 0
24 *1378:A1 *367:32 5.52302e-05
25 *1378:B1 *367:32 0.00012401
26 *1426:D *367:20 0.000151333
27 *1433:A *367:12 0
28 *1470:A *367:12 0.000144773
29 *1480:A *1540:A 0.000144773
30 *1509:A *367:20 0.000118352
31 *1509:A *367:32 0.000153054
32 *1539:A *1540:A 5.52302e-05
33 *135:57 *367:20 3.34366e-05
34 *135:57 *367:32 0.00020042
35 *135:70 *367:20 0.000103993
36 *366:28 *367:32 5.75803e-05
37 *366:43 *1296:B 2.24763e-05
38 *366:43 *367:32 0.000274162
*RES
1 *1425:Q *367:12 23.05 
2 *367:12 *367:20 17.0536 
3 *367:20 *367:32 16.5179 
4 *367:32 *1296:B 13.05 
5 *367:32 *1193:B 9.3 
6 *367:20 *1460:A 10.2464 
7 *367:12 *1540:A 19.7107 
*END

*D_NET *368 0.000665111
*CONN
*I *1541:A I *D sky130_fd_sc_hd__buf_2
*I *1438:X O *D sky130_fd_sc_hd__clkbuf_1
*CAP
1 *1541:A 0.000277635
2 *1438:X 0.000277635
3 *1373:A *1541:A 5.62995e-05
4 *1408:CLK *1541:A 0
5 *1425:D *1541:A 5.35423e-05
6 *1433:A *1541:A 0
7 *1519:A *1541:A 0
*RES
1 *1438:X *1541:A 32.6179 
*END

*D_NET *369 0.0205305
*CONN
*I *1333:A I *D sky130_fd_sc_hd__and3_1
*I *1358:B I *D sky130_fd_sc_hd__and3b_1
*I *1355:A I *D sky130_fd_sc_hd__and3_1
*I *1366:A I *D sky130_fd_sc_hd__and2_1
*I *1364:B I *D sky130_fd_sc_hd__and3b_1
*I *1361:B I *D sky130_fd_sc_hd__and3b_1
*I *1352:C I *D sky130_fd_sc_hd__and3b_1
*I *1336:C I *D sky130_fd_sc_hd__and3b_1
*I *1339:A I *D sky130_fd_sc_hd__and3_1
*I *1321:B I *D sky130_fd_sc_hd__and2b_1
*I *1447:X O *D sky130_fd_sc_hd__clkbuf_2
*CAP
1 *1333:A 0.000293807
2 *1358:B 0.000242707
3 *1355:A 0
4 *1366:A 0.000369797
5 *1364:B 0
6 *1361:B 0.000553728
7 *1352:C 0.000161778
8 *1336:C 6.68033e-05
9 *1339:A 0.000419016
10 *1321:B 0.000139553
11 *1447:X 0.000274186
12 *369:106 0.000883043
13 *369:96 0.000925609
14 *369:92 0.000257413
15 *369:90 0.000953546
16 *369:61 0.00112388
17 *369:33 0.000528478
18 *369:31 0.000497317
19 *369:25 0.00195019
20 *369:12 0.00189765
21 *1339:A *372:20 0.0010524
22 *369:31 *372:20 0.00035746
23 *369:33 *372:20 9.66977e-05
24 *1170:A *369:25 9.24395e-05
25 *1301:A *369:96 0
26 *1301:A *369:106 0.000142082
27 *1309:C1 *369:25 0
28 *1316:B *369:25 0
29 *1339:C *1339:A 0.000158706
30 *1353:A *369:90 0.000131197
31 *1353:B *369:90 2.84109e-05
32 *1354:B *369:92 3.34295e-05
33 *1354:B *369:96 0.00015234
34 *1355:B *369:90 5.49553e-05
35 *1356:A2 *1358:B 0.000399835
36 *1357:A *1358:B 6.87574e-05
37 *1357:B *369:96 0
38 *1357:C *369:90 0
39 *1358:A_N *1358:B 5.52238e-05
40 *1361:C *1361:B 9.23894e-05
41 *1362:B *1361:B 9.9322e-05
42 *1363:B *369:106 7.6644e-05
43 *1363:C *1361:B 0.000133111
44 *1363:C *369:106 1.56e-05
45 *1409:D *1321:B 0.000187042
46 *1409:D *369:12 0.000151333
47 *1414:CLK *369:25 0
48 *1415:CLK *1339:A 3.18891e-05
49 *1415:D *1339:A 0.000186542
50 *1422:D *1361:B 2.51343e-06
51 *1439:A *1333:A 0.000613007
52 *1447:A *369:12 0.000478964
53 *1447:A *369:25 0
54 *1520:A *369:12 0
55 *1522:A *369:106 0.000342488
56 *1531:A *1336:C 0
57 *1531:A *369:61 0
58 *231:33 *369:25 0.000600059
59 *231:33 *369:31 0.00012401
60 *231:33 *369:61 0
61 *231:39 *369:61 0
62 *231:39 *369:90 0
63 *238:12 *369:25 0
64 *258:41 *369:25 0.000595176
65 *258:47 *369:25 0.000123946
66 *272:17 *369:90 0
67 *272:19 *369:90 0.000126439
68 *272:19 *369:92 2.24646e-05
69 *278:10 *1358:B 0.000615963
70 *292:105 *1321:B 5.52302e-05
71 *292:105 *369:25 0.00029971
72 *292:111 *369:25 3.17148e-05
73 *292:140 *369:25 0.000227729
74 *347:31 *369:96 0
75 *348:16 *1358:B 0.000117621
76 *348:31 *1358:B 2.89114e-05
77 *349:19 *369:106 0.000119618
78 *349:29 *1361:B 7.6644e-05
79 *358:10 *1339:A 0.000405733
80 *361:12 *1352:C 5.65955e-05
81 *362:10 *369:25 0.000103671
82 *362:23 *369:25 2.59795e-05
*RES
1 *1447:X *369:12 24.2464 
2 *369:12 *1321:B 12.3 
3 *369:12 *369:25 37.6786 
4 *369:25 *369:31 9.55357 
5 *369:31 *369:33 0.946429 
6 *369:33 *1339:A 23.1393 
7 *369:33 *1336:C 19.6393 
8 *369:31 *369:61 9.48214 
9 *369:61 *1352:C 15.6929 
10 *369:61 *369:90 20.75 
11 *369:90 *369:92 0.732143 
12 *369:92 *369:96 8.875 
13 *369:96 *369:106 16.5 
14 *369:106 *1361:B 26.1571 
15 *369:106 *1364:B 9.3 
16 *369:96 *1366:A 15.175 
17 *369:92 *1355:A 13.8 
18 *369:90 *1358:B 22.4607 
19 *369:25 *1333:A 19.675 
*END

*D_NET *370 0.00904062
*CONN
*I *1330:C I *D sky130_fd_sc_hd__and3b_1
*I *1327:A I *D sky130_fd_sc_hd__and3_1
*I *1324:A I *D sky130_fd_sc_hd__and3_1
*I *1345:A I *D sky130_fd_sc_hd__and3_1
*I *1348:A I *D sky130_fd_sc_hd__and3_1
*I *1342:C I *D sky130_fd_sc_hd__and3b_1
*I *1448:X O *D sky130_fd_sc_hd__buf_1
*CAP
1 *1330:C 0.000143048
2 *1327:A 0
3 *1324:A 0.000663042
4 *1345:A 0.000209841
5 *1348:A 0.000202297
6 *1342:C 0.00052344
7 *1448:X 0.000368667
8 *370:20 0.00097503
9 *370:18 0.000973612
10 *370:16 0.00117752
11 *370:14 0.000196141
12 *370:12 0.000707855
13 *1298:B *370:20 7.6644e-05
14 *1298:C *370:20 0
15 *1306:B *1348:A 4.72917e-05
16 *1306:C *1348:A 0.000227532
17 *1324:B *1324:A 5.03772e-05
18 *1324:C *1324:A 9.50968e-06
19 *1341:A2 *1342:C 0
20 *1345:C *1345:A 6.23306e-05
21 *1410:D *1324:A 0.000131562
22 *1417:D *1345:A 5.71472e-05
23 *1434:A *370:18 9.50762e-05
24 *1434:A *370:20 9.05381e-05
25 *1510:A *1324:A 0.000219774
26 *1510:A *370:18 0.000228428
27 *1530:A *1348:A 0.000313241
28 *1533:A *1345:A 5.33005e-05
29 *1535:A *370:18 0
30 *239:12 *370:20 0
31 *258:10 *370:12 0.00013966
32 *258:16 *370:12 3.34366e-05
33 *262:73 *1342:C 0
34 *292:46 *1330:C 0.000105471
35 *292:46 *370:14 0.000427199
36 *300:10 *1345:A 0.000140933
37 *345:12 *370:12 1.69115e-05
38 *354:12 *370:12 3.34687e-05
39 *354:14 *370:12 5.03772e-05
40 *355:49 *370:12 8.66868e-05
41 *356:24 *1342:C 0
42 *359:12 *1342:C 5.26091e-05
43 *359:12 *370:20 9.69119e-06
44 *359:16 *1348:A 0.000140933
45 *359:22 *370:20 0
46 *362:36 *370:18 0
47 *362:36 *370:20 0
*RES
1 *1448:X *370:12 25.4786 
2 *370:12 *370:14 4.23214 
3 *370:14 *370:16 4.5 
4 *370:16 *370:18 11.3571 
5 *370:18 *370:20 5.28571 
6 *370:20 *1342:C 22.3 
7 *370:20 *1348:A 19.6929 
8 *370:18 *1345:A 18.0321 
9 *370:16 *1324:A 28.1571 
10 *370:14 *1327:A 9.3 
11 *370:12 *1330:C 11.4786 
*END

*D_NET *371 0.0193793
*CONN
*I *1279:A1 I *D sky130_fd_sc_hd__a21oi_1
*I *1276:A1 I *D sky130_fd_sc_hd__a21oi_1
*I *1260:A1 I *D sky130_fd_sc_hd__a21oi_1
*I *1257:A1 I *D sky130_fd_sc_hd__a21oi_1
*I *1255:A1 I *D sky130_fd_sc_hd__a21oi_1
*I *1266:A1 I *D sky130_fd_sc_hd__a21oi_1
*I *1261:A3 I *D sky130_fd_sc_hd__a31o_1
*I *1252:A1 I *D sky130_fd_sc_hd__a21oi_1
*I *1249:A1 I *D sky130_fd_sc_hd__a21oi_1
*I *1247:A2 I *D sky130_fd_sc_hd__a21oi_1
*I *1449:X O *D sky130_fd_sc_hd__buf_2
*CAP
1 *1279:A1 0
2 *1276:A1 0
3 *1260:A1 5.28659e-05
4 *1257:A1 0
5 *1255:A1 0
6 *1266:A1 0
7 *1261:A3 0.000620214
8 *1252:A1 2.23854e-05
9 *1249:A1 0.000362616
10 *1247:A2 0.000169238
11 *1449:X 0.000202707
12 *371:87 0.00110353
13 *371:76 0.000802921
14 *371:63 0.00103419
15 *371:44 0.00081698
16 *371:38 0.000435953
17 *371:32 0.00079794
18 *371:24 0.0028043
19 *371:14 0.00236738
20 *371:6 0.000454018
21 *1247:A2 *1247:A1 0.000529796
22 *1247:A2 *1247:B1 9.71197e-05
23 *1247:A2 *373:79 0.000344611
24 *1249:A1 *1252:B1 0.000122047
25 *1260:A1 *1260:B1 5.52302e-05
26 *1261:A3 *1261:B1 9.41642e-05
27 *1261:A3 *1262:A1 0.000128161
28 *1261:A3 *1266:B1 0.000429375
29 *1261:A3 *373:31 3.17148e-05
30 *371:32 *1260:B1 1.17968e-05
31 *371:32 *373:63 0.000507343
32 *371:32 *373:69 5.17614e-05
33 *371:38 *373:69 0.000385
34 *371:44 *1247:A1 0.000253707
35 *371:44 *373:69 9.25014e-06
36 *371:44 *373:79 0.000463596
37 *371:63 *373:92 0
38 *371:76 *1252:B1 0.000186481
39 global_timeout_count[3] *371:87 1.74352e-05
40 global_timeout_count[5] *371:87 3.67257e-05
41 *1196:B *371:32 0
42 *1208:A *371:24 7.59642e-05
43 *1209:A1 *371:24 1.74352e-05
44 *1209:A3 *371:24 0.000122091
45 *1209:B1 *371:24 0.000227532
46 *1211:A3 *371:24 5.94896e-06
47 *1252:A2 *371:87 0.00014285
48 *1255:A2 *371:38 1.02504e-05
49 *1255:A2 *371:44 0.000127446
50 *1257:A2 *371:38 5.52302e-05
51 *1258:A2 *371:32 0
52 *1260:A2 *371:32 0.000150618
53 *1261:A1 *1261:A3 2.9561e-05
54 *1264:A3 *1261:A3 0
55 *1265:B *1261:A3 0
56 *1266:A2 *1261:A3 0.000344217
57 *1276:A2 *371:24 0.000151071
58 *1386:CLK *371:63 0
59 *1387:D *371:76 0.00010096
60 *1387:D *371:87 0.000235242
61 *1390:D *371:24 2.72083e-05
62 *1390:D *371:32 6.534e-05
63 *1392:D *1261:A3 0.000151333
64 *1392:D *371:87 2.89114e-05
65 *1396:D *371:14 0.000105626
66 *1449:A *371:6 0.000185643
67 *1501:A *371:76 2.89016e-05
68 *1503:A *371:38 0.000132487
69 *1503:A *371:44 0.000156272
70 *1503:A *371:63 0
71 *1505:A *1261:A3 0
72 *1526:A *1249:A1 0.000170964
73 *193:24 *371:14 0
74 *293:134 *371:14 3.69697e-05
75 *315:10 *371:63 0.000181368
76 *316:72 *371:24 9.16714e-05
77 *326:60 *371:24 0.00040381
78 *327:43 *371:24 1.38323e-05
79 *329:12 *1261:A3 0
*RES
1 *1449:X *371:6 11.8893 
2 *371:6 *371:14 12.625 
3 *371:14 *371:24 34.9018 
4 *371:24 *371:32 18.1161 
5 *371:32 *371:38 10.125 
6 *371:38 *371:44 13.375 
7 *371:44 *1247:A2 15.7464 
8 *371:44 *371:63 16.1071 
9 *371:63 *1249:A1 16.3179 
10 *371:63 *371:76 6.30357 
11 *371:76 *1252:A1 9.72857 
12 *371:76 *371:87 10.4107 
13 *371:87 *1261:A3 33.4607 
14 *371:87 *1266:A1 9.3 
15 *371:38 *1255:A1 13.8 
16 *371:32 *1257:A1 9.3 
17 *371:24 *1260:A1 14.6125 
18 *371:14 *1276:A1 9.3 
19 *371:6 *1279:A1 9.3 
*END

*D_NET *372 0.015064
*CONN
*I *1225:B I *D sky130_fd_sc_hd__or4_1
*I *398:DIODE I *D sky130_fd_sc_hd__diode_2
*I *1479:X O *D sky130_fd_sc_hd__buf_1
*CAP
1 *1225:B 0.0001223
2 *398:DIODE 0
3 *1479:X 0.000525533
4 *372:34 0.00122241
5 *372:20 0.00425353
6 *372:12 0.00367895
7 *372:20 *391:60 0.000878498
8 *372:34 *391:60 0.000409373
9 *1203:C *1225:B 8.25165e-05
10 *1203:C *372:34 2.89114e-05
11 *1206:A2 *372:34 0.000318101
12 *1216:B *372:34 0
13 *1218:B1 *372:34 0
14 *1225:A *1225:B 1.7859e-05
15 *1288:A2 *372:20 1.92789e-05
16 *1291:A2 *372:20 7.4953e-05
17 *1291:B1 *372:20 7.61932e-05
18 *1339:A *372:20 0.0010524
19 *1339:B *372:12 0
20 *1339:C *372:12 9.25014e-06
21 *1342:B *372:12 4.7024e-05
22 *1376:A *372:34 0.000335295
23 *1416:D *372:12 9.47931e-05
24 *1536:A *372:12 0
25 *163:8 *372:34 0.000819454
26 *163:12 *372:34 0
27 *174:10 *372:34 9.25014e-06
28 *225:14 *372:20 0.000217839
29 *262:29 *372:12 6.42338e-05
30 *262:73 *372:12 0.000175561
31 *302:22 *372:34 7.63758e-05
32 *358:39 *372:12 0
33 *369:31 *372:20 0.00035746
34 *369:33 *372:20 9.66977e-05
*RES
1 *1479:X *372:12 27.1929 
2 *372:12 *372:20 47.9286 
3 *372:20 *372:34 32.375 
4 *372:34 *398:DIODE 9.3 
5 *372:34 *1225:B 11.925 
*END

*D_NET *373 0.0211553
*CONN
*I *1279:B1 I *D sky130_fd_sc_hd__a21oi_1
*I *1260:B1 I *D sky130_fd_sc_hd__a21oi_1
*I *1257:B1 I *D sky130_fd_sc_hd__a21oi_1
*I *1255:B1 I *D sky130_fd_sc_hd__a21oi_1
*I *1252:B1 I *D sky130_fd_sc_hd__a21oi_1
*I *1249:B1 I *D sky130_fd_sc_hd__a21oi_1
*I *1247:B1 I *D sky130_fd_sc_hd__a21oi_1
*I *1261:B1 I *D sky130_fd_sc_hd__a31o_1
*I *1266:B1 I *D sky130_fd_sc_hd__a21oi_1
*I *1285:A I *D sky130_fd_sc_hd__nor2_1
*I *1450:X O *D sky130_fd_sc_hd__buf_2
*CAP
1 *1279:B1 0.000151921
2 *1260:B1 0.000193447
3 *1257:B1 2.23854e-05
4 *1255:B1 2.20821e-05
5 *1252:B1 0.000374131
6 *1249:B1 7.1926e-05
7 *1247:B1 5.1491e-05
8 *1261:B1 3.23816e-05
9 *1266:B1 0.000316059
10 *1285:A 0.000683989
11 *1450:X 0
12 *373:92 0.000834691
13 *373:79 0.000975914
14 *373:69 0.000732565
15 *373:63 0.000387839
16 *373:57 0.000626223
17 *373:31 0.000742114
18 *373:27 0.00173186
19 *373:10 0.00245908
20 *373:4 0.000830848
21 global_timeout_count[4] *1252:B1 9.90431e-05
22 group_timeout_count[15] *1249:B1 9.90431e-05
23 *1199:C *1285:A 4.58192e-05
24 *1201:A *373:27 6.05161e-06
25 *1201:B *1285:A 0.000152919
26 *1247:A2 *1247:B1 9.71197e-05
27 *1247:A2 *373:79 0.000344611
28 *1249:A1 *1252:B1 0.000122047
29 *1257:A2 *373:69 0.00013248
30 *1258:A2 *373:63 9.69119e-06
31 *1259:A *373:63 5.30637e-06
32 *1260:A1 *1260:B1 5.52302e-05
33 *1260:A2 *1260:B1 0.000141368
34 *1260:A2 *373:63 9.25014e-06
35 *1261:A1 *1261:B1 4.87953e-05
36 *1261:A3 *1261:B1 9.41642e-05
37 *1261:A3 *1266:B1 0.000429375
38 *1261:A3 *373:31 3.17148e-05
39 *1263:C *373:31 0
40 *1264:A3 *373:31 0
41 *1271:A *1285:A 0
42 *1272:A1 *373:27 1.40306e-05
43 *1272:A2 *373:27 0.000137515
44 *1272:B1 *373:27 8.3725e-05
45 *1273:B *373:27 0.000186669
46 *1274:A1 *1285:A 0
47 *1274:B1 *373:27 8.07397e-06
48 *1385:D *373:92 3.92757e-05
49 *1386:CLK *373:79 0
50 *1386:CLK *373:92 0.000412326
51 *1386:D *373:92 0
52 *1388:CLK *1255:B1 5.52238e-05
53 *1388:D *1255:B1 1.24368e-05
54 *1392:D *1266:B1 0.000153047
55 *1393:D *1285:A 0.000153047
56 *1395:D *1285:A 0
57 *1395:D *373:27 0.000224356
58 *1397:D *1279:B1 6.05161e-06
59 *1449:A *1279:B1 0.000127857
60 *1449:A *373:10 9.22103e-06
61 *1501:A *1252:B1 5.71472e-05
62 *1503:A *373:69 0
63 *1504:A *1266:B1 0.000967915
64 *1504:A *373:31 0.000199558
65 *1526:A *1249:B1 0.000230475
66 *1526:A *1252:B1 5.52302e-05
67 *1526:A *373:92 0
68 *161:14 *373:27 0.000218746
69 *193:24 *373:10 1.74352e-05
70 *193:30 *373:10 0.000118604
71 *196:18 *373:69 0.000203533
72 *196:18 *373:79 8.16036e-05
73 *196:22 *373:57 0.000140933
74 *196:22 *373:63 0.000972351
75 *196:22 *373:69 0.000227539
76 *196:43 *373:27 0.00040381
77 *196:43 *373:31 0
78 *196:43 *373:57 0.000162795
79 *196:45 *373:31 0
80 *198:22 *373:10 9.76689e-05
81 *198:35 *373:10 4.13496e-05
82 *291:76 *373:79 0
83 *293:67 *1285:A 9.36066e-05
84 *293:67 *373:10 2.34204e-05
85 *293:73 *1285:A 0.000167588
86 *315:10 *373:79 0.000103267
87 *326:34 *1260:B1 4.38027e-05
88 *326:60 *1260:B1 0
89 *327:10 *373:31 4.78056e-05
90 *327:12 *373:31 7.6021e-05
91 *371:32 *1260:B1 1.17968e-05
92 *371:32 *373:63 0.000507343
93 *371:32 *373:69 5.17614e-05
94 *371:38 *373:69 0.000385
95 *371:44 *373:69 9.25014e-06
96 *371:44 *373:79 0.000463596
97 *371:63 *373:92 0
98 *371:76 *1252:B1 0.000186481
*RES
1 *1450:X *373:4 9.3 
2 *373:4 *373:10 13.4643 
3 *373:10 *1285:A 29.4071 
4 *373:10 *373:27 23.25 
5 *373:27 *373:31 12.5179 
6 *373:31 *1266:B1 26.6036 
7 *373:31 *1261:B1 14.7464 
8 *373:27 *373:57 7.92857 
9 *373:57 *373:63 14.3929 
10 *373:63 *373:69 11.9643 
11 *373:69 *373:79 16.1964 
12 *373:79 *1247:B1 10.2464 
13 *373:79 *373:92 17.3214 
14 *373:92 *1249:B1 11.4786 
15 *373:92 *1252:B1 17.6393 
16 *373:69 *1255:B1 14.3357 
17 *373:63 *1257:B1 9.72857 
18 *373:57 *1260:B1 17.8179 
19 *373:4 *1279:B1 12.6393 
*END

*D_NET *374 0.00207573
*CONN
*I *1369:A3 I *D sky130_fd_sc_hd__a31o_1
*I *1317:B I *D sky130_fd_sc_hd__nand2b_1
*I *1542:X O *D sky130_fd_sc_hd__clkbuf_1
*CAP
1 *1369:A3 0.000289624
2 *1317:B 0.000204221
3 *1542:X 0.000402442
4 *374:8 0.000896287
5 *1320:B *374:8 0
6 *1427:D *1369:A3 2.89016e-05
7 *1441:A *1317:B 0
8 *1441:A *1369:A3 5.33005e-05
9 *139:24 *374:8 0
10 *237:20 *1317:B 0
11 *237:20 *374:8 0
12 *250:10 *1317:B 0
13 *250:10 *374:8 0
14 *292:147 *1317:B 0.000200956
*RES
1 *1542:X *374:8 20.6036 
2 *374:8 *1317:B 17.9518 
3 *374:8 *1369:A3 18.4429 
*END

*D_NET *375 0.0162342
*CONN
*I *1210:B I *D sky130_fd_sc_hd__or2_1
*I *1237:B I *D sky130_fd_sc_hd__nor2_1
*I *1234:C1 I *D sky130_fd_sc_hd__a221o_1
*I *1194:A I *D sky130_fd_sc_hd__or3b_1
*I *1286:B1 I *D sky130_fd_sc_hd__a21oi_1
*I *1164:A I *D sky130_fd_sc_hd__inv_2
*I *1370:A I *D sky130_fd_sc_hd__nor2_1
*I *1318:A I *D sky130_fd_sc_hd__nor2_1
*I *1372:A I *D sky130_fd_sc_hd__nor3_1
*I *1369:B1 I *D sky130_fd_sc_hd__a31o_1
*I *1451:X O *D sky130_fd_sc_hd__buf_2
*CAP
1 *1210:B 8.02978e-05
2 *1237:B 3.00142e-05
3 *1234:C1 8.55671e-05
4 *1194:A 0
5 *1286:B1 0.000285934
6 *1164:A 0
7 *1370:A 0.00067619
8 *1318:A 2.23854e-05
9 *1372:A 0
10 *1369:B1 5.85862e-05
11 *1451:X 0.000220117
12 *375:89 0.000352202
13 *375:54 0.00130821
14 *375:41 0.000767731
15 *375:30 0.000450968
16 *375:28 0.000575155
17 *375:26 0.00104688
18 *375:20 0.00124747
19 *375:14 0.000898701
20 *375:8 0.000646941
21 *375:14 *1210:A 0.000350361
22 *375:20 *1431:D 0
23 *375:26 *396:12 0
24 *1171:C *375:54 0
25 *1185:A *1370:A 0.000303747
26 *1192:A3 *375:20 0
27 *1192:A3 *375:26 0
28 *1194:B *375:89 0.000168939
29 *1234:A1 *375:26 0.000205103
30 *1234:A2 *1234:C1 0
31 *1234:B1 *375:26 0.00010326
32 *1234:B2 *1234:C1 1.28809e-05
33 *1234:B2 *375:26 0.000126439
34 *1286:A1 *1286:B1 4.87854e-05
35 *1295:D *375:54 0.000198502
36 *1315:B *1370:A 1.25355e-05
37 *1318:B *375:54 0.000230475
38 *1320:A *1370:A 5.71472e-05
39 *1320:C *1370:A 7.92064e-05
40 *1320:C *375:54 2.89114e-05
41 *1320:D *1370:A 0
42 *1369:A1 *1369:B1 0.000140933
43 *1369:A1 *375:28 0.00079608
44 *1369:A1 *375:30 0.000618912
45 *1373:B *1370:A 0
46 *1378:A3 *375:89 0.000168939
47 *1380:A2 *1286:B1 0
48 *1380:B1 *375:26 0.000184745
49 *1403:D *375:8 0.000153047
50 *1405:CLK *1237:B 3.57366e-05
51 *1405:CLK *375:14 0.000416836
52 *1405:CLK *375:20 0.000118604
53 *1407:D *375:14 5.71472e-05
54 *1407:D *375:20 1.33343e-05
55 *1429:CLK *375:41 0.000192214
56 *1429:CLK *375:54 1.99099e-05
57 *1430:CLK *1370:A 0.00044468
58 *1430:D *1370:A 0
59 *1431:CLK *375:20 0.000228558
60 *1432:D *375:26 0
61 *1443:A *375:28 0.000487473
62 *1458:A *375:8 0
63 *1482:A *375:8 0
64 *1488:A *375:14 0
65 *1512:A *1370:A 0.000140933
66 *1515:A *1370:A 0
67 *138:10 *375:54 6.41079e-05
68 *138:12 *375:41 4.94455e-05
69 *138:12 *375:54 0.000170001
70 *138:16 *375:41 8.04913e-05
71 *145:27 *1286:B1 0.00019501
72 *145:36 *1286:B1 0
73 *152:8 *375:26 0.000113083
74 *153:23 *375:28 0.000255062
75 *294:23 *375:26 0
76 *294:73 *375:26 0
77 *294:84 *375:20 0
78 *294:84 *375:26 0
79 *294:99 *375:20 0
80 *302:16 *375:26 0.000226156
81 *302:16 *375:28 0.000105559
82 *305:6 *375:20 1.15172e-05
83 *305:101 *1210:B 5.52302e-05
84 *305:101 *375:14 1.08359e-05
85 *335:10 *375:54 0
86 *336:12 *1370:A 0
87 *336:27 *375:54 0
88 *336:56 *1370:A 0
89 *338:10 *1370:A 0
*RES
1 *1451:X *375:8 18.175 
2 *375:8 *375:14 13.1071 
3 *375:14 *375:20 14.8393 
4 *375:20 *375:26 18.875 
5 *375:26 *375:28 11.2143 
6 *375:28 *375:30 5.875 
7 *375:30 *1369:B1 10.6571 
8 *375:30 *375:41 9.17857 
9 *375:41 *1372:A 13.8 
10 *375:41 *375:54 17.9464 
11 *375:54 *1318:A 9.72857 
12 *375:54 *1370:A 33.0679 
13 *375:28 *1164:A 9.3 
14 *375:26 *375:89 11.25 
15 *375:89 *1286:B1 14.925 
16 *375:89 *1194:A 9.3 
17 *375:20 *1234:C1 15.175 
18 *375:14 *1237:B 10.0321 
19 *375:8 *1210:B 15.1571 
*END

*D_NET *376 0.00118298
*CONN
*I *1297:A1 I *D sky130_fd_sc_hd__o21a_1
*I *1452:X O *D sky130_fd_sc_hd__dlygate4sd3_1
*CAP
1 *1297:A1 0.000454344
2 *1452:X 0.000454344
3 *1408:D *1297:A1 0
4 *135:21 *1297:A1 0
5 *135:40 *1297:A1 0.000274294
6 *302:104 *1297:A1 0
*RES
1 *1452:X *1297:A1 33.8857 
*END

*D_NET *377 0.000828849
*CONN
*I *1192:A2 I *D sky130_fd_sc_hd__o31a_1
*I *1458:X O *D sky130_fd_sc_hd__dlygate4sd3_1
*CAP
1 *1192:A2 0.000350351
2 *1458:X 0.000350351
3 *366:14 *1192:A2 0.000128146
*RES
1 *1458:X *1192:A2 32.2429 
*END

*D_NET *378 0.000887434
*CONN
*I *1161:A I *D sky130_fd_sc_hd__inv_2
*I *1459:X O *D sky130_fd_sc_hd__dlygate4sd3_1
*CAP
1 *1161:A 0.000368408
2 *1459:X 0.000368408
3 *1237:A *1161:A 0.000150618
4 *1407:D *1161:A 0
5 *1488:A *1161:A 0
6 *294:84 *1161:A 0
7 *294:99 *1161:A 0
8 *294:112 *1161:A 0
9 *294:125 *1161:A 0
*RES
1 *1459:X *1161:A 33.3321 
*END

*D_NET *379 0.00189089
*CONN
*I *1378:A2 I *D sky130_fd_sc_hd__o31ai_1
*I *1367:A1 I *D sky130_fd_sc_hd__o21a_1
*I *1460:X O *D sky130_fd_sc_hd__dlygate4sd3_1
*CAP
1 *1378:A2 0.000349961
2 *1367:A1 0.00039455
3 *1460:X 0
4 *379:4 0.000744511
5 *1378:A1 *1378:A2 7.71367e-05
6 *1378:B1 *1378:A2 0.00013438
7 *135:21 *1378:A2 0
8 *135:57 *1378:A2 7.57806e-05
9 *367:20 *1367:A1 0
10 *367:20 *1378:A2 4.58096e-05
11 *367:32 *1378:A2 6.87574e-05
*RES
1 *1460:X *379:4 9.3 
2 *379:4 *1367:A1 23.3536 
3 *379:4 *1378:A2 26.1661 
*END

*D_NET *380 0.000244418
*CONN
*I *1431:D I *D sky130_fd_sc_hd__dfxtp_2
*I *1461:X O *D sky130_fd_sc_hd__dlygate4sd3_1
*CAP
1 *1431:D 6.8061e-05
2 *1461:X 6.8061e-05
3 *1192:A3 *1431:D 0.000104974
4 *1431:CLK *1431:D 3.32132e-06
5 *375:20 *1431:D 0
*RES
1 *1461:X *1431:D 29.1045 
*END

*D_NET *381 0.00162217
*CONN
*I *1247:A1 I *D sky130_fd_sc_hd__a21oi_1
*I *1462:X O *D sky130_fd_sc_hd__dlygate4sd3_1
*CAP
1 *1247:A1 0.000344021
2 *1462:X 0.000344021
3 *1247:A2 *1247:A1 0.000529796
4 *315:10 *1247:A1 0.000150625
5 *371:44 *1247:A1 0.000253707
*RES
1 *1462:X *1247:A1 36.2607 
*END

*D_NET *382 0.00062992
*CONN
*I *1281:A1 I *D sky130_fd_sc_hd__o211a_1
*I *1463:X O *D sky130_fd_sc_hd__dlygate4sd3_1
*CAP
1 *1281:A1 0.000213421
2 *1463:X 0.000213421
3 *1281:B1 *1281:A1 0.000185643
4 *1398:D *1281:A1 1.74352e-05
*RES
1 *1463:X *1281:A1 22.8321 
*END

*D_NET *383 0.000797742
*CONN
*I *1368:A2 I *D sky130_fd_sc_hd__o21a_1
*I *1480:X O *D sky130_fd_sc_hd__clkbuf_1
*CAP
1 *1368:A2 0.000370065
2 *1480:X 0.000370065
3 *1368:A2 *1368:A1 5.76121e-05
4 *1509:A *1368:A2 0
5 *1539:A *1368:A2 0
6 *366:10 *1368:A2 0
*RES
1 *1480:X *1368:A2 33.2429 
*END

*D_NET *384 0.00191066
*CONN
*I *1163:A I *D sky130_fd_sc_hd__inv_2
*I *1464:X O *D sky130_fd_sc_hd__dlygate4sd3_1
*CAP
1 *1163:A 0.000671907
2 *1464:X 0.000671907
3 *1207:B2 *1163:A 0
4 *1379:A *1163:A 0
5 *1383:CLK *1163:A 0.00014285
6 *133:23 *1163:A 0
7 *133:45 *1163:A 0
8 *143:10 *1163:A 7.6644e-05
9 *143:12 *1163:A 9.25014e-06
10 *148:10 *1163:A 3.52655e-05
11 *305:27 *1163:A 0.000302834
12 *309:40 *1163:A 0
13 *310:73 *1163:A 0
14 *312:12 *1163:A 0
*RES
1 *1464:X *1163:A 40.3143 
*END

*D_NET *385 0.00103322
*CONN
*I *1291:B2 I *D sky130_fd_sc_hd__o221a_1
*I *1465:X O *D sky130_fd_sc_hd__dlygate4sd3_1
*CAP
1 *1291:B2 0.000260156
2 *1465:X 0.000260156
3 *1291:B2 *1465:A 0.000193592
4 *1291:B2 *392:10 0.000315179
5 *1291:C1 *1291:B2 4.1331e-06
6 *138:16 *1291:B2 0
7 *343:8 *1291:B2 0
*RES
1 *1465:X *1291:B2 34.1 
*END

*D_NET *386 0.001127
*CONN
*I *1284:B1 I *D sky130_fd_sc_hd__a21oi_1
*I *1453:X O *D sky130_fd_sc_hd__dlygate4sd3_1
*CAP
1 *1284:B1 0.000340092
2 *1453:X 0.000340092
3 *1282:A_N *1284:B1 3.48705e-05
4 *1282:B *1284:B1 4.72538e-05
5 *1283:B1 *1284:B1 2.88018e-06
6 *1284:A2 *1284:B1 0.000127043
7 *1285:B *1284:B1 7.34868e-05
8 *1400:D *1284:B1 5.81058e-05
9 *200:25 *1284:B1 9.71197e-05
10 *322:12 *1284:B1 6.05161e-06
*RES
1 *1453:X *1284:B1 24.2964 
*END

*D_NET *387 9.34293e-05
*CONN
*I *1162:A I *D sky130_fd_sc_hd__inv_2
*I *1454:X O *D sky130_fd_sc_hd__dlygate4sd3_1
*CAP
1 *1162:A 1.8141e-05
2 *1454:X 1.8141e-05
3 *1475:A *1162:A 5.71472e-05
*RES
1 *1454:X *1162:A 19.1357 
*END

*D_NET *388 0.00096949
*CONN
*I *1210:A I *D sky130_fd_sc_hd__or2_1
*I *1455:X O *D sky130_fd_sc_hd__dlygate4sd3_1
*CAP
1 *1210:A 0.00014978
2 *1455:X 0.00014978
3 *1405:CLK *1210:A 2.44318e-05
4 *305:101 *1210:A 0.000295137
5 *375:14 *1210:A 0.000350361
*RES
1 *1455:X *1210:A 32.3143 
*END

*D_NET *389 0.000576257
*CONN
*I *1262:A1 I *D sky130_fd_sc_hd__o21ba_1
*I *1456:X O *D sky130_fd_sc_hd__dlygate4sd3_1
*CAP
1 *1262:A1 0.000224048
2 *1456:X 0.000224048
3 *1261:A3 *1262:A1 0.000128161
4 *329:12 *1262:A1 0
*RES
1 *1456:X *1262:A1 31.4214 
*END

*D_NET *390 0.000171099
*CONN
*I *1368:A1 I *D sky130_fd_sc_hd__o21a_1
*I *1457:X O *D sky130_fd_sc_hd__dlygate4sd3_1
*CAP
1 *1368:A1 5.67437e-05
2 *1457:X 5.67437e-05
3 *1368:A2 *1368:A1 5.76121e-05
*RES
1 *1457:X *1368:A1 19.9571 
*END

*D_NET *391 0.00755654
*CONN
*I *1205:A1 I *D sky130_fd_sc_hd__o21ba_1
*I *1216:A I *D sky130_fd_sc_hd__or2_1
*I *1287:A2 I *D sky130_fd_sc_hd__a21boi_1
*I *1290:A1 I *D sky130_fd_sc_hd__o211a_1
*I *1289:B1 I *D sky130_fd_sc_hd__o21ai_1
*I *1288:B1 I *D sky130_fd_sc_hd__o21a_1
*I *1401:Q O *D sky130_fd_sc_hd__dfxtp_1
*CAP
1 *1205:A1 0.00049566
2 *1216:A 0
3 *1287:A2 0
4 *1290:A1 8.01502e-05
5 *1289:B1 0
6 *1288:B1 9.08482e-05
7 *1401:Q 0
8 *391:60 0.00102631
9 *391:30 0.000102536
10 *391:10 0.000181775
11 *391:8 0.000617853
12 *391:4 0.00103519
13 *1290:A1 *392:10 4.56437e-05
14 *1290:A1 *392:28 8.00806e-05
15 *1207:B2 *1205:A1 0.000146395
16 *1207:C1 *1205:A1 0.000123288
17 *1216:B *1205:A1 0.000186662
18 *1218:B1 *391:60 6.94388e-05
19 *1227:A2 *391:60 3.51531e-05
20 *1227:A3 *391:60 5.33005e-05
21 *1227:B1 *1205:A1 0.000174935
22 *1227:B1 *391:60 0.000440718
23 *1287:B1_N *1290:A1 0.000175512
24 *1287:B1_N *391:10 9.71197e-05
25 *1290:B1 *1288:B1 4.25809e-05
26 *1291:C1 *1288:B1 2.6949e-05
27 *1401:CLK *391:8 0.000266835
28 *1401:D *1290:A1 0
29 *163:12 *1205:A1 0
30 *171:18 *1288:B1 3.18676e-05
31 *171:18 *1290:A1 9.60939e-05
32 *171:18 *391:8 9.22103e-06
33 *171:18 *391:10 5.36783e-05
34 *171:18 *391:60 8.70757e-05
35 *225:14 *391:60 0.000120439
36 *226:6 *1288:B1 2.89114e-05
37 *226:6 *391:10 0.000100625
38 *226:12 *1288:B1 0.000101545
39 *343:8 *1288:B1 1.41706e-05
40 *343:12 *1288:B1 3.01126e-05
41 *372:20 *391:60 0.000878498
42 *372:34 *391:60 0.000409373
*RES
1 *1401:Q *391:4 9.3 
2 *391:4 *391:8 7.42857 
3 *391:8 *391:10 3 
4 *391:10 *1288:B1 21.3893 
5 *391:10 *1289:B1 9.3 
6 *391:8 *391:30 0.428571 
7 *391:30 *1290:A1 21.4964 
8 *391:30 *1287:A2 9.3 
9 *391:4 *391:60 25.1786 
10 *391:60 *1216:A 9.3 
11 *391:60 *1205:A1 28.2286 
*END

*D_NET *392 0.00969012
*CONN
*I *1465:A I *D sky130_fd_sc_hd__dlygate4sd3_1
*I *1287:A1 I *D sky130_fd_sc_hd__a21boi_1
*I *1203:A I *D sky130_fd_sc_hd__or3_1
*I *1402:Q O *D sky130_fd_sc_hd__dfxtp_1
*CAP
1 *1465:A 0.000259776
2 *1287:A1 0
3 *1203:A 0
4 *1402:Q 9.31311e-05
5 *392:28 0.00268112
6 *392:10 0.00308944
7 *392:8 0.000761223
8 *1203:B *392:28 6.74911e-05
9 *1205:A2 *392:28 0.000264421
10 *1222:C_N *392:28 0.000185258
11 *1290:A1 *392:10 4.56437e-05
12 *1290:A1 *392:28 8.00806e-05
13 *1290:B1 *392:10 0
14 *1291:A1 *392:10 9.24395e-05
15 *1291:B2 *1465:A 0.000193592
16 *1291:B2 *392:10 0.000315179
17 *1291:C1 *392:10 0
18 *1401:D *392:10 0
19 *1401:D *392:28 0.00014285
20 *1402:D *1465:A 0
21 *1402:D *392:10 0
22 *1491:A *392:28 3.57315e-05
23 *138:16 *1465:A 0
24 *163:14 *392:28 0.000604945
25 *164:6 *392:28 0.000180764
26 *170:8 *392:28 9.71197e-05
27 *193:10 *392:28 6.74911e-05
28 *306:14 *392:28 9.02133e-05
29 *306:29 *392:28 0.000326614
30 *339:14 *392:28 1.56e-05
*RES
1 *1402:Q *392:8 14.7464 
2 *392:8 *392:10 7.41071 
3 *392:10 *392:28 46.5893 
4 *392:28 *1203:A 13.8 
5 *392:10 *1287:A1 13.8 
6 *392:8 *1465:A 19.1393 
*END

*D_NET *393 0.000376397
*CONN
*I *1230:B I *D sky130_fd_sc_hd__xor2_1
*I *1403:Q O *D sky130_fd_sc_hd__dfxtp_1
*CAP
1 *1230:B 0.000116217
2 *1403:Q 0.000116217
3 *1231:B1 *1230:B 0
4 *1485:A *1230:B 0.000143963
5 *297:21 *1230:B 0
*RES
1 *1403:Q *1230:B 29.7786 
*END

*D_NET *394 0.000803772
*CONN
*I *1236:A2 I *D sky130_fd_sc_hd__o221a_1
*I *1235:A2_N I *D sky130_fd_sc_hd__o2bb2a_1
*I *1404:Q O *D sky130_fd_sc_hd__dfxtp_1
*CAP
1 *1236:A2 8.18122e-05
2 *1235:A2_N 0.00010052
3 *1404:Q 0
4 *394:4 0.000182332
5 *1235:A2_N *1236:B1 1.78353e-05
6 *1235:B1 *1235:A2_N 0
7 *1236:B2 *1236:A2 6.62868e-05
8 *1236:C1 *1235:A2_N 0.000127446
9 *1238:B *1236:A2 0.000227539
10 *136:10 *1235:A2_N 0
*RES
1 *1404:Q *394:4 9.3 
2 *394:4 *1235:A2_N 20.55 
3 *394:4 *1236:A2 11.9071 
*END

*D_NET *395 0.00217565
*CONN
*I *1231:A2 I *D sky130_fd_sc_hd__a21o_1
*I *1236:B1 I *D sky130_fd_sc_hd__o221a_1
*I *1405:Q O *D sky130_fd_sc_hd__dfxtp_1
*CAP
1 *1231:A2 0
2 *1236:B1 0.000431894
3 *1405:Q 0.000314366
4 *395:12 0.00074626
5 *1231:B1 *395:12 4.48206e-05
6 *1235:A2_N *1236:B1 1.78353e-05
7 *1236:C1 *1236:B1 5.80706e-06
8 *1238:A *1236:B1 2.89016e-05
9 *1293:A *1236:B1 2.8428e-05
10 *1405:D *395:12 9.41642e-05
11 *1487:A *1236:B1 0
12 *133:62 *1236:B1 0.000337449
13 *136:10 *1236:B1 0
14 *297:21 *395:12 0.000115474
15 *297:31 *395:12 1.02504e-05
*RES
1 *1405:Q *395:12 22.9429 
2 *395:12 *1236:B1 27.5679 
3 *395:12 *1231:A2 9.3 
*END

*D_NET *396 0.00122325
*CONN
*I *1233:B I *D sky130_fd_sc_hd__or2_1
*I *1232:B I *D sky130_fd_sc_hd__nand2_1
*I *1406:Q O *D sky130_fd_sc_hd__dfxtp_1
*CAP
1 *1233:B 0
2 *1232:B 0.000119867
3 *1406:Q 0.000377756
4 *396:12 0.000497622
5 *1192:A3 *396:12 8.15939e-05
6 *309:23 *1232:B 5.33433e-05
7 *309:32 *1232:B 7.32955e-05
8 *309:38 *1232:B 1.97695e-05
9 *375:26 *396:12 0
*RES
1 *1406:Q *396:12 23.2464 
2 *396:12 *1232:B 12.3357 
3 *396:12 *1233:B 9.3 
*END

*D_NET *397 0.000311193
*CONN
*I *1165:A I *D sky130_fd_sc_hd__inv_2
*I *1407:Q O *D sky130_fd_sc_hd__dfxtp_1
*CAP
1 *1165:A 8.02839e-05
2 *1407:Q 8.02839e-05
3 *1487:A *1165:A 0
4 *305:101 *1165:A 0.000150625
*RES
1 *1407:Q *1165:A 29.5464 
*END
