*SPEF "ieee 1481-1999"
*DESIGN "secure_boot_system_wrapper"
*DATE "03:19:40 Friday February 20, 2026"
*VENDOR "The OpenROAD Project"
*PROGRAM "OpenROAD"
*VERSION "edf00dff99f6c40d67a30c0e22a8191c5d2ed9d6"
*DESIGN_FLOW "NAME_SCOPE LOCAL" "PIN_CAP NONE"
*DIVIDER /
*DELIMITER :
*BUS_DELIMITER []
*T_UNIT 1 NS
*C_UNIT 1 PF
*R_UNIT 1 OHM
*L_UNIT 1 HENRY

*NAME_MAP
*3 clk
*4 clock_glitch
*5 cold_reset_req
*6 debug_enable
*7 file_denied
*8 fsm_error
*9 fw_fail
*10 fw_ok
*11 global_pin_ok
*12 global_state_authorized
*13 global_state_bits[0]
*14 global_state_bits[1]
*15 global_state_bits[2]
*16 global_state_bits[3]
*17 global_state_bits[4]
*18 global_state_boot
*19 global_state_escalated
*20 global_state_locked
*21 global_state_safe_mode
*22 global_timeout_count[0]
*23 global_timeout_count[10]
*24 global_timeout_count[11]
*25 global_timeout_count[12]
*26 global_timeout_count[13]
*27 global_timeout_count[14]
*28 global_timeout_count[15]
*29 global_timeout_count[1]
*30 global_timeout_count[2]
*31 global_timeout_count[3]
*32 global_timeout_count[4]
*33 global_timeout_count[5]
*34 global_timeout_count[6]
*35 global_timeout_count[7]
*36 global_timeout_count[8]
*37 global_timeout_count[9]
*38 group_autolock
*39 group_error
*40 group_locked
*41 group_state_bits[0]
*42 group_state_bits[1]
*43 group_state_bits[2]
*44 group_state_bits[3]
*45 group_state_disabled
*46 group_state_locked
*47 group_state_suspended
*48 group_state_unlocked
*49 group_suspended
*50 group_timeout_count[0]
*51 group_timeout_count[10]
*52 group_timeout_count[11]
*53 group_timeout_count[12]
*54 group_timeout_count[13]
*55 group_timeout_count[14]
*56 group_timeout_count[15]
*57 group_timeout_count[1]
*58 group_timeout_count[2]
*59 group_timeout_count[3]
*60 group_timeout_count[4]
*61 group_timeout_count[5]
*62 group_timeout_count[6]
*63 group_timeout_count[7]
*64 group_timeout_count[8]
*65 group_timeout_count[9]
*66 group_unlocked
*67 hdr_parse_fail
*68 illegal_in
*69 power_glitch
*70 reset
*71 safe_led
*72 security_breach
*73 size_mismatch
*74 sticky_illegal
*75 sticky_tamper
*76 tamper_in
*77 unlock_enable
*78 unlock_req
*79 warm_reset_req
*80 _000_
*81 _001_
*82 _002_
*83 _003_
*84 _004_
*85 _005_
*86 _006_
*87 _007_
*88 _008_
*89 _009_
*90 _010_
*91 _011_
*92 _012_
*93 _013_
*94 _014_
*95 _015_
*96 _016_
*97 _017_
*98 _018_
*99 _019_
*100 _020_
*101 _021_
*102 _022_
*103 _023_
*104 _024_
*105 _025_
*106 _026_
*107 _027_
*108 _028_
*109 _029_
*110 _030_
*111 _031_
*112 _032_
*113 _033_
*114 _034_
*115 _035_
*116 _036_
*117 _037_
*118 _038_
*119 _039_
*120 _040_
*121 _041_
*122 _042_
*123 _043_
*124 _044_
*125 _045_
*126 _046_
*127 _047_
*128 _048_
*129 _049_
*130 _050_
*131 _051_
*132 _052_
*133 _053_
*134 _054_
*135 _055_
*136 _056_
*137 _057_
*138 _058_
*139 _059_
*140 _060_
*141 _061_
*142 _062_
*143 _063_
*144 _064_
*145 _065_
*146 _066_
*147 _067_
*148 _068_
*149 _069_
*150 _070_
*151 _071_
*152 _072_
*153 _073_
*154 _074_
*155 _075_
*156 _076_
*157 _077_
*158 _078_
*159 _079_
*160 _080_
*161 _081_
*162 _082_
*163 _083_
*164 _084_
*165 _085_
*166 _086_
*167 _087_
*168 _088_
*169 _089_
*170 _090_
*171 _091_
*172 _092_
*173 _093_
*174 _094_
*175 _095_
*176 _096_
*177 _097_
*178 _098_
*179 _099_
*180 _100_
*181 _101_
*182 _102_
*183 _103_
*184 _104_
*185 _105_
*186 _106_
*187 _107_
*188 _108_
*189 _109_
*190 _110_
*191 _111_
*192 _112_
*193 _113_
*194 _114_
*195 _115_
*196 _116_
*197 _117_
*198 _118_
*199 _119_
*200 _120_
*201 _121_
*202 _122_
*203 _123_
*204 _124_
*205 _125_
*206 _126_
*207 _127_
*208 _128_
*209 _129_
*210 _130_
*211 _131_
*212 _132_
*213 _133_
*214 _134_
*215 _135_
*216 _136_
*217 _137_
*218 _138_
*219 _139_
*220 _140_
*221 _141_
*222 _142_
*223 _143_
*224 _144_
*225 _145_
*226 _146_
*227 _147_
*228 _148_
*229 _149_
*230 _150_
*231 _151_
*232 _152_
*233 _153_
*234 _154_
*235 _155_
*236 _156_
*237 _157_
*238 _158_
*239 _159_
*240 _160_
*241 _161_
*242 _162_
*243 _163_
*244 _164_
*245 _165_
*246 _166_
*247 _167_
*248 _168_
*249 _169_
*250 _170_
*251 _171_
*252 _172_
*253 _173_
*254 _174_
*255 _175_
*256 _176_
*257 _177_
*258 _178_
*259 _179_
*260 _180_
*261 _181_
*262 _182_
*263 _183_
*264 _184_
*265 _185_
*266 _186_
*267 _187_
*268 _188_
*269 _189_
*270 _190_
*271 _191_
*272 _192_
*273 _193_
*274 _194_
*275 _195_
*276 _196_
*277 _197_
*278 _198_
*279 _199_
*280 _200_
*281 _201_
*282 _202_
*283 _203_
*284 _204_
*285 _205_
*286 _206_
*287 _207_
*288 _208_
*289 _209_
*290 clknet_0_clk
*291 clknet_2_0__leaf_clk
*292 clknet_2_1__leaf_clk
*293 clknet_2_2__leaf_clk
*294 clknet_2_3__leaf_clk
*295 net1
*296 net10
*297 net11
*298 net12
*299 net13
*300 net14
*301 net15
*302 net16
*303 net17
*304 net18
*305 net19
*306 net2
*307 net20
*308 net21
*309 net22
*310 net23
*311 net24
*312 net25
*313 net26
*314 net27
*315 net28
*316 net29
*317 net3
*318 net30
*319 net31
*320 net32
*321 net33
*322 net34
*323 net35
*324 net36
*325 net37
*326 net38
*327 net39
*328 net4
*329 net40
*330 net41
*331 net42
*332 net43
*333 net44
*334 net45
*335 net46
*336 net47
*337 net48
*338 net49
*339 net5
*340 net50
*341 net51
*342 net52
*343 net53
*344 net54
*345 net55
*346 net56
*347 net57
*348 net58
*349 net59
*350 net6
*351 net60
*352 net61
*353 net62
*354 net63
*355 net64
*356 net65
*357 net66
*358 net67
*359 net68
*360 net69
*361 net7
*362 net70
*363 net71
*364 net72
*365 net73
*366 net74
*367 net75
*368 net76
*369 net77
*370 net78
*371 net79
*372 net8
*373 net80
*374 net81
*375 net82
*376 net83
*377 net84
*378 net85
*379 net86
*380 net87
*381 net88
*382 net89
*383 net9
*384 net90
*385 net91
*386 net92
*387 net93
*388 net94
*389 net95
*390 net96
*391 u_global\.denial_counter\[0\]
*392 u_global\.denial_counter\[1\]
*393 u_global\.prev_state\[0\]
*394 u_global\.prev_state\[1\]
*395 u_global\.prev_state\[2\]
*396 u_global\.prev_state\[3\]
*397 u_global\.prev_state\[4\]
*398 ANTENNA_1
*399 FILLER_0_106
*400 FILLER_0_110
*401 FILLER_0_113
*402 FILLER_0_119
*403 FILLER_0_121
*404 FILLER_0_126
*405 FILLER_0_128
*406 FILLER_0_133
*407 FILLER_0_135
*408 FILLER_0_141
*409 FILLER_0_15
*410 FILLER_0_153
*411 FILLER_0_165
*412 FILLER_0_167
*413 FILLER_0_169
*414 FILLER_0_181
*415 FILLER_0_27
*416 FILLER_0_29
*417 FILLER_0_3
*418 FILLER_0_37
*419 FILLER_0_50
*420 FILLER_0_57
*421 FILLER_0_65
*422 FILLER_0_78
*423 FILLER_0_85
*424 FILLER_0_93
*425 FILLER_10_101
*426 FILLER_10_110
*427 FILLER_10_124
*428 FILLER_10_136
*429 FILLER_10_14
*430 FILLER_10_141
*431 FILLER_10_153
*432 FILLER_10_157
*433 FILLER_10_162
*434 FILLER_10_166
*435 FILLER_10_183
*436 FILLER_10_27
*437 FILLER_10_29
*438 FILLER_10_57
*439 FILLER_10_69
*440 FILLER_10_81
*441 FILLER_10_83
*442 FILLER_11_105
*443 FILLER_11_109
*444 FILLER_11_111
*445 FILLER_11_113
*446 FILLER_11_125
*447 FILLER_11_137
*448 FILLER_11_149
*449 FILLER_11_161
*450 FILLER_11_165
*451 FILLER_11_167
*452 FILLER_11_169
*453 FILLER_11_177
*454 FILLER_11_19
*455 FILLER_11_31
*456 FILLER_11_35
*457 FILLER_11_47
*458 FILLER_11_57
*459 FILLER_11_69
*460 FILLER_11_81
*461 FILLER_11_93
*462 FILLER_12_105
*463 FILLER_12_107
*464 FILLER_12_116
*465 FILLER_12_120
*466 FILLER_12_122
*467 FILLER_12_139
*468 FILLER_12_141
*469 FILLER_12_149
*470 FILLER_12_157
*471 FILLER_12_176
*472 FILLER_12_180
*473 FILLER_12_21
*474 FILLER_12_25
*475 FILLER_12_27
*476 FILLER_12_29
*477 FILLER_12_31
*478 FILLER_12_38
*479 FILLER_12_72
*480 FILLER_12_85
*481 FILLER_12_9
*482 FILLER_12_97
*483 FILLER_13_104
*484 FILLER_13_113
*485 FILLER_13_121
*486 FILLER_13_167
*487 FILLER_13_169
*488 FILLER_13_18
*489 FILLER_13_181
*490 FILLER_13_53
*491 FILLER_13_55
*492 FILLER_13_6
*493 FILLER_13_70
*494 FILLER_13_82
*495 FILLER_13_92
*496 FILLER_14_10
*497 FILLER_14_107
*498 FILLER_14_111
*499 FILLER_14_113
*500 FILLER_14_122
*501 FILLER_14_128
*502 FILLER_14_135
*503 FILLER_14_139
*504 FILLER_14_141
*505 FILLER_14_153
*506 FILLER_14_16
*507 FILLER_14_165
*508 FILLER_14_29
*509 FILLER_14_41
*510 FILLER_14_49
*511 FILLER_14_58
*512 FILLER_14_66
*513 FILLER_14_68
*514 FILLER_14_72
*515 FILLER_15_106
*516 FILLER_15_110
*517 FILLER_15_113
*518 FILLER_15_121
*519 FILLER_15_123
*520 FILLER_15_131
*521 FILLER_15_135
*522 FILLER_15_142
*523 FILLER_15_154
*524 FILLER_15_166
*525 FILLER_15_169
*526 FILLER_15_171
*527 FILLER_15_175
*528 FILLER_15_26
*529 FILLER_15_3
*530 FILLER_15_38
*531 FILLER_15_50
*532 FILLER_15_54
*533 FILLER_15_57
*534 FILLER_15_69
*535 FILLER_15_77
*536 FILLER_15_94
*537 FILLER_16_107
*538 FILLER_16_128
*539 FILLER_16_130
*540 FILLER_16_137
*541 FILLER_16_139
*542 FILLER_16_14
*543 FILLER_16_141
*544 FILLER_16_161
*545 FILLER_16_169
*546 FILLER_16_26
*547 FILLER_16_29
*548 FILLER_16_31
*549 FILLER_16_55
*550 FILLER_16_59
*551 FILLER_16_65
*552 FILLER_16_7
*553 FILLER_16_77
*554 FILLER_16_81
*555 FILLER_16_83
*556 FILLER_16_85
*557 FILLER_17_103
*558 FILLER_17_111
*559 FILLER_17_113
*560 FILLER_17_12
*561 FILLER_17_121
*562 FILLER_17_123
*563 FILLER_17_132
*564 FILLER_17_159
*565 FILLER_17_24
*566 FILLER_17_28
*567 FILLER_17_3
*568 FILLER_17_35
*569 FILLER_17_45
*570 FILLER_17_53
*571 FILLER_17_55
*572 FILLER_17_57
*573 FILLER_17_77
*574 FILLER_17_85
*575 FILLER_18_108
*576 FILLER_18_116
*577 FILLER_18_121
*578 FILLER_18_133
*579 FILLER_18_137
*580 FILLER_18_139
*581 FILLER_18_141
*582 FILLER_18_153
*583 FILLER_18_163
*584 FILLER_18_176
*585 FILLER_18_180
*586 FILLER_18_24
*587 FILLER_18_29
*588 FILLER_18_34
*589 FILLER_18_46
*590 FILLER_18_58
*591 FILLER_18_6
*592 FILLER_18_64
*593 FILLER_18_76
*594 FILLER_18_85
*595 FILLER_18_87
*596 FILLER_18_96
*597 FILLER_19_111
*598 FILLER_19_120
*599 FILLER_19_138
*600 FILLER_19_14
*601 FILLER_19_150
*602 FILLER_19_162
*603 FILLER_19_18
*604 FILLER_19_182
*605 FILLER_19_184
*606 FILLER_19_20
*607 FILLER_19_28
*608 FILLER_19_30
*609 FILLER_19_36
*610 FILLER_19_48
*611 FILLER_19_65
*612 FILLER_19_67
*613 FILLER_19_7
*614 FILLER_19_73
*615 FILLER_19_91
*616 FILLER_1_113
*617 FILLER_1_117
*618 FILLER_1_119
*619 FILLER_1_141
*620 FILLER_1_15
*621 FILLER_1_161
*622 FILLER_1_165
*623 FILLER_1_167
*624 FILLER_1_177
*625 FILLER_1_27
*626 FILLER_1_3
*627 FILLER_1_31
*628 FILLER_1_57
*629 FILLER_1_61
*630 FILLER_1_63
*631 FILLER_1_73
*632 FILLER_1_90
*633 FILLER_1_94
*634 FILLER_20_10
*635 FILLER_20_100
*636 FILLER_20_112
*637 FILLER_20_116
*638 FILLER_20_118
*639 FILLER_20_139
*640 FILLER_20_141
*641 FILLER_20_150
*642 FILLER_20_162
*643 FILLER_20_18
*644 FILLER_20_180
*645 FILLER_20_27
*646 FILLER_20_29
*647 FILLER_20_33
*648 FILLER_20_71
*649 FILLER_20_82
*650 FILLER_20_85
*651 FILLER_21_103
*652 FILLER_21_113
*653 FILLER_21_121
*654 FILLER_21_139
*655 FILLER_21_156
*656 FILLER_21_16
*657 FILLER_21_169
*658 FILLER_21_173
*659 FILLER_21_178
*660 FILLER_21_180
*661 FILLER_21_28
*662 FILLER_21_37
*663 FILLER_21_49
*664 FILLER_21_53
*665 FILLER_21_55
*666 FILLER_21_69
*667 FILLER_21_7
*668 FILLER_21_79
*669 FILLER_21_91
*670 FILLER_22_101
*671 FILLER_22_121
*672 FILLER_22_133
*673 FILLER_22_137
*674 FILLER_22_139
*675 FILLER_22_141
*676 FILLER_22_153
*677 FILLER_22_158
*678 FILLER_22_170
*679 FILLER_22_174
*680 FILLER_22_176
*681 FILLER_22_182
*682 FILLER_22_184
*683 FILLER_22_26
*684 FILLER_22_3
*685 FILLER_22_34
*686 FILLER_22_46
*687 FILLER_22_50
*688 FILLER_22_56
*689 FILLER_22_65
*690 FILLER_22_77
*691 FILLER_22_79
*692 FILLER_23_10
*693 FILLER_23_103
*694 FILLER_23_111
*695 FILLER_23_113
*696 FILLER_23_125
*697 FILLER_23_135
*698 FILLER_23_147
*699 FILLER_23_151
*700 FILLER_23_161
*701 FILLER_23_165
*702 FILLER_23_167
*703 FILLER_23_169
*704 FILLER_23_22
*705 FILLER_23_3
*706 FILLER_23_30
*707 FILLER_23_40
*708 FILLER_23_45
*709 FILLER_23_55
*710 FILLER_23_67
*711 FILLER_23_79
*712 FILLER_23_91
*713 FILLER_24_109
*714 FILLER_24_121
*715 FILLER_24_129
*716 FILLER_24_131
*717 FILLER_24_141
*718 FILLER_24_175
*719 FILLER_24_177
*720 FILLER_24_19
*721 FILLER_24_27
*722 FILLER_24_29
*723 FILLER_24_41
*724 FILLER_24_53
*725 FILLER_24_60
*726 FILLER_24_68
*727 FILLER_24_7
*728 FILLER_24_85
*729 FILLER_24_97
*730 FILLER_25_110
*731 FILLER_25_116
*732 FILLER_25_134
*733 FILLER_25_138
*734 FILLER_25_148
*735 FILLER_25_160
*736 FILLER_25_169
*737 FILLER_25_180
*738 FILLER_25_27
*739 FILLER_25_38
*740 FILLER_25_50
*741 FILLER_25_54
*742 FILLER_25_57
*743 FILLER_25_69
*744 FILLER_25_7
*745 FILLER_25_71
*746 FILLER_25_96
*747 FILLER_26_122
*748 FILLER_26_141
*749 FILLER_26_143
*750 FILLER_26_147
*751 FILLER_26_156
*752 FILLER_26_160
*753 FILLER_26_184
*754 FILLER_26_19
*755 FILLER_26_27
*756 FILLER_26_3
*757 FILLER_26_52
*758 FILLER_26_79
*759 FILLER_26_83
*760 FILLER_26_85
*761 FILLER_26_97
*762 FILLER_27_100
*763 FILLER_27_11
*764 FILLER_27_113
*765 FILLER_27_125
*766 FILLER_27_129
*767 FILLER_27_138
*768 FILLER_27_140
*769 FILLER_27_160
*770 FILLER_27_169
*771 FILLER_27_23
*772 FILLER_27_27
*773 FILLER_27_35
*774 FILLER_27_39
*775 FILLER_27_51
*776 FILLER_27_55
*777 FILLER_27_64
*778 FILLER_27_76
*779 FILLER_27_88
*780 FILLER_28_100
*781 FILLER_28_11
*782 FILLER_28_110
*783 FILLER_28_118
*784 FILLER_28_126
*785 FILLER_28_136
*786 FILLER_28_149
*787 FILLER_28_153
*788 FILLER_28_160
*789 FILLER_28_164
*790 FILLER_28_166
*791 FILLER_28_174
*792 FILLER_28_182
*793 FILLER_28_184
*794 FILLER_28_23
*795 FILLER_28_27
*796 FILLER_28_3
*797 FILLER_28_35
*798 FILLER_28_47
*799 FILLER_28_49
*800 FILLER_28_5
*801 FILLER_28_66
*802 FILLER_28_70
*803 FILLER_28_77
*804 FILLER_28_81
*805 FILLER_28_83
*806 FILLER_28_88
*807 FILLER_28_92
*808 FILLER_28_96
*809 FILLER_29_113
*810 FILLER_29_147
*811 FILLER_29_151
*812 FILLER_29_169
*813 FILLER_29_27
*814 FILLER_29_29
*815 FILLER_29_46
*816 FILLER_29_54
*817 FILLER_29_60
*818 FILLER_2_101
*819 FILLER_2_107
*820 FILLER_2_119
*821 FILLER_2_123
*822 FILLER_2_125
*823 FILLER_2_138
*824 FILLER_2_141
*825 FILLER_2_164
*826 FILLER_2_168
*827 FILLER_2_19
*828 FILLER_2_27
*829 FILLER_2_29
*830 FILLER_2_41
*831 FILLER_2_53
*832 FILLER_2_65
*833 FILLER_2_67
*834 FILLER_2_7
*835 FILLER_2_81
*836 FILLER_2_83
*837 FILLER_2_85
*838 FILLER_2_97
*839 FILLER_30_100
*840 FILLER_30_113
*841 FILLER_30_118
*842 FILLER_30_126
*843 FILLER_30_128
*844 FILLER_30_132
*845 FILLER_30_141
*846 FILLER_30_147
*847 FILLER_30_149
*848 FILLER_30_154
*849 FILLER_30_159
*850 FILLER_30_167
*851 FILLER_30_169
*852 FILLER_30_174
*853 FILLER_30_178
*854 FILLER_30_180
*855 FILLER_30_19
*856 FILLER_30_27
*857 FILLER_30_29
*858 FILLER_30_37
*859 FILLER_30_49
*860 FILLER_30_51
*861 FILLER_30_57
*862 FILLER_30_63
*863 FILLER_30_65
*864 FILLER_30_70
*865 FILLER_30_72
*866 FILLER_30_77
*867 FILLER_30_79
*868 FILLER_30_85
*869 FILLER_30_91
*870 FILLER_30_93
*871 FILLER_30_98
*872 FILLER_3_109
*873 FILLER_3_111
*874 FILLER_3_120
*875 FILLER_3_132
*876 FILLER_3_144
*877 FILLER_3_15
*878 FILLER_3_156
*879 FILLER_3_169
*880 FILLER_3_27
*881 FILLER_3_3
*882 FILLER_3_39
*883 FILLER_3_47
*884 FILLER_3_53
*885 FILLER_3_55
*886 FILLER_3_57
*887 FILLER_3_69
*888 FILLER_3_81
*889 FILLER_3_97
*890 FILLER_4_109
*891 FILLER_4_125
*892 FILLER_4_133
*893 FILLER_4_138
*894 FILLER_4_141
*895 FILLER_4_152
*896 FILLER_4_160
*897 FILLER_4_169
*898 FILLER_4_173
*899 FILLER_4_183
*900 FILLER_4_19
*901 FILLER_4_27
*902 FILLER_4_45
*903 FILLER_4_7
*904 FILLER_4_76
*905 FILLER_5_11
*906 FILLER_5_111
*907 FILLER_5_118
*908 FILLER_5_122
*909 FILLER_5_124
*910 FILLER_5_148
*911 FILLER_5_150
*912 FILLER_5_164
*913 FILLER_5_23
*914 FILLER_5_35
*915 FILLER_5_47
*916 FILLER_5_55
*917 FILLER_5_57
*918 FILLER_5_74
*919 FILLER_5_86
*920 FILLER_5_90
*921 FILLER_5_99
*922 FILLER_6_110
*923 FILLER_6_112
*924 FILLER_6_125
*925 FILLER_6_13
*926 FILLER_6_137
*927 FILLER_6_139
*928 FILLER_6_141
*929 FILLER_6_153
*930 FILLER_6_155
*931 FILLER_6_170
*932 FILLER_6_178
*933 FILLER_6_180
*934 FILLER_6_20
*935 FILLER_6_34
*936 FILLER_6_42
*937 FILLER_6_49
*938 FILLER_6_61
*939 FILLER_6_63
*940 FILLER_6_85
*941 FILLER_6_97
*942 FILLER_7_105
*943 FILLER_7_109
*944 FILLER_7_111
*945 FILLER_7_120
*946 FILLER_7_132
*947 FILLER_7_144
*948 FILLER_7_156
*949 FILLER_7_169
*950 FILLER_7_26
*951 FILLER_7_38
*952 FILLER_7_57
*953 FILLER_7_69
*954 FILLER_7_81
*955 FILLER_7_93
*956 FILLER_7_97
*957 FILLER_7_99
*958 FILLER_8_111
*959 FILLER_8_113
*960 FILLER_8_118
*961 FILLER_8_130
*962 FILLER_8_138
*963 FILLER_8_146
*964 FILLER_8_148
*965 FILLER_8_163
*966 FILLER_8_167
*967 FILLER_8_184
*968 FILLER_8_19
*969 FILLER_8_27
*970 FILLER_8_29
*971 FILLER_8_41
*972 FILLER_8_43
*973 FILLER_8_49
*974 FILLER_8_61
*975 FILLER_8_65
*976 FILLER_8_7
*977 FILLER_8_71
*978 FILLER_8_83
*979 FILLER_8_85
*980 FILLER_8_89
*981 FILLER_8_99
*982 FILLER_9_104
*983 FILLER_9_142
*984 FILLER_9_153
*985 FILLER_9_157
*986 FILLER_9_159
*987 FILLER_9_173
*988 FILLER_9_19
*989 FILLER_9_28
*990 FILLER_9_37
*991 FILLER_9_49
*992 FILLER_9_53
*993 FILLER_9_55
*994 FILLER_9_57
*995 FILLER_9_7
*996 FILLER_9_81
*997 FILLER_9_85
*998 FILLER_9_87
*999 FILLER_9_92
*1000 PHY_EDGE_ROW_0_Left_31
*1001 PHY_EDGE_ROW_0_Right_0
*1002 PHY_EDGE_ROW_10_Left_41
*1003 PHY_EDGE_ROW_10_Right_10
*1004 PHY_EDGE_ROW_11_Left_42
*1005 PHY_EDGE_ROW_11_Right_11
*1006 PHY_EDGE_ROW_12_Left_43
*1007 PHY_EDGE_ROW_12_Right_12
*1008 PHY_EDGE_ROW_13_Left_44
*1009 PHY_EDGE_ROW_13_Right_13
*1010 PHY_EDGE_ROW_14_Left_45
*1011 PHY_EDGE_ROW_14_Right_14
*1012 PHY_EDGE_ROW_15_Left_46
*1013 PHY_EDGE_ROW_15_Right_15
*1014 PHY_EDGE_ROW_16_Left_47
*1015 PHY_EDGE_ROW_16_Right_16
*1016 PHY_EDGE_ROW_17_Left_48
*1017 PHY_EDGE_ROW_17_Right_17
*1018 PHY_EDGE_ROW_18_Left_49
*1019 PHY_EDGE_ROW_18_Right_18
*1020 PHY_EDGE_ROW_19_Left_50
*1021 PHY_EDGE_ROW_19_Right_19
*1022 PHY_EDGE_ROW_1_Left_32
*1023 PHY_EDGE_ROW_1_Right_1
*1024 PHY_EDGE_ROW_20_Left_51
*1025 PHY_EDGE_ROW_20_Right_20
*1026 PHY_EDGE_ROW_21_Left_52
*1027 PHY_EDGE_ROW_21_Right_21
*1028 PHY_EDGE_ROW_22_Left_53
*1029 PHY_EDGE_ROW_22_Right_22
*1030 PHY_EDGE_ROW_23_Left_54
*1031 PHY_EDGE_ROW_23_Right_23
*1032 PHY_EDGE_ROW_24_Left_55
*1033 PHY_EDGE_ROW_24_Right_24
*1034 PHY_EDGE_ROW_25_Left_56
*1035 PHY_EDGE_ROW_25_Right_25
*1036 PHY_EDGE_ROW_26_Left_57
*1037 PHY_EDGE_ROW_26_Right_26
*1038 PHY_EDGE_ROW_27_Left_58
*1039 PHY_EDGE_ROW_27_Right_27
*1040 PHY_EDGE_ROW_28_Left_59
*1041 PHY_EDGE_ROW_28_Right_28
*1042 PHY_EDGE_ROW_29_Left_60
*1043 PHY_EDGE_ROW_29_Right_29
*1044 PHY_EDGE_ROW_2_Left_33
*1045 PHY_EDGE_ROW_2_Right_2
*1046 PHY_EDGE_ROW_30_Left_61
*1047 PHY_EDGE_ROW_30_Right_30
*1048 PHY_EDGE_ROW_3_Left_34
*1049 PHY_EDGE_ROW_3_Right_3
*1050 PHY_EDGE_ROW_4_Left_35
*1051 PHY_EDGE_ROW_4_Right_4
*1052 PHY_EDGE_ROW_5_Left_36
*1053 PHY_EDGE_ROW_5_Right_5
*1054 PHY_EDGE_ROW_6_Left_37
*1055 PHY_EDGE_ROW_6_Right_6
*1056 PHY_EDGE_ROW_7_Left_38
*1057 PHY_EDGE_ROW_7_Right_7
*1058 PHY_EDGE_ROW_8_Left_39
*1059 PHY_EDGE_ROW_8_Right_8
*1060 PHY_EDGE_ROW_9_Left_40
*1061 PHY_EDGE_ROW_9_Right_9
*1062 TAP_TAPCELL_ROW_0_62
*1063 TAP_TAPCELL_ROW_0_63
*1064 TAP_TAPCELL_ROW_0_64
*1065 TAP_TAPCELL_ROW_0_65
*1066 TAP_TAPCELL_ROW_0_66
*1067 TAP_TAPCELL_ROW_0_67
*1068 TAP_TAPCELL_ROW_10_95
*1069 TAP_TAPCELL_ROW_10_96
*1070 TAP_TAPCELL_ROW_10_97
*1071 TAP_TAPCELL_ROW_11_100
*1072 TAP_TAPCELL_ROW_11_98
*1073 TAP_TAPCELL_ROW_11_99
*1074 TAP_TAPCELL_ROW_12_101
*1075 TAP_TAPCELL_ROW_12_102
*1076 TAP_TAPCELL_ROW_12_103
*1077 TAP_TAPCELL_ROW_13_104
*1078 TAP_TAPCELL_ROW_13_105
*1079 TAP_TAPCELL_ROW_13_106
*1080 TAP_TAPCELL_ROW_14_107
*1081 TAP_TAPCELL_ROW_14_108
*1082 TAP_TAPCELL_ROW_14_109
*1083 TAP_TAPCELL_ROW_15_110
*1084 TAP_TAPCELL_ROW_15_111
*1085 TAP_TAPCELL_ROW_15_112
*1086 TAP_TAPCELL_ROW_16_113
*1087 TAP_TAPCELL_ROW_16_114
*1088 TAP_TAPCELL_ROW_16_115
*1089 TAP_TAPCELL_ROW_17_116
*1090 TAP_TAPCELL_ROW_17_117
*1091 TAP_TAPCELL_ROW_17_118
*1092 TAP_TAPCELL_ROW_18_119
*1093 TAP_TAPCELL_ROW_18_120
*1094 TAP_TAPCELL_ROW_18_121
*1095 TAP_TAPCELL_ROW_19_122
*1096 TAP_TAPCELL_ROW_19_123
*1097 TAP_TAPCELL_ROW_19_124
*1098 TAP_TAPCELL_ROW_1_68
*1099 TAP_TAPCELL_ROW_1_69
*1100 TAP_TAPCELL_ROW_1_70
*1101 TAP_TAPCELL_ROW_20_125
*1102 TAP_TAPCELL_ROW_20_126
*1103 TAP_TAPCELL_ROW_20_127
*1104 TAP_TAPCELL_ROW_21_128
*1105 TAP_TAPCELL_ROW_21_129
*1106 TAP_TAPCELL_ROW_21_130
*1107 TAP_TAPCELL_ROW_22_131
*1108 TAP_TAPCELL_ROW_22_132
*1109 TAP_TAPCELL_ROW_22_133
*1110 TAP_TAPCELL_ROW_23_134
*1111 TAP_TAPCELL_ROW_23_135
*1112 TAP_TAPCELL_ROW_23_136
*1113 TAP_TAPCELL_ROW_24_137
*1114 TAP_TAPCELL_ROW_24_138
*1115 TAP_TAPCELL_ROW_24_139
*1116 TAP_TAPCELL_ROW_25_140
*1117 TAP_TAPCELL_ROW_25_141
*1118 TAP_TAPCELL_ROW_25_142
*1119 TAP_TAPCELL_ROW_26_143
*1120 TAP_TAPCELL_ROW_26_144
*1121 TAP_TAPCELL_ROW_26_145
*1122 TAP_TAPCELL_ROW_27_146
*1123 TAP_TAPCELL_ROW_27_147
*1124 TAP_TAPCELL_ROW_27_148
*1125 TAP_TAPCELL_ROW_28_149
*1126 TAP_TAPCELL_ROW_28_150
*1127 TAP_TAPCELL_ROW_28_151
*1128 TAP_TAPCELL_ROW_29_152
*1129 TAP_TAPCELL_ROW_29_153
*1130 TAP_TAPCELL_ROW_29_154
*1131 TAP_TAPCELL_ROW_2_71
*1132 TAP_TAPCELL_ROW_2_72
*1133 TAP_TAPCELL_ROW_2_73
*1134 TAP_TAPCELL_ROW_30_155
*1135 TAP_TAPCELL_ROW_30_156
*1136 TAP_TAPCELL_ROW_30_157
*1137 TAP_TAPCELL_ROW_30_158
*1138 TAP_TAPCELL_ROW_30_159
*1139 TAP_TAPCELL_ROW_30_160
*1140 TAP_TAPCELL_ROW_3_74
*1141 TAP_TAPCELL_ROW_3_75
*1142 TAP_TAPCELL_ROW_3_76
*1143 TAP_TAPCELL_ROW_4_77
*1144 TAP_TAPCELL_ROW_4_78
*1145 TAP_TAPCELL_ROW_4_79
*1146 TAP_TAPCELL_ROW_5_80
*1147 TAP_TAPCELL_ROW_5_81
*1148 TAP_TAPCELL_ROW_5_82
*1149 TAP_TAPCELL_ROW_6_83
*1150 TAP_TAPCELL_ROW_6_84
*1151 TAP_TAPCELL_ROW_6_85
*1152 TAP_TAPCELL_ROW_7_86
*1153 TAP_TAPCELL_ROW_7_87
*1154 TAP_TAPCELL_ROW_7_88
*1155 TAP_TAPCELL_ROW_8_89
*1156 TAP_TAPCELL_ROW_8_90
*1157 TAP_TAPCELL_ROW_8_91
*1158 TAP_TAPCELL_ROW_9_92
*1159 TAP_TAPCELL_ROW_9_93
*1160 TAP_TAPCELL_ROW_9_94
*1161 _210_
*1162 _211_
*1163 _212_
*1164 _213_
*1165 _214_
*1166 _215_
*1167 _216_
*1168 _217_
*1169 _218_
*1170 _219_
*1171 _220_
*1172 _221_
*1173 _222_
*1174 _223_
*1175 _224_
*1176 _225_
*1177 _226_
*1178 _227_
*1179 _228_
*1180 _229_
*1181 _230_
*1182 _231_
*1183 _232_
*1184 _233_
*1185 _234_
*1186 _235_
*1187 _236_
*1188 _237_
*1189 _238_
*1190 _239_
*1191 _240_
*1192 _241_
*1193 _242_
*1194 _243_
*1195 _244_
*1196 _245_
*1197 _246_
*1198 _247_
*1199 _248_
*1200 _249_
*1201 _250_
*1202 _251_
*1203 _252_
*1204 _253_
*1205 _254_
*1206 _255_
*1207 _256_
*1208 _257_
*1209 _258_
*1210 _259_
*1211 _260_
*1212 _261_
*1213 _262_
*1214 _263_
*1215 _264_
*1216 _265_
*1217 _266_
*1218 _267_
*1219 _268_
*1220 _269_
*1221 _270_
*1222 _271_
*1223 _272_
*1224 _273_
*1225 _274_
*1226 _275_
*1227 _276_
*1228 _277_
*1229 _278_
*1230 _279_
*1231 _280_
*1232 _281_
*1233 _282_
*1234 _283_
*1235 _284_
*1236 _285_
*1237 _286_
*1238 _287_
*1239 _288_
*1240 _289_
*1241 _290_
*1242 _291_
*1243 _292_
*1244 _293_
*1245 _294_
*1246 _295_
*1247 _296_
*1248 _297_
*1249 _298_
*1250 _299_
*1251 _300_
*1252 _301_
*1253 _302_
*1254 _303_
*1255 _304_
*1256 _305_
*1257 _306_
*1258 _307_
*1259 _308_
*1260 _309_
*1261 _310_
*1262 _311_
*1263 _312_
*1264 _313_
*1265 _314_
*1266 _315_
*1267 _316_
*1268 _317_
*1269 _318_
*1270 _319_
*1271 _320_
*1272 _321_
*1273 _322_
*1274 _323_
*1275 _324_
*1276 _325_
*1277 _326_
*1278 _327_
*1279 _328_
*1280 _329_
*1281 _330_
*1282 _331_
*1283 _332_
*1284 _333_
*1285 _334_
*1286 _335_
*1287 _336_
*1288 _337_
*1289 _338_
*1290 _339_
*1291 _340_
*1292 _341_
*1293 _342_
*1294 _343_
*1295 _344_
*1296 _345_
*1297 _346_
*1298 _347_
*1299 _348_
*1300 _349_
*1301 _350_
*1302 _351_
*1303 _352_
*1304 _353_
*1305 _354_
*1306 _355_
*1307 _356_
*1308 _357_
*1309 _358_
*1310 _359_
*1311 _360_
*1312 _361_
*1313 _362_
*1314 _363_
*1315 _364_
*1316 _365_
*1317 _366_
*1318 _367_
*1319 _368_
*1320 _369_
*1321 _370_
*1322 _371_
*1323 _372_
*1324 _373_
*1325 _374_
*1326 _375_
*1327 _376_
*1328 _377_
*1329 _378_
*1330 _379_
*1331 _380_
*1332 _381_
*1333 _382_
*1334 _383_
*1335 _384_
*1336 _385_
*1337 _386_
*1338 _387_
*1339 _388_
*1340 _389_
*1341 _390_
*1342 _391_
*1343 _392_
*1344 _393_
*1345 _394_
*1346 _395_
*1347 _396_
*1348 _397_
*1349 _398_
*1350 _399_
*1351 _400_
*1352 _401_
*1353 _402_
*1354 _403_
*1355 _404_
*1356 _405_
*1357 _406_
*1358 _407_
*1359 _408_
*1360 _409_
*1361 _410_
*1362 _411_
*1363 _412_
*1364 _413_
*1365 _414_
*1366 _415_
*1367 _416_
*1368 _417_
*1369 _418_
*1370 _419_
*1371 _420_
*1372 _421_
*1373 _422_
*1374 _423_
*1375 _424_
*1376 _425_
*1377 _426_
*1378 _427_
*1379 _428_
*1380 _429_
*1381 _430_
*1382 _431_
*1383 _432_
*1384 _433_
*1385 _434_
*1386 _435_
*1387 _436_
*1388 _437_
*1389 _438_
*1390 _439_
*1391 _440_
*1392 _441_
*1393 _442_
*1394 _443_
*1395 _444_
*1396 _445_
*1397 _446_
*1398 _447_
*1399 _448_
*1400 _449_
*1401 _450_
*1402 _451_
*1403 _452_
*1404 _453_
*1405 _454_
*1406 _455_
*1407 _456_
*1408 _457_
*1409 _458_
*1410 _459_
*1411 _460_
*1412 _461_
*1413 _462_
*1414 _463_
*1415 _464_
*1416 _465_
*1417 _466_
*1418 _467_
*1419 _468_
*1420 _469_
*1421 _470_
*1422 _471_
*1423 _472_
*1424 _473_
*1425 _474_
*1426 _475_
*1427 _476_
*1428 _477_
*1429 _478_
*1430 _479_
*1431 _480_
*1432 _481_
*1433 _482_
*1434 _483_
*1435 _484_
*1436 _485_
*1437 _486_
*1438 _487_
*1439 clkbuf_0_clk
*1440 clkbuf_2_0__f_clk
*1441 clkbuf_2_1__f_clk
*1442 clkbuf_2_2__f_clk
*1443 clkbuf_2_3__f_clk
*1444 clkload0
*1445 clkload1
*1446 clkload2
*1447 fanout77
*1448 fanout78
*1449 fanout79
*1450 fanout80
*1451 fanout82
*1452 hold1
*1453 hold10
*1454 hold11
*1455 hold12
*1456 hold13
*1457 hold14
*1458 hold2
*1459 hold3
*1460 hold4
*1461 hold5
*1462 hold6
*1463 hold7
*1464 hold8
*1465 hold9
*1466 input1
*1467 input10
*1468 input11
*1469 input12
*1470 input13
*1471 input14
*1472 input15
*1473 input2
*1474 input3
*1475 input4
*1476 input5
*1477 input6
*1478 input7
*1479 input8
*1480 input9
*1481 output16
*1482 output17
*1483 output18
*1484 output19
*1485 output20
*1486 output21
*1487 output22
*1488 output23
*1489 output24
*1490 output25
*1491 output26
*1492 output27
*1493 output28
*1494 output29
*1495 output30
*1496 output31
*1497 output32
*1498 output33
*1499 output34
*1500 output35
*1501 output36
*1502 output37
*1503 output38
*1504 output39
*1505 output40
*1506 output41
*1507 output42
*1508 output43
*1509 output44
*1510 output45
*1511 output46
*1512 output47
*1513 output48
*1514 output49
*1515 output50
*1516 output51
*1517 output52
*1518 output53
*1519 output54
*1520 output55
*1521 output56
*1522 output57
*1523 output58
*1524 output59
*1525 output60
*1526 output61
*1527 output62
*1528 output63
*1529 output64
*1530 output65
*1531 output66
*1532 output67
*1533 output68
*1534 output69
*1535 output70
*1536 output71
*1537 output72
*1538 output73
*1539 output74
*1540 output75
*1541 output76
*1542 wire81

*PORTS
clk I
clock_glitch I
cold_reset_req I
debug_enable O
file_denied I
fsm_error O
fw_fail I
fw_ok I
global_pin_ok I
global_state_authorized O
global_state_bits[0] O
global_state_bits[1] O
global_state_bits[2] O
global_state_bits[3] O
global_state_bits[4] O
global_state_boot O
global_state_escalated O
global_state_locked O
global_state_safe_mode O
global_timeout_count[0] O
global_timeout_count[10] O
global_timeout_count[11] O
global_timeout_count[12] O
global_timeout_count[13] O
global_timeout_count[14] O
global_timeout_count[15] O
global_timeout_count[1] O
global_timeout_count[2] O
global_timeout_count[3] O
global_timeout_count[4] O
global_timeout_count[5] O
global_timeout_count[6] O
global_timeout_count[7] O
global_timeout_count[8] O
global_timeout_count[9] O
group_autolock I
group_error O
group_locked O
group_state_bits[0] O
group_state_bits[1] O
group_state_bits[2] O
group_state_bits[3] O
group_state_disabled O
group_state_locked O
group_state_suspended O
group_state_unlocked O
group_suspended O
group_timeout_count[0] O
group_timeout_count[10] O
group_timeout_count[11] O
group_timeout_count[12] O
group_timeout_count[13] O
group_timeout_count[14] O
group_timeout_count[15] O
group_timeout_count[1] O
group_timeout_count[2] O
group_timeout_count[3] O
group_timeout_count[4] O
group_timeout_count[5] O
group_timeout_count[6] O
group_timeout_count[7] O
group_timeout_count[8] O
group_timeout_count[9] O
group_unlocked O
hdr_parse_fail I
illegal_in I
power_glitch I
reset I
safe_led O
security_breach O
size_mismatch I
sticky_illegal O
sticky_tamper O
tamper_in I
unlock_enable O
unlock_req I
warm_reset_req I

*D_NET *3 0.0116454
*CONN
*P clk I
*I *1439:A I *D sky130_fd_sc_hd__clkbuf_16
*CAP
1 clk 0.00011816
2 *1439:A 0.000644163
3 *3:19 0.00189662
4 *3:9 0.00340236
5 *3:7 0.00226806
6 *1439:A *1333:B 8.06804e-06
7 *1439:A *1333:C 1.95448e-05
8 *1439:A *138:29 0.000317553
9 *1439:A *290:8 0.000149907
10 *3:7 debug_enable 3.49463e-05
11 *3:9 group_timeout_count[10] 0
12 *3:9 group_timeout_count[13] 7.20089e-05
13 *3:9 group_timeout_count[5] 9.85586e-06
14 *3:9 *1436:A 0
15 *3:9 *1474:A 8.21456e-06
16 *3:9 *1477:A 8.22421e-06
17 *3:9 *6:12 2.19246e-05
18 *3:9 *38:11 0
19 *3:9 *48:10 9.5705e-05
20 *3:9 *52:10 3.66799e-05
21 *3:9 *53:10 3.66799e-05
22 *3:9 *55:10 6.61924e-05
23 *3:9 *278:24 0
24 *3:9 *279:8 0
25 *3:9 *280:12 3.81391e-05
26 *3:9 *343:39 0
27 *3:9 *348:8 5.36328e-05
28 *3:9 *349:27 0
29 *3:9 *349:46 0
30 *3:9 *350:8 0
31 *3:9 *361:8 0
32 *3:9 *363:10 0
33 *3:19 *1333:A 0.000609752
34 *3:19 *1333:B 3.71251e-05
35 *3:19 *1336:B 2.25203e-05
36 *3:19 *1337:B 5.50049e-05
37 *3:19 *1414:D 0.00018804
38 *3:19 *262:14 0.000777059
39 *3:19 *264:10 0.000185434
40 *3:19 *292:25 3.22879e-05
41 *3:19 *357:12 0.000206843
42 *3:19 *358:29 3.75171e-05
43 *3:19 *358:39 0.000187129
*RES
1 clk *3:7 8.50027 
2 *3:7 *3:9 42.9304 
3 *3:9 *3:19 45.3464 
4 *3:19 *1439:A 35.5321 
*END

*D_NET *4 0.000448565
*CONN
*P clock_glitch I
*I *1466:A I *D sky130_fd_sc_hd__clkbuf_1
*CAP
1 clock_glitch 0.000144854
2 *1466:A 0.000144854
3 *1466:A global_state_locked 8.06147e-05
4 *1466:A *1226:A 0
5 *1466:A *1467:A 7.82427e-05
*RES
1 clock_glitch *1466:A 47.0789 
*END

*D_NET *5 0.000549244
*CONN
*P cold_reset_req I
*I *1473:A I *D sky130_fd_sc_hd__clkbuf_2
*CAP
1 cold_reset_req 0.000176145
2 *1473:A 0.000176145
3 *1473:A global_timeout_count[11] 8.97484e-05
4 *1473:A global_timeout_count[12] 7.89944e-05
5 *1473:A *319:28 2.82105e-05
*RES
1 cold_reset_req *1473:A 47.5169 
*END

*D_NET *6 0.000729961
*CONN
*P debug_enable O
*I *1481:X O *D sky130_fd_sc_hd__buf_2
*CAP
1 debug_enable 5.95855e-05
2 *1481:X 0.000260676
3 *6:12 0.000320261
4 debug_enable group_timeout_count[14] 3.25681e-05
5 *3:7 debug_enable 3.49463e-05
6 *3:9 *6:12 2.19246e-05
*RES
1 *1481:X *6:12 49.6768 
2 *6:12 debug_enable 0.328533 
*END

*D_NET *7 0.000549401
*CONN
*P file_denied I
*I *1474:A I *D sky130_fd_sc_hd__buf_1
*CAP
1 file_denied 0.000236836
2 *1474:A 0.000236836
3 *1474:A *1477:A 3.25681e-05
4 *1474:A *38:11 3.49463e-05
5 *3:9 *1474:A 8.21456e-06
*RES
1 file_denied *1474:A 49.1767 
*END

*D_NET *8 0.00119684
*CONN
*P fsm_error O
*I *1482:X O *D sky130_fd_sc_hd__buf_2
*CAP
1 fsm_error 0.00059842
2 *1482:X 0.00059842
3 fsm_error sticky_tamper 0
*RES
1 *1482:X fsm_error 49.6829 
*END

*D_NET *9 0.00147217
*CONN
*P fw_fail I
*I *1475:A I *D sky130_fd_sc_hd__clkbuf_1
*CAP
1 fw_fail 0.000545581
2 *1475:A 0
3 *9:15 0.000545581
4 *9:15 *1162:A 5.67058e-05
5 *9:15 *1454:A 3.22879e-05
6 *9:15 *1467:A 7.1481e-05
7 *9:15 *73:11 0.000115223
8 *9:15 *133:8 5.20072e-05
9 *9:15 *328:10 5.3304e-05
*RES
1 fw_fail *9:15 31.6574 
2 *9:15 *1475:A 23 
*END

*D_NET *10 0.000619997
*CONN
*P fw_ok I
*I *1476:A I *D sky130_fd_sc_hd__buf_1
*CAP
1 fw_ok 0.000180775
2 *1476:A 0.000180775
3 *1476:A global_state_locked 7.19757e-05
4 *1476:A *79:13 0.000186471
*RES
1 fw_ok *1476:A 48.1354 
*END

*D_NET *11 0.000561103
*CONN
*P global_pin_ok I
*I *1477:A I *D sky130_fd_sc_hd__clkbuf_1
*CAP
1 global_pin_ok 0.000243871
2 *1477:A 0.000243871
3 *1477:A group_timeout_count[5] 3.25681e-05
4 *1474:A *1477:A 3.25681e-05
5 *3:9 *1477:A 8.22421e-06
*RES
1 global_pin_ok *1477:A 49.1767 
*END

*D_NET *12 0.00118788
*CONN
*P global_state_authorized O
*I *1483:X O *D sky130_fd_sc_hd__buf_2
*CAP
1 global_state_authorized 0.000582425
2 *1483:X 0.000582425
3 global_state_authorized unlock_enable 0
4 global_state_authorized *1483:A 2.30292e-05
5 global_state_authorized *76:9 0
*RES
1 *1483:X global_state_authorized 49.6829 
*END

*D_NET *13 0.000603533
*CONN
*P global_state_bits[0] O
*I *1484:X O *D sky130_fd_sc_hd__buf_2
*CAP
1 global_state_bits[0] 0.000238911
2 *1484:X 0.000238911
3 global_state_bits[0] global_state_bits[1] 8.97484e-05
4 global_state_bits[0] *305:114 3.59619e-05
*RES
1 *1484:X global_state_bits[0] 47.8691 
*END

*D_NET *14 0.000668149
*CONN
*P global_state_bits[1] O
*I *1485:X O *D sky130_fd_sc_hd__buf_2
*CAP
1 global_state_bits[1] 0.000211589
2 *1485:X 0.000211589
3 global_state_bits[1] global_state_bits[4] 8.97484e-05
4 global_state_bits[1] *305:114 6.54744e-05
5 global_state_bits[0] global_state_bits[1] 8.97484e-05
*RES
1 *1485:X global_state_bits[1] 48.5734 
*END

*D_NET *15 0.000508558
*CONN
*P global_state_bits[2] O
*I *1486:X O *D sky130_fd_sc_hd__buf_2
*CAP
1 global_state_bits[2] 0.000157612
2 *1486:X 0.000157612
3 global_state_bits[2] global_state_boot 8.97484e-05
4 global_state_bits[2] *1190:A2 2.5343e-05
5 global_state_bits[2] *73:11 7.82427e-05
*RES
1 *1486:X global_state_bits[2] 47.1648 
*END

*D_NET *16 0.000840355
*CONN
*P global_state_bits[3] O
*I *1487:X O *D sky130_fd_sc_hd__buf_2
*CAP
1 global_state_bits[3] 0.000336118
2 *1487:X 0.000336118
3 global_state_bits[3] global_state_bits[4] 7.83696e-05
4 global_state_bits[3] security_breach 8.97484e-05
5 global_state_bits[3] *297:21 0
*RES
1 *1487:X global_state_bits[3] 49.9819 
*END

*D_NET *17 0.000774165
*CONN
*P global_state_bits[4] O
*I *1488:X O *D sky130_fd_sc_hd__buf_2
*CAP
1 global_state_bits[4] 0.000296657
2 *1488:X 0.000296657
3 global_state_bits[4] *297:21 1.27321e-05
4 global_state_bits[1] global_state_bits[4] 8.97484e-05
5 global_state_bits[3] global_state_bits[4] 7.83696e-05
*RES
1 *1488:X global_state_bits[4] 47.5083 
*END

*D_NET *18 0.000602449
*CONN
*P global_state_boot O
*I *1489:X O *D sky130_fd_sc_hd__buf_2
*CAP
1 global_state_boot 0.000194738
2 *1489:X 0.000194738
3 global_state_boot global_state_safe_mode 8.97484e-05
4 global_state_boot *314:44 3.34756e-05
5 global_state_bits[2] global_state_boot 8.97484e-05
*RES
1 *1489:X global_state_boot 47.8691 
*END

*D_NET *19 0.000766926
*CONN
*P global_state_escalated O
*I *1490:X O *D sky130_fd_sc_hd__buf_2
*CAP
1 global_state_escalated 0.00027892
2 *1490:X 0.00027892
3 global_state_escalated global_state_safe_mode 7.83696e-05
4 global_state_escalated safe_led 8.73764e-05
5 global_state_escalated *312:20 0
6 global_state_escalated *364:8 4.334e-05
*RES
1 *1490:X global_state_escalated 49.2777 
*END

*D_NET *20 0.000546591
*CONN
*P global_state_locked O
*I *1491:X O *D sky130_fd_sc_hd__buf_2
*CAP
1 global_state_locked 0.000187213
2 *1491:X 0.000187213
3 global_state_locked *79:13 0
4 global_state_locked *339:10 1.9574e-05
5 *1466:A global_state_locked 8.06147e-05
6 *1476:A global_state_locked 7.19757e-05
*RES
1 *1491:X global_state_locked 47.5169 
*END

*D_NET *21 0.000708698
*CONN
*P global_state_safe_mode O
*I *1492:X O *D sky130_fd_sc_hd__buf_2
*CAP
1 global_state_safe_mode 0.00022399
2 *1492:X 0.00022399
3 global_state_safe_mode *1188:A 3.55887e-05
4 global_state_safe_mode *314:44 5.70112e-05
5 global_state_boot global_state_safe_mode 8.97484e-05
6 global_state_escalated global_state_safe_mode 7.83696e-05
*RES
1 *1492:X global_state_safe_mode 48.9255 
*END

*D_NET *22 0.000941511
*CONN
*P global_timeout_count[0] O
*I *1493:X O *D sky130_fd_sc_hd__buf_2
*CAP
1 global_timeout_count[0] 0.000456298
2 *1493:X 0.000456298
3 global_timeout_count[0] global_timeout_count[1] 0
4 global_timeout_count[0] group_timeout_count[15] 0
5 global_timeout_count[0] *1249:A2 2.8914e-05
*RES
1 *1493:X global_timeout_count[0] 47.3836 
*END

*D_NET *23 0.000938455
*CONN
*P global_timeout_count[10] O
*I *1494:X O *D sky130_fd_sc_hd__buf_2
*CAP
1 global_timeout_count[10] 0.00046546
2 *1494:X 0.00046546
3 global_timeout_count[10] global_timeout_count[7] 0
4 global_timeout_count[10] global_timeout_count[8] 0
5 global_timeout_count[10] *316:24 7.53384e-06
*RES
1 *1494:X global_timeout_count[10] 47.0936 
*END

*D_NET *24 0.000688917
*CONN
*P global_timeout_count[11] O
*I *1495:X O *D sky130_fd_sc_hd__buf_2
*CAP
1 global_timeout_count[11] 0.000235464
2 *1495:X 0.000235464
3 global_timeout_count[11] *79:13 8.73764e-05
4 global_timeout_count[11] *318:22 4.08641e-05
5 *1473:A global_timeout_count[11] 8.97484e-05
*RES
1 *1495:X global_timeout_count[11] 48.5734 
*END

*D_NET *25 0.000536831
*CONN
*P global_timeout_count[12] O
*I *1496:X O *D sky130_fd_sc_hd__buf_2
*CAP
1 global_timeout_count[12] 0.00018523
2 *1496:X 0.00018523
3 global_timeout_count[12] global_timeout_count[13] 8.73764e-05
4 *1473:A global_timeout_count[12] 7.89944e-05
*RES
1 *1496:X global_timeout_count[12] 47.1648 
*END

*D_NET *26 0.00101423
*CONN
*P global_timeout_count[13] O
*I *1497:X O *D sky130_fd_sc_hd__buf_2
*CAP
1 global_timeout_count[13] 0.000156378
2 *1497:X 0.000186374
3 *26:8 0.000342752
4 global_timeout_count[13] global_timeout_count[15] 8.73764e-05
5 *26:8 global_timeout_count[15] 0
6 *26:8 *1497:A 0.000111726
7 *26:8 *320:34 4.22446e-05
8 global_timeout_count[12] global_timeout_count[13] 8.73764e-05
*RES
1 *1497:X *26:8 42.5468 
2 *26:8 global_timeout_count[13] 8.84373 
*END

*D_NET *27 0.000716793
*CONN
*P global_timeout_count[14] O
*I *1498:X O *D sky130_fd_sc_hd__buf_2
*CAP
1 global_timeout_count[14] 0.000294282
2 *1498:X 0.000294282
3 global_timeout_count[14] global_timeout_count[15] 8.73764e-05
4 global_timeout_count[14] *98:8 0
5 global_timeout_count[14] *321:10 4.08537e-05
*RES
1 *1498:X global_timeout_count[14] 48.5734 
*END

*D_NET *28 0.000816303
*CONN
*P global_timeout_count[15] O
*I *1499:X O *D sky130_fd_sc_hd__buf_2
*CAP
1 global_timeout_count[15] 0.000315492
2 *1499:X 0.000315492
3 global_timeout_count[15] *1497:A 1.05658e-05
4 global_timeout_count[13] global_timeout_count[15] 8.73764e-05
5 global_timeout_count[14] global_timeout_count[15] 8.73764e-05
6 *26:8 global_timeout_count[15] 0
*RES
1 *1499:X global_timeout_count[15] 48.2126 
*END

*D_NET *29 0.000937464
*CONN
*P global_timeout_count[1] O
*I *1500:X O *D sky130_fd_sc_hd__buf_2
*CAP
1 global_timeout_count[1] 0.000468732
2 *1500:X 0.000468732
3 global_timeout_count[0] global_timeout_count[1] 0
*RES
1 *1500:X global_timeout_count[1] 47.0936 
*END

*D_NET *30 0.000748032
*CONN
*P global_timeout_count[2] O
*I *1501:X O *D sky130_fd_sc_hd__buf_2
*CAP
1 global_timeout_count[2] 0.000374016
2 *1501:X 0.000374016
3 global_timeout_count[2] global_timeout_count[3] 0
4 global_timeout_count[2] global_timeout_count[4] 0
*RES
1 *1501:X global_timeout_count[2] 45.9957 
*END

*D_NET *31 0.00094421
*CONN
*P global_timeout_count[3] O
*I *1502:X O *D sky130_fd_sc_hd__buf_2
*CAP
1 global_timeout_count[3] 0.000448585
2 *1502:X 0.000448585
3 global_timeout_count[3] *1252:A2 2.93845e-05
4 global_timeout_count[3] *371:87 1.76557e-05
5 global_timeout_count[2] global_timeout_count[3] 0
*RES
1 *1502:X global_timeout_count[3] 47.0936 
*END

*D_NET *32 0.000992473
*CONN
*P global_timeout_count[4] O
*I *1503:X O *D sky130_fd_sc_hd__buf_2
*CAP
1 global_timeout_count[4] 0.000446994
2 *1503:X 0.000446994
3 global_timeout_count[4] *1252:B1 9.84851e-05
4 global_timeout_count[2] global_timeout_count[4] 0
*RES
1 *1503:X global_timeout_count[4] 47.0936 
*END

*D_NET *33 0.000944957
*CONN
*P global_timeout_count[5] O
*I *1504:X O *D sky130_fd_sc_hd__buf_2
*CAP
1 global_timeout_count[5] 0.00045391
2 *1504:X 0.00045391
3 global_timeout_count[5] global_timeout_count[6] 0
4 global_timeout_count[5] *371:87 3.71369e-05
*RES
1 *1504:X global_timeout_count[5] 47.0936 
*END

*D_NET *34 0.000991446
*CONN
*P global_timeout_count[6] O
*I *1505:X O *D sky130_fd_sc_hd__buf_2
*CAP
1 global_timeout_count[6] 0.000495723
2 *1505:X 0.000495723
3 global_timeout_count[5] global_timeout_count[6] 0
*RES
1 *1505:X global_timeout_count[6] 47.86 
*END

*D_NET *35 0.000935434
*CONN
*P global_timeout_count[7] O
*I *1506:X O *D sky130_fd_sc_hd__buf_2
*CAP
1 global_timeout_count[7] 0.000467717
2 *1506:X 0.000467717
3 global_timeout_count[10] global_timeout_count[7] 0
*RES
1 *1506:X global_timeout_count[7] 47.0936 
*END

*D_NET *36 0.000956706
*CONN
*P global_timeout_count[8] O
*I *1507:X O *D sky130_fd_sc_hd__buf_2
*CAP
1 global_timeout_count[8] 0.000451284
2 *1507:X 0.000451284
3 global_timeout_count[8] global_timeout_count[9] 0
4 global_timeout_count[8] *1507:A 5.41385e-05
5 global_timeout_count[10] global_timeout_count[8] 0
*RES
1 *1507:X global_timeout_count[8] 47.0936 
*END

*D_NET *37 0.00100658
*CONN
*P global_timeout_count[9] O
*I *1508:X O *D sky130_fd_sc_hd__buf_2
*CAP
1 global_timeout_count[9] 0.000503292
2 *1508:X 0.000503292
3 global_timeout_count[8] global_timeout_count[9] 0
*RES
1 *1508:X global_timeout_count[9] 47.57 
*END

*D_NET *38 0.00109347
*CONN
*P group_autolock I
*I *1478:A I *D sky130_fd_sc_hd__buf_1
*CAP
1 group_autolock 0.000460795
2 *1478:A 0
3 *38:11 0.000460795
4 *38:11 group_timeout_count[10] 0
5 *38:11 group_timeout_count[12] 3.49463e-05
6 *38:11 *343:39 9.6402e-05
7 *38:11 *348:8 5.58873e-06
8 *1474:A *38:11 3.49463e-05
9 *3:9 *38:11 0
*RES
1 group_autolock *38:11 27.858 
2 *38:11 *1478:A 23 
*END

*D_NET *39 0.00119455
*CONN
*P group_error O
*I *1509:X O *D sky130_fd_sc_hd__buf_2
*CAP
1 group_error 0.00057792
2 *1509:X 0.00057792
3 group_error *1540:A 3.87132e-05
4 group_error *68:9 0
5 group_error *76:9 0
*RES
1 *1509:X group_error 49.6829 
*END

*D_NET *40 0.00184145
*CONN
*P group_locked O
*I *1510:X O *D sky130_fd_sc_hd__buf_2
*CAP
1 group_locked 0.000168292
2 *1510:X 0.000501088
3 *40:10 0.00066938
4 group_locked group_timeout_count[0] 5.75829e-05
5 *40:10 *50:12 0.000171025
6 *40:10 *57:10 0.000274078
*RES
1 *1510:X *40:10 47.4561 
2 *40:10 group_locked 8.672 
*END

*D_NET *41 0.00112133
*CONN
*P group_state_bits[0] O
*I *1511:X O *D sky130_fd_sc_hd__buf_2
*CAP
1 group_state_bits[0] 0.000540321
2 *1511:X 0.000540321
3 group_state_bits[0] group_state_bits[2] 0
4 group_state_bits[0] group_state_bits[3] 0
5 group_state_bits[0] *1514:A 4.06849e-05
*RES
1 *1511:X group_state_bits[0] 49.2064 
*END

*D_NET *42 0.00111074
*CONN
*P group_state_bits[1] O
*I *1512:X O *D sky130_fd_sc_hd__buf_2
*CAP
1 group_state_bits[1] 0.000555368
2 *1512:X 0.000555368
3 group_state_bits[1] group_state_disabled 0
*RES
1 *1512:X group_state_bits[1] 49.2064 
*END

*D_NET *43 0.00111463
*CONN
*P group_state_bits[2] O
*I *1513:X O *D sky130_fd_sc_hd__buf_2
*CAP
1 group_state_bits[2] 0.000541998
2 *1513:X 0.000541998
3 group_state_bits[2] group_state_suspended 0
4 group_state_bits[2] *1511:A 3.06338e-05
5 group_state_bits[0] group_state_bits[2] 0
*RES
1 *1513:X group_state_bits[2] 49.2064 
*END

*D_NET *44 0.00111074
*CONN
*P group_state_bits[3] O
*I *1514:X O *D sky130_fd_sc_hd__buf_2
*CAP
1 group_state_bits[3] 0.000555368
2 *1514:X 0.000555368
3 group_state_bits[3] group_state_disabled 0
4 group_state_bits[0] group_state_bits[3] 0
*RES
1 *1514:X group_state_bits[3] 49.2064 
*END

*D_NET *45 0.00119684
*CONN
*P group_state_disabled O
*I *1515:X O *D sky130_fd_sc_hd__buf_2
*CAP
1 group_state_disabled 0.00059842
2 *1515:X 0.00059842
3 group_state_bits[1] group_state_disabled 0
4 group_state_bits[3] group_state_disabled 0
*RES
1 *1515:X group_state_disabled 49.6829 
*END

*D_NET *46 0.000751427
*CONN
*P group_state_locked O
*I *1516:X O *D sky130_fd_sc_hd__buf_2
*CAP
1 group_state_locked 7.67726e-05
2 *1516:X 0.000272694
3 *46:14 0.000349467
4 group_state_locked group_timeout_count[4] 2.12457e-05
5 group_state_locked *1471:A 1.5289e-05
6 *46:14 group_timeout_count[4] 0
7 *46:14 *1471:A 1.59585e-05
*RES
1 *1516:X *46:14 49.9 
2 *46:14 group_state_locked 0.382667 
*END

*D_NET *47 0.00113205
*CONN
*P group_state_suspended O
*I *1517:X O *D sky130_fd_sc_hd__buf_2
*CAP
1 group_state_suspended 0.000550546
2 *1517:X 0.000550546
3 group_state_suspended group_suspended 0
4 group_state_suspended *1511:A 1.14876e-05
5 group_state_suspended *1513:A 1.94693e-05
6 group_state_bits[2] group_state_suspended 0
*RES
1 *1517:X group_state_suspended 49.2064 
*END

*D_NET *48 0.000896102
*CONN
*P group_state_unlocked O
*I *1518:X O *D sky130_fd_sc_hd__buf_2
*CAP
1 group_state_unlocked 5.25196e-05
2 *1518:X 0.000312733
3 *48:10 0.000365252
4 group_state_unlocked group_timeout_count[10] 3.49463e-05
5 group_state_unlocked group_timeout_count[13] 3.49463e-05
6 *3:9 *48:10 9.5705e-05
*RES
1 *1518:X *48:10 43.4375 
2 *48:10 group_state_unlocked 8.32853 
*END

*D_NET *49 0.00119684
*CONN
*P group_suspended O
*I *1519:X O *D sky130_fd_sc_hd__buf_2
*CAP
1 group_suspended 0.00059842
2 *1519:X 0.00059842
3 group_suspended unlock_enable 0
4 group_state_suspended group_suspended 0
*RES
1 *1519:X group_suspended 49.6829 
*END

*D_NET *50 0.00176268
*CONN
*P group_timeout_count[0] O
*I *1520:X O *D sky130_fd_sc_hd__buf_2
*CAP
1 group_timeout_count[0] 0.000127857
2 *1520:X 0.000344753
3 *50:12 0.000472611
4 group_timeout_count[0] group_timeout_count[1] 3.25681e-05
5 group_timeout_count[0] group_timeout_count[6] 0
6 *50:12 *1527:A 0.000173452
7 *50:12 *57:10 0.000327827
8 *50:12 *334:25 5.50049e-05
9 group_locked group_timeout_count[0] 5.75829e-05
10 *40:10 *50:12 0.000171025
*RES
1 *1520:X *50:12 47.5182 
2 *50:12 group_timeout_count[0] 8.58613 
*END

*D_NET *51 0.000774565
*CONN
*P group_timeout_count[10] O
*I *1521:X O *D sky130_fd_sc_hd__buf_2
*CAP
1 group_timeout_count[10] 0.000352336
2 *1521:X 0.000352336
3 group_timeout_count[10] group_timeout_count[12] 3.49463e-05
4 group_timeout_count[10] group_timeout_count[13] 0
5 group_timeout_count[10] *343:39 0
6 group_state_unlocked group_timeout_count[10] 3.49463e-05
7 *3:9 group_timeout_count[10] 0
8 *38:11 group_timeout_count[10] 0
*RES
1 *1521:X group_timeout_count[10] 48.5734 
*END

*D_NET *52 0.00106337
*CONN
*P group_timeout_count[11] O
*I *1522:X O *D sky130_fd_sc_hd__buf_2
*CAP
1 group_timeout_count[11] 6.66514e-05
2 *1522:X 0.000405623
3 *52:10 0.000472274
4 group_timeout_count[11] group_timeout_count[13] 3.25681e-05
5 group_timeout_count[11] group_timeout_count[14] 3.25681e-05
6 *52:10 group_timeout_count[13] 1.7009e-05
7 *52:10 *55:10 0
8 *3:9 *52:10 3.66799e-05
*RES
1 *1522:X *52:10 43.9346 
2 *52:10 group_timeout_count[11] 8.32853 
*END

*D_NET *53 0.000766754
*CONN
*P group_timeout_count[12] O
*I *1523:X O *D sky130_fd_sc_hd__buf_2
*CAP
1 group_timeout_count[12] 5.25196e-05
2 *1523:X 0.000261427
3 *53:10 0.000313947
4 *53:10 *348:12 3.22879e-05
5 group_timeout_count[10] group_timeout_count[12] 3.49463e-05
6 *3:9 *53:10 3.66799e-05
7 *38:11 group_timeout_count[12] 3.49463e-05
*RES
1 *1523:X *53:10 42.0289 
2 *53:10 group_timeout_count[12] 8.32853 
*END

*D_NET *54 0.000805203
*CONN
*P group_timeout_count[13] O
*I *1524:X O *D sky130_fd_sc_hd__buf_2
*CAP
1 group_timeout_count[13] 0.000324336
2 *1524:X 0.000324336
3 group_timeout_count[13] *349:46 0
4 group_state_unlocked group_timeout_count[13] 3.49463e-05
5 group_timeout_count[10] group_timeout_count[13] 0
6 group_timeout_count[11] group_timeout_count[13] 3.25681e-05
7 *3:9 group_timeout_count[13] 7.20089e-05
8 *52:10 group_timeout_count[13] 1.7009e-05
*RES
1 *1524:X group_timeout_count[13] 49.1858 
*END

*D_NET *55 0.000848462
*CONN
*P group_timeout_count[14] O
*I *1525:X O *D sky130_fd_sc_hd__buf_2
*CAP
1 group_timeout_count[14] 6.66514e-05
2 *1525:X 0.000291915
3 *55:10 0.000358567
4 debug_enable group_timeout_count[14] 3.25681e-05
5 group_timeout_count[11] group_timeout_count[14] 3.25681e-05
6 *3:9 *55:10 6.61924e-05
7 *52:10 *55:10 0
*RES
1 *1525:X *55:10 42.7332 
2 *55:10 group_timeout_count[14] 8.32853 
*END

*D_NET *56 0.000993488
*CONN
*P group_timeout_count[15] O
*I *1526:X O *D sky130_fd_sc_hd__buf_2
*CAP
1 group_timeout_count[15] 0.000447502
2 *1526:X 0.000447502
3 group_timeout_count[15] *1249:B1 9.84851e-05
4 global_timeout_count[0] group_timeout_count[15] 0
*RES
1 *1526:X group_timeout_count[15] 47.0936 
*END

*D_NET *57 0.00131133
*CONN
*P group_timeout_count[1] O
*I *1527:X O *D sky130_fd_sc_hd__buf_2
*CAP
1 group_timeout_count[1] 5.95855e-05
2 *1527:X 0.000261369
3 *57:10 0.000320954
4 group_timeout_count[1] group_timeout_count[6] 3.49463e-05
5 *57:10 *1527:A 0
6 *57:10 *358:74 0
7 group_timeout_count[0] group_timeout_count[1] 3.25681e-05
8 *40:10 *57:10 0.000274078
9 *50:12 *57:10 0.000327827
*RES
1 *1527:X *57:10 45.3432 
2 *57:10 group_timeout_count[1] 8.32853 
*END

*D_NET *58 0.000961929
*CONN
*P group_timeout_count[2] O
*I *1528:X O *D sky130_fd_sc_hd__buf_2
*CAP
1 group_timeout_count[2] 5.95855e-05
2 *1528:X 0.000338379
3 *58:10 0.000397965
4 group_timeout_count[2] group_timeout_count[3] 3.49463e-05
5 group_timeout_count[2] group_timeout_count[6] 3.25681e-05
6 *58:10 *1529:A 9.84851e-05
*RES
1 *1528:X *58:10 43.2304 
2 *58:10 group_timeout_count[2] 8.32853 
*END

*D_NET *59 0.00110831
*CONN
*P group_timeout_count[3] O
*I *1529:X O *D sky130_fd_sc_hd__buf_2
*CAP
1 group_timeout_count[3] 0.000337283
2 *1529:X 0.000337283
3 group_timeout_count[3] group_timeout_count[6] 0
4 group_timeout_count[3] group_timeout_count[8] 1.5289e-05
5 group_timeout_count[3] group_timeout_count[9] 0
6 group_timeout_count[3] *64:14 1.59585e-05
7 group_timeout_count[3] *345:37 6.16531e-05
8 group_timeout_count[3] *345:53 0.000104869
9 group_timeout_count[3] *353:45 0.000169683
10 group_timeout_count[3] *358:74 3.13478e-05
11 group_timeout_count[2] group_timeout_count[3] 3.49463e-05
*RES
1 *1529:X group_timeout_count[3] 49.9819 
*END

*D_NET *60 0.000829075
*CONN
*P group_timeout_count[4] O
*I *1530:X O *D sky130_fd_sc_hd__buf_2
*CAP
1 group_timeout_count[4] 0.000326169
2 *1530:X 0.000326169
3 group_timeout_count[4] group_unlocked 0
4 group_timeout_count[4] *1471:A 0
5 group_timeout_count[4] *67:17 2.79122e-05
6 group_timeout_count[4] *266:16 0.00012758
7 group_state_locked group_timeout_count[4] 2.12457e-05
8 *46:14 group_timeout_count[4] 0
*RES
1 *1530:X group_timeout_count[4] 48.5734 
*END

*D_NET *61 0.000642525
*CONN
*P group_timeout_count[5] O
*I *1531:X O *D sky130_fd_sc_hd__buf_2
*CAP
1 group_timeout_count[5] 0.000266935
2 *1531:X 0.000266935
3 group_timeout_count[5] group_unlocked 6.62302e-05
4 *1477:A group_timeout_count[5] 3.25681e-05
5 *3:9 group_timeout_count[5] 9.85586e-06
*RES
1 *1531:X group_timeout_count[5] 48.0909 
*END

*D_NET *62 0.00134883
*CONN
*P group_timeout_count[6] O
*I *1532:X O *D sky130_fd_sc_hd__buf_2
*CAP
1 group_timeout_count[6] 0.000219593
2 *1532:X 0.000106238
3 *62:8 0.000325831
4 *62:8 *1322:A 0.000207805
5 *62:8 *1527:A 0.00014411
6 *62:8 *353:56 0.000210966
7 *62:8 *358:74 6.67764e-05
8 group_timeout_count[0] group_timeout_count[6] 0
9 group_timeout_count[1] group_timeout_count[6] 3.49463e-05
10 group_timeout_count[2] group_timeout_count[6] 3.25681e-05
11 group_timeout_count[3] group_timeout_count[6] 0
*RES
1 *1532:X *62:8 42.5468 
2 *62:8 group_timeout_count[6] 8.84373 
*END

*D_NET *63 0.000793947
*CONN
*P group_timeout_count[7] O
*I *1533:X O *D sky130_fd_sc_hd__buf_2
*CAP
1 group_timeout_count[7] 0.000337884
2 *1533:X 0.000337884
3 group_timeout_count[7] group_timeout_count[9] 5.99691e-05
4 group_timeout_count[7] *1471:A 5.82094e-05
5 group_timeout_count[7] *266:16 0
*RES
1 *1533:X group_timeout_count[7] 49.8901 
*END

*D_NET *64 0.000751427
*CONN
*P group_timeout_count[8] O
*I *1534:X O *D sky130_fd_sc_hd__buf_2
*CAP
1 group_timeout_count[8] 7.67726e-05
2 *1534:X 0.000272694
3 *64:14 0.000349467
4 group_timeout_count[8] group_timeout_count[9] 2.12457e-05
5 *64:14 group_timeout_count[9] 0
6 group_timeout_count[3] group_timeout_count[8] 1.5289e-05
7 group_timeout_count[3] *64:14 1.59585e-05
*RES
1 *1534:X *64:14 49.9 
2 *64:14 group_timeout_count[8] 0.382667 
*END

*D_NET *65 0.000693863
*CONN
*P group_timeout_count[9] O
*I *1535:X O *D sky130_fd_sc_hd__buf_2
*CAP
1 group_timeout_count[9] 0.000275493
2 *1535:X 0.000275493
3 group_timeout_count[9] *358:74 6.16635e-05
4 group_timeout_count[3] group_timeout_count[9] 0
5 group_timeout_count[7] group_timeout_count[9] 5.99691e-05
6 group_timeout_count[8] group_timeout_count[9] 2.12457e-05
7 *64:14 group_timeout_count[9] 0
*RES
1 *1535:X group_timeout_count[9] 48.5734 
*END

*D_NET *66 0.000557272
*CONN
*P group_unlocked O
*I *1536:X O *D sky130_fd_sc_hd__buf_2
*CAP
1 group_unlocked 0.000229965
2 *1536:X 0.000229965
3 group_unlocked *67:17 2.12457e-05
4 group_unlocked *363:10 9.86551e-06
5 group_timeout_count[4] group_unlocked 0
6 group_timeout_count[5] group_unlocked 6.62302e-05
*RES
1 *1536:X group_unlocked 47.1648 
*END

*D_NET *67 0.000808109
*CONN
*P hdr_parse_fail I
*I *1479:A I *D sky130_fd_sc_hd__buf_1
*CAP
1 hdr_parse_fail 0.000379475
2 *1479:A 0
3 *67:17 0.000379475
4 *67:17 *266:16 0
5 group_timeout_count[4] *67:17 2.79122e-05
6 group_unlocked *67:17 2.12457e-05
*RES
1 hdr_parse_fail *67:17 28.9191 
2 *67:17 *1479:A 23 
*END

*D_NET *68 0.00128566
*CONN
*P illegal_in I
*I *1480:A I *D sky130_fd_sc_hd__clkbuf_1
*CAP
1 illegal_in 0.000571002
2 *1480:A 0
3 *68:9 0.000571002
4 *68:9 sticky_illegal 0
5 *68:9 *1540:A 0.000143655
6 *68:9 *333:21 0
7 group_error *68:9 0
*RES
1 illegal_in *68:9 27.7393 
2 *68:9 *1480:A 23 
*END

*D_NET *69 0.000580674
*CONN
*P power_glitch I
*I *1467:A I *D sky130_fd_sc_hd__clkbuf_1
*CAP
1 power_glitch 0.000195586
2 *1467:A 0.000195586
3 *1467:A *1226:A 0
4 *1467:A *73:11 0
5 *1467:A *298:8 3.9779e-05
6 *1466:A *1467:A 7.82427e-05
7 *9:15 *1467:A 7.1481e-05
*RES
1 power_glitch *1467:A 48.1354 
*END

*D_NET *70 0.00113701
*CONN
*P reset I
*I *1468:A I *D sky130_fd_sc_hd__buf_1
*CAP
1 reset 0.00054015
2 *1468:A 0.00054015
3 *1468:A *1451:A 5.67058e-05
*RES
1 reset *1468:A 49.7864 
*END

*D_NET *71 0.000681613
*CONN
*P safe_led O
*I *1537:X O *D sky130_fd_sc_hd__buf_2
*CAP
1 safe_led 0.000219863
2 *1537:X 0.000219863
3 safe_led security_breach 8.97484e-05
4 safe_led *364:8 6.47626e-05
5 global_state_escalated safe_led 8.73764e-05
*RES
1 *1537:X safe_led 48.5734 
*END

*D_NET *72 0.000588457
*CONN
*P security_breach O
*I *1538:X O *D sky130_fd_sc_hd__buf_2
*CAP
1 security_breach 0.00019309
2 *1538:X 0.00019309
3 security_breach *365:8 2.2781e-05
4 global_state_bits[3] security_breach 8.97484e-05
5 safe_led security_breach 8.97484e-05
*RES
1 *1538:X security_breach 47.8691 
*END

*D_NET *73 0.00111312
*CONN
*P size_mismatch I
*I *1469:A I *D sky130_fd_sc_hd__clkbuf_1
*CAP
1 size_mismatch 0.000413007
2 *1469:A 0
3 *73:11 0.000413007
4 *73:11 *1454:A 6.79006e-05
5 *73:11 *308:21 2.57449e-05
6 *73:11 *328:10 0
7 global_state_bits[2] *73:11 7.82427e-05
8 *1467:A *73:11 0
9 *9:15 *73:11 0.000115223
*RES
1 size_mismatch *73:11 29.0089 
2 *73:11 *1469:A 23 
*END

*D_NET *74 0.0011928
*CONN
*P sticky_illegal O
*I *1539:X O *D sky130_fd_sc_hd__buf_2
*CAP
1 sticky_illegal 0.000573364
2 *1539:X 0.000573364
3 sticky_illegal sticky_tamper 0
4 sticky_illegal *1539:A 1.94812e-05
5 sticky_illegal *1540:A 2.65879e-05
6 *68:9 sticky_illegal 0
*RES
1 *1539:X sticky_illegal 49.6829 
*END

*D_NET *75 0.00118409
*CONN
*P sticky_tamper O
*I *1540:X O *D sky130_fd_sc_hd__buf_2
*CAP
1 sticky_tamper 0.000583375
2 *1540:X 0.000583375
3 sticky_tamper *1540:A 1.73399e-05
4 fsm_error sticky_tamper 0
5 sticky_illegal sticky_tamper 0
*RES
1 *1540:X sticky_tamper 49.6829 
*END

*D_NET *76 0.00128566
*CONN
*P tamper_in I
*I *1470:A I *D sky130_fd_sc_hd__clkbuf_1
*CAP
1 tamper_in 0.000571002
2 *1470:A 0
3 *76:9 0.000571002
4 *76:9 *302:117 0
5 *76:9 *367:12 0.000143655
6 global_state_authorized *76:9 0
7 group_error *76:9 0
*RES
1 tamper_in *76:9 27.7393 
2 *76:9 *1470:A 23 
*END

*D_NET *77 0.00119684
*CONN
*P unlock_enable O
*I *1541:X O *D sky130_fd_sc_hd__buf_2
*CAP
1 unlock_enable 0.00059842
2 *1541:X 0.00059842
3 global_state_authorized unlock_enable 0
4 group_suspended unlock_enable 0
*RES
1 *1541:X unlock_enable 49.6829 
*END

*D_NET *78 0.00129693
*CONN
*P unlock_req I
*I *1471:A I *D sky130_fd_sc_hd__buf_1
*CAP
1 unlock_req 0.000560908
2 *1471:A 0.000560908
3 *1471:A *1434:A 5.32119e-05
4 *1471:A *268:10 3.2442e-05
5 group_state_locked *1471:A 1.5289e-05
6 group_timeout_count[4] *1471:A 0
7 group_timeout_count[7] *1471:A 5.82094e-05
8 *46:14 *1471:A 1.59585e-05
*RES
1 unlock_req *1471:A 48.994 
*END

*D_NET *79 0.00121082
*CONN
*P warm_reset_req I
*I *1472:A I *D sky130_fd_sc_hd__buf_1
*CAP
1 warm_reset_req 0.000435605
2 *1472:A 0
3 *79:13 0.000435605
4 *79:13 *318:10 3.34756e-05
5 *79:13 *339:10 3.22879e-05
6 global_state_locked *79:13 0
7 global_timeout_count[11] *79:13 8.73764e-05
8 *1476:A *79:13 0.000186471
*RES
1 warm_reset_req *79:13 29.8405 
2 *79:13 *1472:A 23 
*END

*D_NET *80 0.000926782
*CONN
*I *1381:D I *D sky130_fd_sc_hd__dfxtp_1
*I *1192:X O *D sky130_fd_sc_hd__o31a_1
*CAP
1 *1381:D 7.6258e-05
2 *1192:X 0.000173889
3 *80:8 0.000250147
4 *1381:D *294:129 5.10613e-05
5 *1381:D *366:8 3.17963e-05
6 *80:8 *294:125 0.000148391
7 *80:8 *366:10 0.000125894
8 *80:8 *366:14 6.93449e-05
*RES
1 *1192:X *80:8 43.075 
2 *80:8 *1381:D 39.6209 
*END

*D_NET *81 0.00121604
*CONN
*I *1382:D I *D sky130_fd_sc_hd__dfxtp_2
*I *1215:Y O *D sky130_fd_sc_hd__a21oi_1
*CAP
1 *1382:D 0
2 *1215:Y 0.000405191
3 *81:10 0.000405191
4 *81:10 *154:29 0.000131304
5 *81:10 *293:118 0.000147953
6 *81:10 *293:126 0.000126403
*RES
1 *1215:Y *81:10 30.8093 
2 *81:10 *1382:D 23 
*END

*D_NET *82 0.00142218
*CONN
*I *1383:D I *D sky130_fd_sc_hd__dfxtp_1
*I *1219:Y O *D sky130_fd_sc_hd__nor2_1
*CAP
1 *1383:D 0
2 *1219:Y 0.000488302
3 *82:18 0.000488302
4 *82:18 *176:12 2.46468e-05
5 *82:18 *294:16 4.95114e-05
6 *82:18 *307:23 0.000185434
7 *82:18 *307:34 4.34745e-05
8 *82:18 *314:10 0.000142513
*RES
1 *1219:Y *82:18 33.0671 
2 *82:18 *1383:D 23 
*END

*D_NET *83 0.00233449
*CONN
*I *1384:D I *D sky130_fd_sc_hd__dfxtp_1
*I *1229:X O *D sky130_fd_sc_hd__and2b_1
*CAP
1 *1384:D 0.000247615
2 *1229:X 0.000431213
3 *83:12 0.000678828
4 *1384:D *1384:CLK 0.000320105
5 *83:12 *147:37 0
6 *83:12 *225:8 0
7 *83:12 *290:44 2.93747e-05
8 *83:12 *290:57 0.00062735
*RES
1 *1229:X *83:12 48.4193 
2 *83:12 *1384:D 43.4323 
*END

*D_NET *84 0.000429196
*CONN
*I *1385:D I *D sky130_fd_sc_hd__dfxtp_1
*I *1247:Y O *D sky130_fd_sc_hd__a21oi_1
*CAP
1 *1385:D 1.26271e-05
2 *1247:Y 0.000153001
3 *84:8 0.000165628
4 *1385:D *291:89 1.64354e-05
5 *84:8 *1386:CLK 4.06512e-05
6 *84:8 *352:34 0
7 *84:8 *373:92 4.08537e-05
*RES
1 *1247:Y *84:8 40.9621 
2 *84:8 *1385:D 38.1916 
*END

*D_NET *85 0.000631241
*CONN
*I *1386:D I *D sky130_fd_sc_hd__dfxtp_1
*I *1249:Y O *D sky130_fd_sc_hd__a21oi_1
*CAP
1 *1386:D 3.50913e-05
2 *1249:Y 9.47907e-05
3 *85:8 0.000129882
4 *1386:D *315:14 0.000146213
5 *1386:D *323:30 5.65198e-05
6 *85:8 *352:34 0.000168744
7 *85:8 *373:92 0
*RES
1 *1249:Y *85:8 40.2579 
2 *85:8 *1386:D 39.6209 
*END

*D_NET *86 0.0013851
*CONN
*I *1387:D I *D sky130_fd_sc_hd__dfxtp_1
*I *1252:Y O *D sky130_fd_sc_hd__a21oi_1
*CAP
1 *1387:D 1.58638e-05
2 *1252:Y 0.000479219
3 *86:10 0.000495083
4 *86:10 *325:40 5.61311e-05
5 *86:10 *371:76 0.00010018
6 *86:10 *371:87 0.000238626
*RES
1 *1252:Y *86:10 46.12 
2 *86:10 *1387:D 38.1916 
*END

*D_NET *87 0.000518222
*CONN
*I *1388:D I *D sky130_fd_sc_hd__dfxtp_1
*I *1255:Y O *D sky130_fd_sc_hd__a21oi_1
*CAP
1 *1388:D 0.000221
2 *1255:Y 0.000221
3 *1388:D *1255:B1 1.24376e-05
4 *1388:D *1388:CLK 6.37845e-05
*RES
1 *1255:Y *1388:D 49.5163 
*END

*D_NET *88 0.000614911
*CONN
*I *1389:D I *D sky130_fd_sc_hd__dfxtp_1
*I *1257:Y O *D sky130_fd_sc_hd__a21oi_1
*CAP
1 *1389:D 1.38132e-05
2 *1257:Y 0.000200377
3 *88:10 0.00021419
4 *1389:D *1256:A 4.9054e-06
5 *88:10 *1256:B 0
6 *88:10 *196:22 9.75779e-05
7 *88:10 *207:8 0
8 *88:10 *326:23 8.4047e-05
*RES
1 *1257:Y *88:10 41.3557 
2 *88:10 *1389:D 38.1916 
*END

*D_NET *89 0.000392229
*CONN
*I *1390:D I *D sky130_fd_sc_hd__dfxtp_1
*I *1260:Y O *D sky130_fd_sc_hd__a21oi_1
*CAP
1 *1390:D 1.66233e-05
2 *1260:Y 0.00013184
3 *89:8 0.000148463
4 *89:8 *371:24 2.70433e-05
5 *89:8 *371:32 6.82599e-05
*RES
1 *1260:Y *89:8 40.9621 
2 *89:8 *1390:D 38.1916 
*END

*D_NET *90 0.000302913
*CONN
*I *1391:D I *D sky130_fd_sc_hd__dfxtp_1
*I *1262:X O *D sky130_fd_sc_hd__o21ba_1
*CAP
1 *1391:D 4.77228e-05
2 *1262:X 7.59234e-05
3 *90:8 0.000123646
4 *90:8 *210:10 5.56203e-05
*RES
1 *1262:X *90:8 39.5536 
2 *90:8 *1391:D 38.668 
*END

*D_NET *91 0.000610819
*CONN
*I *1392:D I *D sky130_fd_sc_hd__dfxtp_1
*I *1266:Y O *D sky130_fd_sc_hd__a21oi_1
*CAP
1 *1392:D 1.13183e-05
2 *1266:Y 0.000102623
3 *91:10 0.000113941
4 *1392:D *293:79 1.64354e-05
5 *91:10 *371:87 2.93845e-05
6 *91:10 *371:95 0.000167443
7 *91:10 *373:37 0.000169674
*RES
1 *1266:Y *91:10 40.8793 
2 *91:10 *1392:D 38.1916 
*END

*D_NET *92 0.000993477
*CONN
*I *1393:D I *D sky130_fd_sc_hd__dfxtp_1
*I *1268:Y O *D sky130_fd_sc_hd__a21oi_1
*CAP
1 *1393:D 1.58638e-05
2 *1268:Y 0.000292951
3 *92:10 0.000308815
4 *92:10 *1268:B1 0.000123517
5 *92:10 *293:73 8.26569e-05
6 *92:10 *373:14 0.000169674
*RES
1 *1268:Y *92:10 43.7379 
2 *92:10 *1393:D 38.1916 
*END

*D_NET *93 0.000288075
*CONN
*I *1394:D I *D sky130_fd_sc_hd__dfxtp_1
*I *1271:X O *D sky130_fd_sc_hd__and3_1
*CAP
1 *1394:D 8.45249e-06
2 *1271:X 0.000127367
3 *93:8 0.00013582
4 *1394:D *293:79 1.64354e-05
5 *93:8 *1270:C 0
6 *93:8 *293:73 0
*RES
1 *1271:X *93:8 39.9057 
2 *93:8 *1394:D 38.1916 
*END

*D_NET *94 0.00124672
*CONN
*I *1395:D I *D sky130_fd_sc_hd__dfxtp_1
*I *1274:Y O *D sky130_fd_sc_hd__a21oi_1
*CAP
1 *1395:D 9.26771e-06
2 *1274:Y 0.000281762
3 *94:12 0.00029103
4 *1395:D *198:22 4.9054e-06
5 *1395:D *293:56 1.64354e-05
6 *94:12 *161:12 0.000415917
7 *94:12 *293:67 0
8 *94:12 *373:14 0
9 *94:12 *373:27 0.000227407
*RES
1 *1274:Y *94:12 45.8921 
2 *94:12 *1395:D 38.1916 
*END

*D_NET *95 0.00069379
*CONN
*I *1396:D I *D sky130_fd_sc_hd__dfxtp_1
*I *1276:Y O *D sky130_fd_sc_hd__a21oi_1
*CAP
1 *1396:D 0
2 *1276:Y 0.000293397
3 *95:12 0.000293397
4 *95:12 *371:14 0.000106997
*RES
1 *1276:Y *95:12 28.7638 
2 *95:12 *1396:D 23 
*END

*D_NET *96 0.000791985
*CONN
*I *1397:D I *D sky130_fd_sc_hd__dfxtp_1
*I *1279:Y O *D sky130_fd_sc_hd__a21oi_1
*CAP
1 *1397:D 4.18542e-05
2 *1279:Y 0.000176268
3 *96:10 0.000218122
4 *1397:D *318:22 2.78402e-05
5 *1397:D *319:10 4.72035e-05
6 *96:10 *1279:B1 6.17437e-06
7 *96:10 *201:66 2.13733e-05
8 *96:10 *293:134 4.96264e-05
9 *96:10 *293:138 3.92407e-05
10 *96:10 *306:14 0.000164282
*RES
1 *1279:Y *96:10 41.3557 
2 *96:10 *1397:D 38.9943 
*END

*D_NET *97 0.000714596
*CONN
*I *1398:D I *D sky130_fd_sc_hd__dfxtp_1
*I *1281:X O *D sky130_fd_sc_hd__o211a_1
*CAP
1 *1398:D 4.3409e-05
2 *1281:X 0.000183731
3 *97:10 0.00022714
4 *1398:D *320:10 4.87572e-05
5 *97:10 *1281:B1 2.64616e-05
6 *97:10 *222:8 0.000167443
7 *97:10 *382:6 1.76557e-05
*RES
1 *1281:X *97:10 41.3557 
2 *97:10 *1398:D 38.9943 
*END

*D_NET *98 0.000459497
*CONN
*I *1399:D I *D sky130_fd_sc_hd__dfxtp_1
*I *1283:X O *D sky130_fd_sc_hd__o211a_1
*CAP
1 *1399:D 0.000130787
2 *1283:X 9.89616e-05
3 *98:8 0.000229748
4 *98:8 *1283:B1 0
5 *98:8 *321:10 0
6 global_timeout_count[14] *98:8 0
*RES
1 *1283:X *98:8 39.5536 
2 *98:8 *1399:D 40.0973 
*END

*D_NET *99 0.000757639
*CONN
*I *1400:D I *D sky130_fd_sc_hd__dfxtp_1
*I *1285:Y O *D sky130_fd_sc_hd__nor2_1
*CAP
1 *1400:D 1.2998e-05
2 *1285:Y 0.000235484
3 *99:10 0.000248482
4 *99:10 *1282:B 1.24376e-05
5 *99:10 *1285:B 2.32004e-05
6 *99:10 *293:73 5.31444e-05
7 *99:10 *321:34 0.000114074
8 *99:10 *321:58 0
9 *99:10 *386:10 5.78198e-05
*RES
1 *1285:Y *99:10 41.9564 
2 *99:10 *1400:D 38.1916 
*END

*D_NET *100 0.000575034
*CONN
*I *1401:D I *D sky130_fd_sc_hd__dfxtp_1
*I *1290:X O *D sky130_fd_sc_hd__o211a_1
*CAP
1 *1401:D 7.17495e-06
2 *1290:X 0.00019293
3 *100:10 0.000200105
4 *1401:D *171:10 1.64354e-05
5 *1401:D *293:33 1.64354e-05
6 *100:10 *391:38 0
7 *100:10 *392:10 0
8 *100:10 *392:22 0.000141954
*RES
1 *1290:X *100:10 41.48 
2 *100:10 *1401:D 38.1916 
*END

*D_NET *101 0.00095113
*CONN
*I *1402:D I *D sky130_fd_sc_hd__dfxtp_1
*I *1291:X O *D sky130_fd_sc_hd__o221a_1
*CAP
1 *1402:D 0.000173164
2 *1291:X 0.000267213
3 *101:8 0.000440377
4 *101:8 *1465:A 0
5 *101:8 *138:29 7.03766e-05
6 *101:8 *392:10 0
*RES
1 *1291:X *101:8 43.075 
2 *101:8 *1402:D 41.0502 
*END

*D_NET *102 0.000381022
*CONN
*I *1403:D I *D sky130_fd_sc_hd__dfxtp_1
*I *1210:X O *D sky130_fd_sc_hd__or2_1
*CAP
1 *1403:D 1.58638e-05
2 *1210:X 8.98103e-05
3 *102:8 0.000105674
4 *102:8 *1458:A 0
5 *102:8 *375:8 0.000169674
*RES
1 *1210:X *102:8 40.2579 
2 *102:8 *1403:D 38.1916 
*END

*D_NET *103 0.000614647
*CONN
*I *1404:D I *D sky130_fd_sc_hd__dfxtp_1
*I *1292:Y O *D sky130_fd_sc_hd__nor2_1
*CAP
1 *1404:D 5.38943e-05
2 *1292:Y 5.242e-05
3 *103:8 0.000106314
4 *1404:D *1234:A2 0.000143599
5 *1404:D *190:6 3.65942e-05
6 *103:8 *133:45 0.000110913
7 *103:8 *305:14 0.000110913
*RES
1 *1292:Y *103:8 39.5536 
2 *103:8 *1404:D 39.6209 
*END

*D_NET *104 0.000795291
*CONN
*I *1405:D I *D sky130_fd_sc_hd__dfxtp_1
*I *1293:Y O *D sky130_fd_sc_hd__nor2_1
*CAP
1 *1405:D 0.000216135
2 *1293:Y 7.8969e-05
3 *104:8 0.000295104
4 *1405:D *395:10 9.41704e-05
5 *104:8 *297:21 0.000110913
*RES
1 *1293:Y *104:8 39.5536 
2 *104:8 *1405:D 41.5266 
*END

*D_NET *105 0.000421236
*CONN
*I *1406:D I *D sky130_fd_sc_hd__dfxtp_1
*I *1294:X O *D sky130_fd_sc_hd__and2_1
*CAP
1 *1406:D 1.66233e-05
2 *1294:X 9.06462e-05
3 *105:10 0.00010727
4 *105:10 *1406:CLK 3.81391e-05
5 *105:10 *135:21 0.000111852
6 *105:10 *302:74 5.67058e-05
*RES
1 *1294:X *105:10 40.175 
2 *105:10 *1406:D 38.1916 
*END

*D_NET *106 0.000455696
*CONN
*I *1407:D I *D sky130_fd_sc_hd__dfxtp_1
*I *1237:Y O *D sky130_fd_sc_hd__nor2_1
*CAP
1 *1407:D 1.58638e-05
2 *1237:Y 0.000164313
3 *106:10 0.000180177
4 *106:10 *132:10 2.54046e-05
5 *106:10 *310:99 0
6 *106:10 *375:14 5.67058e-05
7 *106:10 *375:20 1.32314e-05
8 *106:10 *378:10 0
*RES
1 *1237:Y *106:10 40.8793 
2 *106:10 *1407:D 38.1916 
*END

*D_NET *107 0.000385674
*CONN
*I *1408:D I *D sky130_fd_sc_hd__dfxtp_1
*I *1297:X O *D sky130_fd_sc_hd__o21a_1
*CAP
1 *1408:D 8.90453e-05
2 *1297:X 7.16565e-05
3 *107:8 0.000160702
4 *1408:D *294:157 6.17437e-06
5 *107:8 *135:40 0
6 *107:8 *302:104 5.80963e-05
7 *107:8 *376:10 0
*RES
1 *1297:X *107:8 39.5536 
2 *107:8 *1408:D 39.4137 
*END

*D_NET *108 0.00109468
*CONN
*I *1409:D I *D sky130_fd_sc_hd__dfxtp_1
*I *1321:X O *D sky130_fd_sc_hd__and2b_1
*CAP
1 *1409:D 0.000149225
2 *1321:X 0.000219082
3 *108:10 0.000368307
4 *108:10 *1321:B 0.000190627
5 *108:10 *1520:A 0
6 *108:10 *369:10 0.000167443
*RES
1 *1321:X *108:10 42.3086 
2 *108:10 *1409:D 40.0973 
*END

*D_NET *109 0.00034709
*CONN
*I *1410:D I *D sky130_fd_sc_hd__dfxtp_1
*I *1324:X O *D sky130_fd_sc_hd__and3_1
*CAP
1 *1410:D 0.00010765
2 *1324:X 0.00010765
3 *1410:D *370:63 0.00013179
*RES
1 *1324:X *1410:D 48.3873 
*END

*D_NET *110 0.00029019
*CONN
*I *1411:D I *D sky130_fd_sc_hd__dfxtp_1
*I *1327:X O *D sky130_fd_sc_hd__and3_1
*CAP
1 *1411:D 1.36537e-05
2 *1327:X 4.53472e-05
3 *110:8 5.90009e-05
4 *110:8 *292:54 5.80963e-05
5 *110:8 *334:25 0.000114092
*RES
1 *1327:X *110:8 39.5536 
2 *110:8 *1411:D 38.1916 
*END

*D_NET *111 0.000309931
*CONN
*I *1412:D I *D sky130_fd_sc_hd__dfxtp_1
*I *1330:X O *D sky130_fd_sc_hd__and3b_1
*CAP
1 *1412:D 0.000138863
2 *1330:X 0.000138863
3 *1412:D *292:46 3.22051e-05
*RES
1 *1330:X *1412:D 48.3873 
*END

*D_NET *112 0.000806359
*CONN
*I *1413:D I *D sky130_fd_sc_hd__dfxtp_1
*I *1333:X O *D sky130_fd_sc_hd__and3_1
*CAP
1 *1413:D 0.000263872
2 *1333:X 9.67411e-05
3 *112:8 0.000360613
4 *112:8 *1441:A 0
5 *112:8 *261:10 8.51329e-05
*RES
1 *1333:X *112:8 40.2579 
2 *112:8 *1413:D 42.4795 
*END

*D_NET *113 0.000479085
*CONN
*I *1414:D I *D sky130_fd_sc_hd__dfxtp_1
*I *1336:X O *D sky130_fd_sc_hd__and3b_1
*CAP
1 *1414:D 0.000145523
2 *1336:X 0.000145523
3 *3:19 *1414:D 0.00018804
*RES
1 *1336:X *1414:D 48.7395 
*END

*D_NET *114 0.000438775
*CONN
*I *1415:D I *D sky130_fd_sc_hd__dfxtp_1
*I *1339:X O *D sky130_fd_sc_hd__and3_1
*CAP
1 *1415:D 8.20444e-05
2 *1339:X 8.20444e-05
3 *1415:D *1339:A 0.000186491
4 *1415:D *1415:CLK 8.81944e-05
*RES
1 *1339:X *1415:D 48.7964 
*END

*D_NET *115 0.000304973
*CONN
*I *1416:D I *D sky130_fd_sc_hd__dfxtp_1
*I *1342:X O *D sky130_fd_sc_hd__and3b_1
*CAP
1 *1416:D 1.11712e-05
2 *1342:X 5.93053e-05
3 *115:8 7.04766e-05
4 *1416:D *372:10 1.64354e-05
5 *115:8 *262:73 6.7177e-06
6 *115:8 *267:10 5.45887e-05
7 *115:8 *372:10 8.62783e-05
*RES
1 *1342:X *115:8 39.5536 
2 *115:8 *1416:D 38.1916 
*END

*D_NET *116 0.000415332
*CONN
*I *1417:D I *D sky130_fd_sc_hd__dfxtp_1
*I *1345:X O *D sky130_fd_sc_hd__and3_1
*CAP
1 *1417:D 9.69592e-06
2 *1345:X 0.000120145
3 *116:10 0.000129841
4 *1417:D *266:10 1.64354e-05
5 *1417:D *360:8 3.24476e-06
6 *116:10 *1345:A 5.67058e-05
7 *116:10 *1434:A 4.96264e-05
8 *116:10 *268:10 2.96369e-05
*RES
1 *1345:X *116:10 40.175 
2 *116:10 *1417:D 38.1916 
*END

*D_NET *117 0.000408801
*CONN
*I *1418:D I *D sky130_fd_sc_hd__dfxtp_1
*I *1348:X O *D sky130_fd_sc_hd__and3_1
*CAP
1 *1418:D 8.31666e-05
2 *1348:X 7.33498e-05
3 *117:8 0.000156516
4 *1418:D *1418:CLK 2.94791e-05
5 *117:8 *231:10 3.76761e-05
6 *117:8 *239:8 0
7 *117:8 *292:25 2.86129e-05
*RES
1 *1348:X *117:8 39.5536 
2 *117:8 *1418:D 39.4137 
*END

*D_NET *118 0.000413893
*CONN
*I *1419:D I *D sky130_fd_sc_hd__dfxtp_1
*I *1352:X O *D sky130_fd_sc_hd__and3b_1
*CAP
1 *1419:D 0.000121066
2 *1352:X 0.000121066
3 *1419:D *361:12 0.000171761
*RES
1 *1352:X *1419:D 48.3873 
*END

*D_NET *119 0.000937947
*CONN
*I *1420:D I *D sky130_fd_sc_hd__dfxtp_1
*I *1355:X O *D sky130_fd_sc_hd__and3_1
*CAP
1 *1420:D 0
2 *1355:X 0.000397887
3 *119:8 0.000397887
4 *119:8 *347:71 0.000142173
*RES
1 *1355:X *119:8 29.8823 
2 *119:8 *1420:D 23 
*END

*D_NET *120 0.000515258
*CONN
*I *1421:D I *D sky130_fd_sc_hd__dfxtp_1
*I *1358:X O *D sky130_fd_sc_hd__and3b_1
*CAP
1 *1421:D 1.58638e-05
2 *1358:X 0.000190292
3 *120:10 0.000206156
4 *120:10 *1421:CLK 2.76611e-06
5 *120:10 *278:10 0.00010018
6 *120:10 *343:39 0
7 *120:10 *346:33 0
*RES
1 *1358:X *120:10 41.3557 
2 *120:10 *1421:D 38.1916 
*END

*D_NET *121 0.000377894
*CONN
*I *1422:D I *D sky130_fd_sc_hd__dfxtp_1
*I *1361:X O *D sky130_fd_sc_hd__and3b_1
*CAP
1 *1422:D 0.000109946
2 *1361:X 0.000109946
3 *1422:D *291:135 3.08369e-05
4 *1422:D *349:27 0.000124708
5 *1422:D *369:116 2.45549e-06
*RES
1 *1361:X *1422:D 48.3873 
*END

*D_NET *122 0.00134254
*CONN
*I *1423:D I *D sky130_fd_sc_hd__dfxtp_1
*I *1364:X O *D sky130_fd_sc_hd__and3b_1
*CAP
1 *1423:D 0.000282443
2 *1364:X 0.000290732
3 *122:8 0.000573175
4 *1423:D *1423:CLK 0.000129308
5 *122:8 *1362:A 0
6 *122:8 *1525:A 0
7 *122:8 *347:24 6.68793e-05
*RES
1 *1364:X *122:8 43.4271 
2 *122:8 *1423:D 43.2252 
*END

*D_NET *123 0.000489938
*CONN
*I *1424:D I *D sky130_fd_sc_hd__dfxtp_1
*I *1366:X O *D sky130_fd_sc_hd__and2_1
*CAP
1 *1424:D 0.000115409
2 *1366:X 5.60264e-05
3 *123:8 0.000171435
4 *1424:D *291:135 5.33077e-05
5 *123:8 *233:10 3.5664e-05
6 *123:8 *283:10 5.80963e-05
*RES
1 *1366:X *123:8 39.5536 
2 *123:8 *1424:D 40.0973 
*END

*D_NET *124 0.000793825
*CONN
*I *1425:D I *D sky130_fd_sc_hd__dfxtp_1
*I *1367:X O *D sky130_fd_sc_hd__o21a_1
*CAP
1 *1425:D 0.000101527
2 *1367:X 6.84482e-05
3 *124:8 0.000169976
4 *1425:D *294:142 0.000230553
5 *124:8 *302:117 0.000169674
6 *124:8 *368:10 5.36457e-05
*RES
1 *1367:X *124:8 40.2579 
2 *124:8 *1425:D 40.5737 
*END

*D_NET *125 0.000613056
*CONN
*I *1426:D I *D sky130_fd_sc_hd__dfxtp_1
*I *1368:X O *D sky130_fd_sc_hd__o21a_1
*CAP
1 *1426:D 1.13183e-05
2 *1368:X 0.000148912
3 *125:10 0.000160231
4 *1426:D *294:138 1.64354e-05
5 *125:10 *135:72 5.25848e-05
6 *125:10 *299:8 5.61311e-05
7 *125:10 *367:20 0.000167443
*RES
1 *1368:X *125:10 41.3557 
2 *125:10 *1426:D 38.1916 
*END

*D_NET *126 0.000597106
*CONN
*I *1427:D I *D sky130_fd_sc_hd__dfxtp_1
*I *1369:X O *D sky130_fd_sc_hd__a31o_1
*CAP
1 *1427:D 4.06116e-05
2 *1369:X 0.000149819
3 *126:10 0.00019043
4 *1427:D *292:156 8.79002e-05
5 *126:10 *1369:A3 2.93747e-05
6 *126:10 *138:16 0
7 *126:10 *236:12 6.93553e-05
8 *126:10 *292:170 2.96154e-05
*RES
1 *1369:X *126:10 40.5271 
2 *126:10 *1427:D 38.9943 
*END

*D_NET *127 0.000588476
*CONN
*I *1428:D I *D sky130_fd_sc_hd__dfxtp_1
*I *1370:Y O *D sky130_fd_sc_hd__nor2_1
*CAP
1 *1428:D 0.000117549
2 *1370:Y 9.18479e-05
3 *127:8 0.000209396
4 *127:8 *1370:B 0.000169683
5 *127:8 *292:111 0
*RES
1 *1370:Y *127:8 40.2579 
2 *127:8 *1428:D 40.0973 
*END

*D_NET *128 0.000629985
*CONN
*I *1429:D I *D sky130_fd_sc_hd__dfxtp_1
*I *1372:Y O *D sky130_fd_sc_hd__nor3_1
*CAP
1 *1429:D 0
2 *1372:Y 0.000306162
3 *128:10 0.000306162
4 *128:10 *1372:B 1.14876e-05
5 *128:10 *1372:C 6.17437e-06
*RES
1 *1372:Y *128:10 27.438 
2 *128:10 *1429:D 23 
*END

*D_NET *129 0.000583382
*CONN
*I *1430:D I *D sky130_fd_sc_hd__dfxtp_1
*I *1373:X O *D sky130_fd_sc_hd__and2_1
*CAP
1 *1430:D 4.48e-05
2 *1373:X 0.000159226
3 *129:10 0.000204026
4 *1430:D *1185:A 8.79002e-05
5 *1430:D *338:8 1.06063e-06
6 *129:10 *1373:B 3.7122e-06
7 *129:10 *1514:A 4.17929e-05
8 *129:10 *338:10 4.08641e-05
9 *129:10 *375:73 0
*RES
1 *1373:X *129:10 40.8793 
2 *129:10 *1430:D 38.9943 
*END

*D_NET *130 0.000546716
*CONN
*I *1461:A I *D sky130_fd_sc_hd__dlygate4sd3_1
*I *1378:Y O *D sky130_fd_sc_hd__o31ai_1
*CAP
1 *1461:A 0
2 *1378:Y 0.000263623
3 *130:8 0.000263623
4 *130:8 *1378:B1 1.94693e-05
*RES
1 *1378:Y *130:8 27.4536 
2 *130:8 *1461:A 23 
*END

*D_NET *131 0.00107586
*CONN
*I *1432:D I *D sky130_fd_sc_hd__dfxtp_2
*I *1380:Y O *D sky130_fd_sc_hd__a21oi_1
*CAP
1 *1432:D 8.46685e-05
2 *1380:Y 0.000297818
3 *131:8 0.000382486
4 *1432:D *294:29 5.2426e-05
5 *131:8 *1194:B 9.32509e-05
6 *131:8 *152:23 6.03737e-05
7 *131:8 *297:49 0.000100625
8 *131:8 *302:16 0
9 *131:8 *311:46 4.21594e-06
10 *131:8 *313:63 0
11 *131:8 *375:26 0
*RES
1 *1380:Y *131:8 44.4836 
2 *131:8 *1432:D 39.6209 
*END

*D_NET *132 0.000590065
*CONN
*I *1237:A I *D sky130_fd_sc_hd__nor2_1
*I *1161:Y O *D sky130_fd_sc_hd__inv_2
*CAP
1 *1237:A 0
2 *1161:Y 0.000174243
3 *132:10 0.000174243
4 *132:10 *1407:CLK 4.9662e-05
5 *132:10 *310:99 0
6 *132:10 *378:10 0.000166513
7 *106:10 *132:10 2.54046e-05
*RES
1 *1161:Y *132:10 41.3557 
2 *132:10 *1237:A 38 
*END

*D_NET *133 0.00916873
*CONN
*I *1293:A I *D sky130_fd_sc_hd__nor2_1
*I *1231:A1 I *D sky130_fd_sc_hd__a21o_1
*I *1236:B2 I *D sky130_fd_sc_hd__o221a_1
*I *1187:B I *D sky130_fd_sc_hd__and3_1
*I *1178:B I *D sky130_fd_sc_hd__or3b_2
*I *1217:A I *D sky130_fd_sc_hd__or3_1
*I *1162:Y O *D sky130_fd_sc_hd__inv_2
*CAP
1 *1293:A 0.000149657
2 *1231:A1 0
3 *1236:B2 0.000309812
4 *1187:B 4.55529e-05
5 *1178:B 4.25104e-05
6 *1217:A 0
7 *1162:Y 0.000908576
8 *133:62 0.000918156
9 *133:45 0.00139285
10 *133:34 0.000426498
11 *133:23 0.000557223
12 *133:10 0.000533305
13 *133:8 0.000993578
14 *1178:B *152:6 5.50049e-05
15 *1187:B *305:14 2.93747e-05
16 *1236:B2 *1234:A2 0.000137651
17 *1236:B2 *1236:A1 1.37232e-05
18 *1236:B2 *1236:A2 6.69899e-05
19 *1236:B2 *190:6 9.06965e-05
20 *1293:A *395:22 2.87566e-05
21 *133:8 *1221:A3 3.22879e-05
22 *133:8 *178:10 4.9662e-05
23 *133:8 *301:27 1.61361e-05
24 *133:8 *301:33 9.24795e-06
25 *133:8 *306:52 2.79662e-05
26 *133:10 *1217:B 8.48189e-05
27 *133:10 *314:20 0.000135168
28 *133:23 *1218:B2 0
29 *133:23 *147:16 0
30 *133:23 *162:51 0
31 *133:23 *310:30 2.11827e-05
32 *133:23 *310:36 9.00749e-05
33 *133:23 *314:20 0.000273614
34 *133:23 *314:33 0.000120029
35 *133:23 *384:12 0
36 *133:34 *310:30 2.36844e-05
37 *133:45 *305:14 0.000246366
38 *133:45 *310:30 1.62615e-05
39 *133:45 *310:73 0.000107538
40 *133:45 *310:84 9.80568e-05
41 *133:45 *312:8 0.000218023
42 *133:45 *384:12 0
43 *133:62 *1459:A 9.67842e-05
44 *133:62 *305:14 0.000147288
45 *133:62 *310:84 0.000138185
46 *133:62 *310:99 1.12487e-05
47 *133:62 *395:22 0.000342273
48 *9:15 *133:8 5.20072e-05
49 *103:8 *133:45 0.000110913
*RES
1 *1162:Y *133:8 49.5793 
2 *133:8 *133:10 1.90571 
3 *133:10 *1217:A 38 
4 *133:10 *133:23 10.4193 
5 *133:23 *1178:B 38.6214 
6 *133:23 *133:34 1.20143 
7 *133:34 *1187:B 38.6214 
8 *133:34 *133:45 8.94857 
9 *133:45 *1236:B2 44.3593 
10 *133:45 *133:62 31.0743 
11 *133:62 *1231:A1 23 
12 *133:62 *1293:A 25.5479 
*END

*D_NET *134 0.00563091
*CONN
*I *1181:B I *D sky130_fd_sc_hd__or3_2
*I *1236:A1 I *D sky130_fd_sc_hd__o221a_1
*I *1235:A1_N I *D sky130_fd_sc_hd__o2bb2a_1
*I *1292:A I *D sky130_fd_sc_hd__nor2_1
*I *1163:Y O *D sky130_fd_sc_hd__inv_2
*CAP
1 *1181:B 0
2 *1236:A1 0.000194259
3 *1235:A1_N 0
4 *1292:A 0.000124233
5 *1163:Y 0.000369262
6 *134:55 0.000446548
7 *134:14 0.00025269
8 *134:10 0.000408564
9 *134:6 0.000901657
10 *1236:A1 *1238:C_N 5.50106e-05
11 *1236:A1 *190:6 2.13733e-05
12 *1236:A1 *193:10 0.000138727
13 *1236:A1 *307:82 0.000128583
14 *1292:A *1235:B2 9.84851e-05
15 *1292:A *297:31 0.000312572
16 *1292:A *309:38 0.000126997
17 *134:6 *312:12 0.000525411
18 *134:10 *193:10 0.000303269
19 *134:10 *307:82 0.000303269
20 *134:14 *297:31 0.000413184
21 *134:14 *309:38 0.000108708
22 *134:55 *1188:A 0
23 *134:55 *193:10 0
24 *134:55 *305:57 0.000116314
25 *134:55 *312:12 0.000268074
26 *134:55 *314:44 0
27 *1236:B2 *1236:A1 1.37232e-05
*RES
1 *1163:Y *134:6 28.8621 
2 *134:6 *134:10 19.0186 
3 *134:10 *134:14 19.6038 
4 *134:14 *1292:A 28.4013 
5 *134:14 *1235:A1_N 23 
6 *134:10 *1236:A1 42.4743 
7 *134:6 *134:55 37.0221 
8 *134:55 *1181:B 23 
*END

*D_NET *135 0.0182123
*CONN
*I *1227:A1 I *D sky130_fd_sc_hd__a31o_1
*I *1211:A1 I *D sky130_fd_sc_hd__a31o_1
*I *1202:A1 I *D sky130_fd_sc_hd__a41o_1
*I *1368:B1 I *D sky130_fd_sc_hd__o21a_1
*I *1367:B1 I *D sky130_fd_sc_hd__o21a_1
*I *1373:A I *D sky130_fd_sc_hd__and2_1
*I *1192:B1 I *D sky130_fd_sc_hd__o31a_1
*I *1378:B1 I *D sky130_fd_sc_hd__o31ai_1
*I *1297:B1 I *D sky130_fd_sc_hd__o21a_1
*I *1294:B I *D sky130_fd_sc_hd__and2_1
*I *1164:Y O *D sky130_fd_sc_hd__inv_2
*CAP
1 *1227:A1 0
2 *1211:A1 3.55632e-05
3 *1202:A1 0.00023066
4 *1368:B1 6.90819e-05
5 *1367:B1 2.34823e-05
6 *1373:A 0.000688397
7 *1192:B1 0.000213734
8 *1378:B1 0.000314334
9 *1297:B1 0.000288967
10 *1294:B 0
11 *1164:Y 0.000335121
12 *135:135 0.00043413
13 *135:103 0.000559896
14 *135:101 0.00162182
15 *135:72 0.00103908
16 *135:70 0.000466593
17 *135:57 0.000421099
18 *135:40 0.00079094
19 *135:21 0.00128425
20 *135:10 0.000768803
21 *135:6 0.00134221
22 *1192:B1 *1460:A 9.75779e-05
23 *1192:B1 *366:28 0.000359332
24 *1192:B1 *367:20 1.32314e-05
25 *1202:A1 *1202:A4 0.000228001
26 *1202:A1 *1214:B 3.04021e-05
27 *1202:A1 *1446:A 0
28 *1202:A1 *162:8 0.000400198
29 *1202:A1 *169:10 0
30 *1202:A1 *293:33 0
31 *1202:A1 *302:30 7.42621e-05
32 *1202:A1 *313:10 3.47781e-05
33 *1202:A1 *313:35 1.58805e-05
34 *1211:A1 *1211:A2 5.50049e-05
35 *1211:A1 *163:14 4.08664e-05
36 *1211:A1 *163:22 5.50049e-05
37 *1211:A1 *313:21 5.3304e-05
38 *1297:B1 *1296:A 1.32314e-05
39 *1297:B1 *1296:C 0.000141246
40 *1373:A *302:104 5.3304e-05
41 *1373:A *302:117 0.000357631
42 *1373:A *342:6 0.000139352
43 *1373:A *344:10 7.88926e-05
44 *1373:A *368:10 5.70419e-05
45 *1378:B1 *1378:A1 1.63796e-05
46 *1378:B1 *366:28 1.76557e-05
47 *1378:B1 *367:32 0.000136486
48 *1378:B1 *379:25 0.000133601
49 *135:6 *1369:A1 0.000275371
50 *135:10 *1406:CLK 0
51 *135:10 *294:35 0
52 *135:10 *309:10 8.16356e-05
53 *135:21 *1406:CLK 0
54 *135:21 *153:10 0
55 *135:21 *309:10 6.07611e-06
56 *135:21 *309:23 0.00023335
57 *135:21 *376:10 0
58 *135:21 *379:25 0
59 *135:40 *333:8 0.000173442
60 *135:40 *376:10 0.000272383
61 *135:57 *333:21 1.99391e-05
62 *135:57 *367:20 3.70187e-05
63 *135:57 *367:32 0.000222123
64 *135:57 *379:25 7.63648e-05
65 *135:70 *333:21 0.000223043
66 *135:70 *367:20 0.000108569
67 *135:72 *1367:A2 0.000180812
68 *135:101 *1194:C_N 6.38845e-05
69 *135:101 *1369:A1 0.000141154
70 *135:101 *1377:C1 0
71 *135:101 *145:42 9.85728e-05
72 *135:101 *153:23 0.000272937
73 *135:101 *154:8 0
74 *135:101 *288:12 0.000135703
75 *135:101 *290:44 2.98508e-05
76 *135:101 *302:8 4.08537e-05
77 *135:101 *302:74 6.4393e-05
78 *135:101 *313:10 0.000424793
79 *135:103 *171:24 0.000161121
80 *135:103 *290:44 6.21519e-05
81 *135:103 *313:10 0.000546143
82 *135:103 *313:35 8.68903e-05
83 *135:135 *1228:A1 0.000126454
84 *135:135 *1228:B1 5.50106e-05
85 *135:135 *154:23 4.17736e-05
86 *135:135 *162:21 0.000135547
87 *135:135 *178:22 1.03836e-05
88 *135:135 *287:10 6.08751e-05
89 *135:135 *290:44 2.89564e-05
90 *105:10 *135:21 0.000111852
91 *107:8 *135:40 0
92 *125:10 *135:72 5.25848e-05
93 *130:8 *1378:B1 1.94693e-05
*RES
1 *1164:Y *135:6 28.3857 
2 *135:6 *135:10 17.2579 
3 *135:10 *1294:B 38 
4 *135:10 *135:21 12.7393 
5 *135:21 *1297:B1 42.8057 
6 *135:21 *135:40 37.4157 
7 *135:40 *1378:B1 44.3386 
8 *135:40 *135:57 4.28786 
9 *135:57 *1192:B1 43.3857 
10 *135:57 *135:70 17.9621 
11 *135:70 *135:72 7.29143 
12 *135:72 *1373:A 37.4379 
13 *135:72 *1367:B1 23.4971 
14 *135:70 *1368:B1 24.1186 
15 *135:6 *135:101 33.7361 
16 *135:101 *135:103 7.71607 
17 *135:103 *1202:A1 45.0429 
18 *135:103 *1211:A1 39.0979 
19 *135:101 *135:135 36.3282 
20 *135:135 *1227:A1 38 
*END

*D_NET *136 0.00323371
*CONN
*I *1234:A2 I *D sky130_fd_sc_hd__a221o_1
*I *1235:B1 I *D sky130_fd_sc_hd__o2bb2a_1
*I *1165:Y O *D sky130_fd_sc_hd__inv_2
*CAP
1 *1234:A2 0.000579962
2 *1235:B1 8.85601e-05
3 *1165:Y 0.000400274
4 *136:10 0.0010688
5 *1234:A2 *1234:C1 0
6 *1234:A2 *1404:CLK 0.000103647
7 *1234:A2 *190:6 1.54098e-05
8 *1235:B1 *310:84 0.000138718
9 *1235:B1 *394:10 0
10 *136:10 *305:101 0.000128401
11 *136:10 *310:84 0.000289964
12 *136:10 *310:99 0.000138727
13 *136:10 *394:10 0
14 *136:10 *395:22 0
15 *1236:B2 *1234:A2 0.000137651
16 *1404:D *1234:A2 0.000143599
*RES
1 *1165:Y *136:10 46.3064 
2 *136:10 *1235:B1 39.9057 
3 *136:10 *1234:A2 46.7363 
*END

*D_NET *137 0.00371253
*CONN
*I *1204:A2 I *D sky130_fd_sc_hd__a21o_1
*I *1376:A I *D sky130_fd_sc_hd__or3_1
*I *1166:Y O *D sky130_fd_sc_hd__inv_2
*CAP
1 *1204:A2 0
2 *1376:A 7.19019e-05
3 *1166:Y 1.60348e-05
4 *137:16 0.000900383
5 *137:6 0.000844516
6 *1376:A *172:33 5.3304e-05
7 *1376:A *287:10 2.30292e-05
8 *137:6 *306:29 9.84851e-05
9 *137:6 *339:14 0.00010018
10 *137:16 *1206:A2 0.000292591
11 *137:16 *1206:B1 5.50049e-05
12 *137:16 *166:10 0.000742784
13 *137:16 *172:33 0
14 *137:16 *193:10 0
15 *137:16 *307:10 1.14452e-05
16 *137:16 *307:23 0.000163352
17 *137:16 *372:34 0.000339516
*RES
1 *1166:Y *137:6 24.0979 
2 *137:6 *137:16 49.575 
3 *137:16 *1376:A 24.5743 
4 *137:6 *1204:A2 23 
*END

*D_NET *138 0.00638232
*CONN
*I *1295:A I *D sky130_fd_sc_hd__and4_1
*I *1314:A1 I *D sky130_fd_sc_hd__a31o_1
*I *1371:A1 I *D sky130_fd_sc_hd__o221a_1
*I *1291:A1 I *D sky130_fd_sc_hd__o221a_1
*I *1168:A I *D sky130_fd_sc_hd__inv_2
*I *1167:X O *D sky130_fd_sc_hd__or4b_2
*CAP
1 *1295:A 0
2 *1314:A1 0
3 *1371:A1 6.095e-05
4 *1291:A1 0
5 *1168:A 0
6 *1167:X 0.000306865
7 *138:57 0.000114964
8 *138:49 0.000241931
9 *138:29 0.000255937
10 *138:16 0.00091223
11 *138:12 0.00113245
12 *138:10 0.000849038
13 *1371:A1 *244:36 5.41288e-05
14 *1371:A1 *302:78 0.000185428
15 *138:10 *1169:D_N 9.67842e-05
16 *138:10 *247:10 0
17 *138:10 *336:36 0.000140259
18 *138:10 *337:35 6.38845e-05
19 *138:10 *338:16 0
20 *138:10 *338:22 1.86869e-05
21 *138:10 *375:54 6.35704e-05
22 *138:12 *1371:B1 0
23 *138:12 *1372:B 8.26672e-05
24 *138:12 *230:22 2.71291e-05
25 *138:12 *230:24 0.000108672
26 *138:12 *250:23 0
27 *138:12 *284:8 7.03766e-05
28 *138:12 *375:41 4.90994e-05
29 *138:12 *375:54 0.000170651
30 *138:16 *1371:B1 0
31 *138:16 *1465:A 0
32 *138:16 *236:12 0
33 *138:16 *244:36 8.51329e-05
34 *138:16 *250:10 0
35 *138:16 *292:170 0.000200738
36 *138:16 *292:183 0
37 *138:16 *375:41 8.08511e-05
38 *138:16 *385:8 0
39 *138:29 *290:8 0.000265088
40 *138:29 *392:10 9.63918e-05
41 *138:49 *1295:C 1.56665e-05
42 *138:49 *230:18 9.67842e-05
43 *138:57 *1295:C 0.00014196
44 *138:57 *1314:A3 6.07611e-06
45 *138:57 *230:22 0
46 *138:57 *230:24 0
47 *138:57 *250:23 0
48 *1439:A *138:29 0.000317553
49 *101:8 *138:29 7.03766e-05
50 *126:10 *138:16 0
*RES
1 *1167:X *138:10 43.4893 
2 *138:10 *138:12 9.30071 
3 *138:12 *138:16 29.5829 
4 *138:16 *1168:A 23 
5 *138:16 *138:29 37.9957 
6 *138:29 *1291:A1 23 
7 *138:12 *1371:A1 40.0507 
8 *138:10 *138:49 17.0714 
9 *138:49 *138:57 32.4236 
10 *138:57 *1314:A1 23 
11 *138:49 *1295:A 23 
*END

*D_NET *139 0.00673972
*CONN
*I *1295:B I *D sky130_fd_sc_hd__and4_1
*I *1310:A I *D sky130_fd_sc_hd__or3_1
*I *1312:D1 I *D sky130_fd_sc_hd__a2111o_1
*I *1170:A I *D sky130_fd_sc_hd__inv_2
*I *1169:X O *D sky130_fd_sc_hd__or4b_2
*CAP
1 *1295:B 0
2 *1310:A 2.34823e-05
3 *1312:D1 0
4 *1170:A 0
5 *1169:X 0.000150388
6 *139:49 0.000120825
7 *139:36 0.000390487
8 *139:26 0.000604592
9 *139:24 0.000941022
10 *139:12 0.00107588
11 *139:8 0.000402013
12 *139:8 *1318:B 3.70187e-05
13 *139:8 *149:16 0
14 *139:8 *229:10 0.000188926
15 *139:8 *335:10 0.000188926
16 *139:8 *335:32 7.93144e-05
17 *139:8 *335:43 5.24393e-05
18 *139:8 *337:18 1.34354e-05
19 *139:12 *1295:C 2.93747e-05
20 *139:12 *149:16 0.000184527
21 *139:12 *230:18 4.03335e-05
22 *139:12 *337:18 7.88828e-05
23 *139:24 *1295:C 4.03335e-05
24 *139:24 *1308:B1 3.5664e-05
25 *139:24 *1314:B1 7.88828e-05
26 *139:24 *140:18 1.70074e-05
27 *139:24 *140:26 0
28 *139:24 *140:38 0.000174492
29 *139:24 *237:20 0.000169683
30 *139:24 *250:23 0
31 *139:24 *374:8 0
32 *139:26 *1310:B 9.5877e-05
33 *139:36 *1310:B 5.3304e-05
34 *139:36 *1316:A 3.71369e-05
35 *139:36 *1316:C 0.000182826
36 *139:36 *240:6 9.90751e-05
37 *139:36 *249:10 5.50106e-05
38 *139:36 *362:23 0.000192096
39 *139:36 *362:34 9.90751e-05
40 *139:36 *369:25 9.63918e-05
41 *139:49 *1310:C 3.72639e-05
42 *139:49 *1312:B1 0.00010018
43 *139:49 *238:16 0.000246748
44 *139:49 *238:27 3.47781e-05
45 *139:49 *245:10 0.000195238
46 *139:49 *300:10 9.67842e-05
*RES
1 *1169:X *139:8 42.3707 
2 *139:8 *139:12 20.3857 
3 *139:12 *139:24 43.7336 
4 *139:24 *139:26 1.57429 
5 *139:26 *139:36 39.57 
6 *139:36 *1170:A 23 
7 *139:26 *139:49 34.7643 
8 *139:49 *1312:D1 23 
9 *139:24 *1310:A 23.4971 
10 *139:12 *1295:B 23 
*END

*D_NET *140 0.00403515
*CONN
*I *1295:C I *D sky130_fd_sc_hd__and4_1
*I *1314:A2 I *D sky130_fd_sc_hd__a31o_1
*I *1172:A I *D sky130_fd_sc_hd__inv_2
*I *1316:B I *D sky130_fd_sc_hd__nor4_1
*I *1171:X O *D sky130_fd_sc_hd__or4b_2
*CAP
1 *1295:C 0.000106655
2 *1314:A2 0
3 *1172:A 0
4 *1316:B 0
5 *1171:X 0.000622237
6 *140:38 0.00029815
7 *140:26 0.00041811
8 *140:18 0.000599627
9 *140:14 0.000388248
10 *140:10 0.000637473
11 *1295:C *1314:B1 0.000141954
12 *1295:C *230:18 9.67842e-05
13 *1295:C *247:10 7.53384e-06
14 *140:10 *1171:D_N 2.54193e-05
15 *140:10 *1308:B1 2.22079e-05
16 *140:10 *250:23 0
17 *140:10 *340:25 7.66085e-05
18 *140:18 *340:8 1.59094e-05
19 *140:26 *1308:B1 0
20 *140:26 *240:16 2.54046e-05
21 *140:26 *246:10 0
22 *140:26 *249:10 0
23 *140:26 *362:23 5.51058e-05
24 *140:26 *369:25 0
25 *140:38 *247:10 7.88926e-05
26 *138:49 *1295:C 1.56665e-05
27 *138:57 *1295:C 0.00014196
28 *139:12 *1295:C 2.93747e-05
29 *139:24 *1295:C 4.03335e-05
30 *139:24 *140:18 1.70074e-05
31 *139:24 *140:26 0
32 *139:24 *140:38 0.000174492
*RES
1 *1171:X *140:10 47.5286 
2 *140:10 *140:14 15.3832 
3 *140:14 *140:18 3.2625 
4 *140:18 *140:26 37.25 
5 *140:26 *1316:B 23 
6 *140:18 *1172:A 23 
7 *140:14 *140:38 5.1475 
8 *140:38 *1314:A2 23 
9 *140:38 *1295:C 26.9771 
*END

*D_NET *141 0.000487075
*CONN
*I *1189:A I *D sky130_fd_sc_hd__nand2_1
*I *1173:Y O *D sky130_fd_sc_hd__nor2_1
*CAP
1 *1189:A 2.59283e-05
2 *1173:Y 0.000141104
3 *141:8 0.000167033
4 *1189:A *311:61 0
5 *141:8 *1181:C 3.92407e-05
6 *141:8 *1189:B 3.92407e-05
7 *141:8 *305:57 7.45278e-05
8 *141:8 *314:44 0
*RES
1 *1173:Y *141:8 40.61 
2 *141:8 *1189:A 38.5489 
*END

*D_NET *142 0.00246497
*CONN
*I *1191:B2 I *D sky130_fd_sc_hd__a32o_1
*I *1180:B I *D sky130_fd_sc_hd__or2_1
*I *1175:C I *D sky130_fd_sc_hd__or4b_2
*I *1174:X O *D sky130_fd_sc_hd__or2_1
*CAP
1 *1191:B2 0.000102006
2 *1180:B 9.39891e-05
3 *1175:C 0.000191287
4 *1174:X 2.4078e-05
5 *142:17 0.000338257
6 *142:6 0.000357627
7 *1175:C *1175:D_N 0.000143655
8 *1175:C *314:16 6.68822e-05
9 *1175:C *314:44 4.05745e-05
10 *1180:B *1183:A 0.000137651
11 *1180:B *1190:B1 4.5051e-05
12 *1180:B *148:8 0.000308039
13 *1180:B *310:36 3.34129e-05
14 *1191:B2 *1183:C_N 0
15 *1191:B2 *193:10 0.000150047
16 *1191:B2 *311:61 2.96369e-05
17 *142:6 *314:44 2.93845e-05
18 *142:17 *193:10 0.000262829
19 *142:17 *310:44 9.04083e-05
20 *142:17 *311:61 2.01531e-05
*RES
1 *1174:X *142:6 23.6214 
2 *142:6 *1175:C 26.9564 
3 *142:6 *142:17 18.6664 
4 *142:17 *1180:B 41.48 
5 *142:17 *1191:B2 40.2579 
*END

*D_NET *143 0.00299851
*CONN
*I *1375:B1 I *D sky130_fd_sc_hd__o31a_1
*I *1176:A I *D sky130_fd_sc_hd__inv_2
*I *1221:A3 I *D sky130_fd_sc_hd__o32a_1
*I *1175:X O *D sky130_fd_sc_hd__or4b_2
*CAP
1 *1375:B1 0.000586124
2 *1176:A 0
3 *1221:A3 0.000228843
4 *1175:X 0.000107532
5 *143:12 0.000277621
6 *143:10 0.000742433
7 *1221:A3 *1217:C 5.52388e-05
8 *1221:A3 *1219:A 9.21347e-06
9 *1221:A3 *148:10 0
10 *1221:A3 *301:27 2.93747e-05
11 *1221:A3 *301:33 2.79657e-05
12 *1375:B1 *1218:A2 1.32939e-05
13 *1375:B1 *294:16 0.000741089
14 *143:10 *305:37 5.3304e-05
15 *143:10 *314:20 0
16 *143:10 *384:12 8.4047e-05
17 *143:12 *148:10 0
18 *143:12 *314:20 0
19 *143:12 *384:12 1.01436e-05
20 *133:8 *1221:A3 3.22879e-05
*RES
1 *1175:X *143:10 39.8229 
2 *143:10 *143:12 0.849286 
3 *143:12 *1221:A3 41.7286 
4 *143:12 *1176:A 38 
5 *143:10 *1375:B1 47.57 
*END

*D_NET *144 0.00183434
*CONN
*I *1187:C I *D sky130_fd_sc_hd__and3_1
*I *1178:C_N I *D sky130_fd_sc_hd__or3b_2
*I *1177:Y O *D sky130_fd_sc_hd__nor3_1
*CAP
1 *1187:C 0
2 *1178:C_N 0
3 *1177:Y 0.000199271
4 *144:14 0.000351498
5 *144:6 0.00055077
6 *144:6 *1177:C 7.53384e-06
7 *144:6 *305:21 4.75937e-05
8 *144:6 *310:73 0.00011122
9 *144:14 *297:41 0.000274553
10 *144:14 *310:21 0.000183733
11 *144:14 *310:30 0
12 *144:14 *310:36 0
13 *144:14 *310:73 0.000108163
*RES
1 *1177:Y *144:6 25.8689 
2 *144:6 *144:14 36.8046 
3 *144:14 *1178:C_N 23 
4 *144:6 *1187:C 23 
*END

*D_NET *145 0.00537738
*CONN
*I *1179:A I *D sky130_fd_sc_hd__inv_2
*I *1222:A I *D sky130_fd_sc_hd__or3b_1
*I *1286:A1 I *D sky130_fd_sc_hd__a21oi_1
*I *1375:A1 I *D sky130_fd_sc_hd__o31a_1
*I *1178:X O *D sky130_fd_sc_hd__or3b_2
*CAP
1 *1179:A 0
2 *1222:A 0
3 *1286:A1 6.0245e-05
4 *1375:A1 0.000237305
5 *1178:X 0.000385186
6 *145:42 0.000323722
7 *145:36 0.000347204
8 *145:27 0.000500701
9 *145:10 0.00103946
10 *1286:A1 *1286:B1 4.9662e-05
11 *1375:A1 *285:8 1.01436e-05
12 *1375:A1 *294:16 0
13 *1375:A1 *302:16 0.000138718
14 *1375:A1 *302:22 0.000313806
15 *1375:A1 *305:37 0.000171906
16 *145:10 *147:16 0.00014196
17 *145:10 *294:8 9.84794e-05
18 *145:10 *297:41 7.55718e-05
19 *145:10 *302:16 7.39034e-05
20 *145:27 *1286:B1 0.000196746
21 *145:27 *1380:A1 0.000390685
22 *145:27 *1380:A2 2.4754e-05
23 *145:27 *297:49 9.67842e-05
24 *145:27 *311:46 2.61526e-05
25 *145:27 *313:63 1.46594e-05
26 *145:27 *314:33 6.47194e-05
27 *145:36 *1286:B1 0
28 *145:42 *147:37 0.000249918
29 *145:42 *162:29 8.85189e-05
30 *145:42 *163:22 4.21594e-06
31 *145:42 *177:10 1.14452e-05
32 *145:42 *225:8 0
33 *145:42 *313:10 0.000142233
34 *135:101 *145:42 9.85728e-05
*RES
1 *1178:X *145:10 44.1107 
2 *145:10 *1375:A1 44.4836 
3 *145:10 *145:27 24.3629 
4 *145:27 *1286:A1 24.0979 
5 *145:27 *145:36 0.497143 
6 *145:36 *145:42 38.9486 
7 *145:42 *1222:A 23 
8 *145:36 *1179:A 23 
*END

*D_NET *146 0.00204125
*CONN
*I *1189:B I *D sky130_fd_sc_hd__nand2_1
*I *1181:C I *D sky130_fd_sc_hd__or3_2
*I *1183:B I *D sky130_fd_sc_hd__or3b_2
*I *1180:X O *D sky130_fd_sc_hd__or2_1
*CAP
1 *1189:B 0.000163612
2 *1181:C 1.81045e-05
3 *1183:B 0
4 *1180:X 0.000145917
5 *146:17 0.000492404
6 *146:6 0.000456605
7 *1181:C *1183:C_N 6.69879e-05
8 *1181:C *305:57 1.14452e-05
9 *1189:B *150:12 3.7122e-06
10 *1189:B *311:61 2.93845e-05
11 *1189:B *314:44 2.30917e-05
12 *146:6 *310:36 0.000180224
13 *146:17 *1183:C_N 0.000126391
14 *146:17 *1190:A1 0.000168687
15 *146:17 *310:36 5.50049e-05
16 *146:17 *311:61 2.1199e-05
17 *146:17 *314:44 0
18 *141:8 *1181:C 3.92407e-05
19 *141:8 *1189:B 3.92407e-05
*RES
1 *1180:X *146:6 25.0507 
2 *146:6 *1183:B 23 
3 *146:6 *146:17 20.3132 
4 *146:17 *1181:C 39.0254 
5 *146:17 *1189:B 40.7446 
*END

*D_NET *147 0.00597565
*CONN
*I *1191:A1 I *D sky130_fd_sc_hd__a32o_1
*I *1182:A I *D sky130_fd_sc_hd__inv_2
*I *1286:A2 I *D sky130_fd_sc_hd__a21oi_1
*I *1218:B2 I *D sky130_fd_sc_hd__o32a_1
*I *1181:X O *D sky130_fd_sc_hd__or3_2
*CAP
1 *1191:A1 2.34823e-05
2 *1182:A 0
3 *1286:A2 0
4 *1218:B2 0.000146073
5 *1181:X 0.000169091
6 *147:37 0.000173974
7 *147:29 0.000726559
8 *147:16 0.00162389
9 *147:6 0.0011178
10 *1218:B2 *162:51 4.21594e-06
11 *1218:B2 *171:37 6.07611e-06
12 *1218:B2 *294:16 4.66036e-05
13 *1218:B2 *305:37 0
14 *147:6 *1191:B1 0.000160182
15 *147:6 *150:12 2.29356e-05
16 *147:16 *1191:A2 0.000269781
17 *147:16 *150:12 1.40958e-05
18 *147:16 *152:6 0.000283973
19 *147:16 *294:16 0.000128965
20 *147:16 *294:23 2.76611e-06
21 *147:16 *297:41 6.17437e-06
22 *147:16 *310:36 0
23 *147:29 *305:37 0.00026808
24 *147:29 *313:63 0.000330436
25 *147:37 *225:8 5.86165e-05
26 *83:12 *147:37 0
27 *133:23 *1218:B2 0
28 *133:23 *147:16 0
29 *145:10 *147:16 0.00014196
30 *145:42 *147:37 0.000249918
*RES
1 *1181:X *147:6 25.5271 
2 *147:6 *147:16 33.125 
3 *147:16 *1218:B2 40.61 
4 *147:16 *147:29 26.5793 
5 *147:29 *147:37 34.4121 
6 *147:37 *1286:A2 23 
7 *147:29 *1182:A 23 
8 *147:6 *1191:A1 23.4971 
*END

*D_NET *148 0.00520687
*CONN
*I *1191:A2 I *D sky130_fd_sc_hd__a32o_1
*I *1221:B1 I *D sky130_fd_sc_hd__o32a_1
*I *1184:A I *D sky130_fd_sc_hd__inv_2
*I *1226:C I *D sky130_fd_sc_hd__or4_1
*I *1183:X O *D sky130_fd_sc_hd__or3b_2
*CAP
1 *1191:A2 0.000162757
2 *1221:B1 0
3 *1184:A 0
4 *1226:C 0.000117957
5 *1183:X 0.000437266
6 *148:16 0.000327485
7 *148:10 0.000685617
8 *148:8 0.00107611
9 *1191:A2 *150:12 2.93845e-05
10 *1191:A2 *152:6 5.47927e-05
11 *1191:A2 *305:27 9.94675e-05
12 *1226:C *183:14 0.000225399
13 *1226:C *311:8 1.76557e-05
14 *148:8 *1183:A 2.32101e-05
15 *148:8 *1190:B1 3.17516e-05
16 *148:8 *310:36 3.6485e-05
17 *148:10 *1175:D_N 0
18 *148:10 *301:33 0
19 *148:10 *305:27 0.000301419
20 *148:10 *307:23 0.000110116
21 *148:10 *307:34 0
22 *148:10 *309:42 0
23 *148:10 *384:12 3.46344e-05
24 *148:16 *183:14 0.000288134
25 *148:16 *301:27 0.000166513
26 *148:16 *307:23 9.63918e-05
27 *148:16 *311:8 0.000292765
28 *148:16 *339:29 1.37349e-05
29 *1180:B *148:8 0.000308039
30 *1221:A3 *148:10 0
31 *143:12 *148:10 0
32 *147:16 *1191:A2 0.000269781
*RES
1 *1183:X *148:8 44.3386 
2 *148:8 *148:10 9.65286 
3 *148:10 *148:16 23.4721 
4 *148:16 *1226:C 26.0243 
5 *148:16 *1184:A 23 
6 *148:10 *1221:B1 38 
7 *148:8 *1191:A2 42.5571 
*END

*D_NET *149 0.0026128
*CONN
*I *1186:A I *D sky130_fd_sc_hd__inv_2
*I *1295:D I *D sky130_fd_sc_hd__and4_1
*I *1185:X O *D sky130_fd_sc_hd__or4b_1
*CAP
1 *1186:A 0
2 *1295:D 0
3 *1185:X 0.000170821
4 *149:16 0.000522016
5 *149:10 0.000692836
6 *149:10 *1185:A 2.98648e-05
7 *149:10 *1185:C 5.50106e-05
8 *149:10 *1185:D_N 5.50106e-05
9 *149:10 *1514:A 0
10 *149:10 *337:44 9.28739e-05
11 *149:10 *338:8 9.67842e-05
12 *149:10 *338:10 0
13 *149:16 *230:18 9.91798e-05
14 *149:16 *336:27 0
15 *149:16 *337:18 0.000103101
16 *149:16 *337:27 5.72749e-05
17 *149:16 *337:44 0.000247084
18 *149:16 *338:10 0
19 *149:16 *375:54 0.000206413
20 *139:8 *149:16 0
21 *139:12 *149:16 0.000184527
*RES
1 *1185:X *149:10 42.1843 
2 *149:10 *149:16 28.4643 
3 *149:16 *1295:D 23 
4 *149:10 *1186:A 38 
*END

*D_NET *150 0.00112161
*CONN
*I *1191:A3 I *D sky130_fd_sc_hd__a32o_1
*I *1189:Y O *D sky130_fd_sc_hd__nand2_1
*CAP
1 *1191:A3 0
2 *1189:Y 0.000449263
3 *150:12 0.000449263
4 *150:12 *1191:B1 0.000131844
5 *150:12 *311:61 2.11074e-05
6 *1189:B *150:12 3.7122e-06
7 *1191:A2 *150:12 2.93845e-05
8 *147:6 *150:12 2.29356e-05
9 *147:16 *150:12 1.40958e-05
*RES
1 *1189:Y *150:12 30.83 
2 *150:12 *1191:A3 23 
*END

*D_NET *151 0.00105975
*CONN
*I *1191:B1 I *D sky130_fd_sc_hd__a32o_1
*I *1190:X O *D sky130_fd_sc_hd__a21o_1
*CAP
1 *1191:B1 9.23752e-05
2 *1190:X 0.000149911
3 *151:10 0.000242286
4 *1191:B1 *311:61 5.3304e-05
5 *151:10 *1183:C_N 0.000108681
6 *151:10 *1190:B1 3.71251e-05
7 *151:10 *311:61 8.4047e-05
8 *147:6 *1191:B1 0.000160182
9 *150:12 *1191:B1 0.000131844
*RES
1 *1190:X *151:10 40.6514 
2 *151:10 *1191:B1 40.7654 
*END

*D_NET *152 0.00682098
*CONN
*I *1192:A3 I *D sky130_fd_sc_hd__o31a_1
*I *1194:B I *D sky130_fd_sc_hd__or3b_1
*I *1191:X O *D sky130_fd_sc_hd__a32o_1
*CAP
1 *1192:A3 0
2 *1194:B 0.0001547
3 *1191:X 0.000902628
4 *152:23 0.000928224
5 *152:8 0.00108292
6 *152:6 0.000902628
7 *1194:B *154:8 6.07611e-06
8 *1194:B *288:12 6.82208e-05
9 *1194:B *311:46 0
10 *1194:B *375:89 0.000185755
11 *152:6 *297:41 0.000526324
12 *152:6 *375:26 0.000114856
13 *152:23 *189:10 0
14 *152:23 *288:12 0.000485689
15 *152:23 *366:28 0.00071411
16 *152:23 *375:20 0
17 *152:23 *375:26 0
18 *152:23 *380:8 0.000116314
19 *152:23 *396:10 8.51329e-05
20 *1178:B *152:6 5.50049e-05
21 *1191:A2 *152:6 5.47927e-05
22 *131:8 *1194:B 9.32509e-05
23 *131:8 *152:23 6.03737e-05
24 *147:16 *152:6 0.000283973
*RES
1 *1191:X *152:6 41.2493 
2 *152:6 *152:8 15 
3 *152:8 *1194:B 42.3707 
4 *152:8 *152:23 37.765 
5 *152:23 *1192:A3 23 
*END

*D_NET *153 0.00657566
*CONN
*I *1380:A1 I *D sky130_fd_sc_hd__a21oi_1
*I *1194:C_N I *D sky130_fd_sc_hd__or3b_1
*I *1369:A1 I *D sky130_fd_sc_hd__a31o_1
*I *1193:Y O *D sky130_fd_sc_hd__nor2_1
*CAP
1 *1380:A1 0.000310578
2 *1194:C_N 2.62025e-05
3 *1369:A1 0.00051808
4 *1193:Y 0
5 *153:23 0.000513212
6 *153:10 0.00138787
7 *153:6 0.000693362
8 *1194:C_N *288:12 2.96051e-05
9 *1369:A1 *1369:B1 0.000140259
10 *1369:A1 *375:28 0.000790567
11 *1369:A1 *375:30 0.000614974
12 *153:10 *288:12 0
13 *153:10 *302:74 7.73405e-05
14 *153:10 *309:10 0
15 *153:10 *309:23 0
16 *153:23 *288:12 7.56417e-05
17 *153:23 *375:28 0.000253936
18 *135:6 *1369:A1 0.000275371
19 *135:21 *153:10 0
20 *135:101 *1194:C_N 6.38845e-05
21 *135:101 *1369:A1 0.000141154
22 *135:101 *153:23 0.000272937
23 *145:27 *1380:A1 0.000390685
*RES
1 *1193:Y *153:6 38 
2 *153:6 *153:10 28.1743 
3 *153:10 *1369:A1 40.2964 
4 *153:10 *153:23 20.2614 
5 *153:23 *1194:C_N 38.8493 
6 *153:23 *1380:A1 42.4329 
*END

*D_NET *154 0.00650735
*CONN
*I *1219:A I *D sky130_fd_sc_hd__nor2_1
*I *1215:B1 I *D sky130_fd_sc_hd__a21oi_1
*I *1228:B1 I *D sky130_fd_sc_hd__a31o_1
*I *1194:X O *D sky130_fd_sc_hd__or3b_1
*CAP
1 *1219:A 0.00012321
2 *1215:B1 0
3 *1228:B1 3.85316e-05
4 *1194:X 0.000415524
5 *154:29 0.000506348
6 *154:23 0.00100027
7 *154:10 0.000409239
8 *154:8 0.000415524
9 *1219:A *1217:C 0.000112377
10 *1219:A *301:33 0.000121642
11 *1219:A *314:20 0.000250751
12 *1228:B1 *1228:A1 3.91386e-05
13 *1228:B1 *178:22 2.64616e-05
14 *154:8 *162:21 8.29273e-05
15 *154:8 *178:22 2.31209e-05
16 *154:8 *287:10 0.000274553
17 *154:8 *288:12 0
18 *154:8 *311:46 0
19 *154:23 *178:10 0.000292591
20 *154:23 *178:22 2.93845e-05
21 *154:23 *301:45 1.39431e-05
22 *154:23 *306:52 0.000139346
23 *154:23 *311:25 0.000955859
24 *154:29 *1207:A2 0.000153344
25 *154:29 *167:10 0
26 *154:29 *293:118 0.000228903
27 *154:29 *301:33 1.01436e-05
28 *154:29 *306:37 0
29 *154:29 *311:25 2.11887e-05
30 *154:29 *314:20 0.000579659
31 *1194:B *154:8 6.07611e-06
32 *1221:A3 *1219:A 9.21347e-06
33 *81:10 *154:29 0.000131304
34 *135:101 *154:8 0
35 *135:135 *1228:B1 5.50106e-05
36 *135:135 *154:23 4.17736e-05
*RES
1 *1194:X *154:8 46.2443 
2 *154:8 *154:10 15 
3 *154:10 *1228:B1 24.1186 
4 *154:10 *154:23 27.5321 
5 *154:23 *154:29 28.5886 
6 *154:29 *1215:B1 23 
7 *154:23 *1219:A 41.6664 
*END

*D_NET *155 0.000948315
*CONN
*I *1200:A2 I *D sky130_fd_sc_hd__a31o_1
*I *1195:X O *D sky130_fd_sc_hd__and3_1
*CAP
1 *1200:A2 0.000129391
2 *1195:X 0.000218018
3 *155:8 0.000347408
4 *1200:A2 *1199:B 9.24795e-06
5 *1200:A2 *1200:B1 5.41288e-05
6 *1200:A2 *1242:A 1.14154e-05
7 *1200:A2 *325:49 1.94812e-05
8 *155:8 *1263:A 0.000107641
9 *155:8 *157:10 0
10 *155:8 *211:14 5.15848e-05
11 *155:8 *316:24 0
*RES
1 *1195:X *155:8 42.7229 
2 *155:8 *1200:A2 40.5479 
*END

*D_NET *156 0.0038385
*CONN
*I *1243:B I *D sky130_fd_sc_hd__and4_1
*I *1242:A I *D sky130_fd_sc_hd__and2_1
*I *1200:A3 I *D sky130_fd_sc_hd__a31o_1
*I *1264:A2 I *D sky130_fd_sc_hd__a31o_1
*I *1196:X O *D sky130_fd_sc_hd__and2_1
*CAP
1 *1243:B 0
2 *1242:A 0.000180873
3 *1200:A3 0
4 *1264:A2 0.000299481
5 *1196:X 0.000242283
6 *156:25 0.000180873
7 *156:10 0.000421466
8 *156:6 0.000364268
9 *1242:A *1242:B 5.50049e-05
10 *1242:A *197:6 4.50607e-05
11 *1242:A *197:10 2.93747e-05
12 *1242:A *325:49 0.000446977
13 *1264:A2 *1263:A 4.24313e-05
14 *1264:A2 *1264:A1 2.4754e-05
15 *1264:A2 *157:10 0.000348447
16 *1264:A2 *196:55 1.32314e-05
17 *1264:A2 *302:34 0.000144174
18 *1264:A2 *329:47 0.000164282
19 *1264:A2 *330:28 3.81391e-05
20 *156:6 *1243:A 4.9662e-05
21 *156:6 *1243:D 0.000308946
22 *156:10 *157:10 8.85189e-05
23 *156:10 *157:21 0.000155077
24 *156:10 *160:12 0.000164291
25 *156:10 *302:34 1.94685e-05
26 *1200:A2 *1242:A 1.14154e-05
*RES
1 *1196:X *156:6 28.3857 
2 *156:6 *156:10 18.3143 
3 *156:10 *1264:A2 47.0107 
4 *156:10 *156:25 15 
5 *156:25 *1200:A3 23 
6 *156:25 *1242:A 28.4064 
7 *156:6 *1243:B 23 
*END

*D_NET *157 0.0039886
*CONN
*I *1209:A2 I *D sky130_fd_sc_hd__a31o_1
*I *1223:B1 I *D sky130_fd_sc_hd__o211a_1
*I *1272:A1 I *D sky130_fd_sc_hd__a21oi_1
*I *1243:C I *D sky130_fd_sc_hd__and4_1
*I *1199:B I *D sky130_fd_sc_hd__or3_1
*I *1197:X O *D sky130_fd_sc_hd__and4_1
*CAP
1 *1209:A2 0.000117961
2 *1223:B1 0
3 *1272:A1 4.84662e-05
4 *1243:C 0
5 *1199:B 0.000211006
6 *1197:X 0.000363575
7 *157:43 0.000316021
8 *157:30 0.000307988
9 *157:21 0.00012067
10 *157:10 0.000633788
11 *1199:B *1200:B1 5.70419e-05
12 *1199:B *325:49 5.3304e-05
13 *1209:A2 *160:12 0.000191157
14 *1209:A2 *161:14 0
15 *1209:A2 *180:10 0
16 *1272:A1 *373:27 1.39317e-05
17 *157:10 *1197:C 1.56662e-06
18 *157:10 *1197:D 1.59094e-05
19 *157:10 *1263:A 9.63918e-05
20 *157:10 *316:24 0
21 *157:10 *325:59 6.16439e-05
22 *157:10 *329:41 1.94693e-05
23 *157:21 *325:59 0.000166522
24 *157:30 *160:12 6.22475e-05
25 *157:30 *325:59 0.000138718
26 *157:43 *160:12 0.000142243
27 *157:43 *217:10 0
28 *157:43 *325:59 0.000247687
29 *1200:A2 *1199:B 9.24795e-06
30 *1264:A2 *157:10 0.000348447
31 *155:8 *157:10 0
32 *156:10 *157:10 8.85189e-05
33 *156:10 *157:21 0.000155077
*RES
1 *1197:X *157:10 45.3536 
2 *157:10 *1199:B 41.0036 
3 *157:10 *157:21 2.25786 
4 *157:21 *1243:C 38 
5 *157:21 *157:30 1.90571 
6 *157:30 *1272:A1 38.6214 
7 *157:30 *157:43 4.64 
8 *157:43 *1223:B1 38 
9 *157:43 *1209:A2 40.61 
*END

*D_NET *158 0.00300584
*CONN
*I *1201:B I *D sky130_fd_sc_hd__or2_1
*I *1199:C I *D sky130_fd_sc_hd__or3_1
*I *1198:X O *D sky130_fd_sc_hd__or4_1
*CAP
1 *1201:B 0.000113589
2 *1199:C 0.000602437
3 *1198:X 0.000445144
4 *158:8 0.00116117
5 *1199:C *1199:A 5.50049e-05
6 *1199:C *293:67 9.03784e-05
7 *1199:C *373:14 4.78793e-05
8 *1201:B *293:67 0.000326973
9 *1201:B *373:14 0.000159558
10 *158:8 *322:49 3.7122e-06
*RES
1 *1198:X *158:8 43.3857 
2 *158:8 *1199:C 49.3514 
3 *158:8 *1201:B 42.3707 
*END

*D_NET *159 0.00020628
*CONN
*I *1200:B1 I *D sky130_fd_sc_hd__a31o_1
*I *1199:X O *D sky130_fd_sc_hd__or3_1
*CAP
1 *1200:B1 4.0693e-05
2 *1199:X 4.0693e-05
3 *1200:B1 *325:49 1.37232e-05
4 *1199:B *1200:B1 5.70419e-05
5 *1200:A2 *1200:B1 5.41288e-05
*RES
1 *1199:X *1200:B1 47.595 
*END

*D_NET *160 0.0023764
*CONN
*I *1202:A3 I *D sky130_fd_sc_hd__a41o_1
*I *1200:X O *D sky130_fd_sc_hd__a31o_1
*CAP
1 *1202:A3 0
2 *1200:X 3.83793e-05
3 *160:12 0.000482021
4 *160:8 0.0005204
5 *160:8 *325:49 5.67058e-05
6 *160:12 *161:27 0
7 *160:12 *169:10 0.000151909
8 *160:12 *302:34 0.000567049
9 *1209:A2 *160:12 0.000191157
10 *156:10 *160:12 0.000164291
11 *157:30 *160:12 6.22475e-05
12 *157:43 *160:12 0.000142243
*RES
1 *1200:X *160:8 38.6214 
2 *160:8 *160:12 30.2871 
3 *160:12 *1202:A3 23 
*END

*D_NET *161 0.00465053
*CONN
*I *1202:A4 I *D sky130_fd_sc_hd__a41o_1
*I *1224:B I *D sky130_fd_sc_hd__or3_1
*I *1209:B1 I *D sky130_fd_sc_hd__a31o_1
*I *1201:X O *D sky130_fd_sc_hd__or2_1
*CAP
1 *1202:A4 0.000278453
2 *1224:B 4.55529e-05
3 *1209:B1 8.20258e-05
4 *1201:X 0.000207138
5 *161:27 0.0004236
6 *161:14 0.000413016
7 *161:12 0.000438534
8 *1202:A4 *1446:A 4.6318e-06
9 *1202:A4 *162:8 4.6595e-05
10 *1202:A4 *169:10 0
11 *1202:A4 *181:14 0.000111998
12 *1202:A4 *302:30 0.000313249
13 *1209:B1 *1209:A1 7.73389e-05
14 *1209:B1 *316:72 4.6595e-05
15 *1209:B1 *371:22 0.0002263
16 *1224:B *316:72 2.93747e-05
17 *161:12 *1272:B1 5.14824e-05
18 *161:12 *1274:A2 5.3304e-05
19 *161:12 *193:42 0.000460043
20 *161:12 *201:22 4.24098e-05
21 *161:12 *373:27 0.000221566
22 *161:14 *1273:A 5.55911e-05
23 *161:14 *180:10 2.96369e-05
24 *161:14 *198:10 0.000166522
25 *161:14 *217:10 0.000169674
26 *161:14 *316:72 0
27 *161:14 *325:59 0
28 *161:27 *180:10 9.21347e-06
29 *161:27 *181:14 2.76611e-06
30 *161:27 *316:72 0
31 *1202:A1 *1202:A4 0.000228001
32 *1209:A2 *161:14 0
33 *94:12 *161:12 0.000415917
34 *160:12 *161:27 0
*RES
1 *1201:X *161:12 47.8393 
2 *161:12 *161:14 5.075 
3 *161:14 *1209:B1 41.0243 
4 *161:14 *161:27 1.55357 
5 *161:27 *1224:B 38.6214 
6 *161:27 *1202:A4 46.2029 
*END

*D_NET *162 0.00674343
*CONN
*I *1218:A1 I *D sky130_fd_sc_hd__o32a_1
*I *1375:A2 I *D sky130_fd_sc_hd__o31a_1
*I *1222:B I *D sky130_fd_sc_hd__or3b_1
*I *1206:A1 I *D sky130_fd_sc_hd__o21a_1
*I *1202:X O *D sky130_fd_sc_hd__a41o_1
*CAP
1 *1218:A1 0
2 *1375:A2 2.34823e-05
3 *1222:B 0
4 *1206:A1 0
5 *1202:X 0.000327784
6 *162:51 0.000390949
7 *162:36 0.000695877
8 *162:29 0.000497941
9 *162:21 0.00111586
10 *162:10 0.000635177
11 *162:8 0.000626491
12 *162:8 *1214:B 0.000522803
13 *162:8 *1446:A 2.93747e-05
14 *162:8 *172:33 7.88926e-05
15 *162:8 *302:30 3.48868e-05
16 *162:8 *361:24 0.00010018
17 *162:10 *172:33 0.00010069
18 *162:10 *302:30 0
19 *162:21 *1227:A2 8.93766e-05
20 *162:21 *178:22 2.11157e-05
21 *162:21 *181:14 0
22 *162:21 *287:10 4.77891e-05
23 *162:21 *302:22 0
24 *162:21 *302:30 0
25 *162:21 *311:46 9.8735e-05
26 *162:29 *1377:A1 1.94693e-05
27 *162:29 *1377:A2 9.8971e-06
28 *162:29 *288:8 1.53864e-05
29 *162:29 *313:10 8.62783e-05
30 *162:36 *1377:A1 7.56391e-05
31 *162:51 *1218:A2 0.000313255
32 *162:51 *1218:A3 2.81041e-05
33 *162:51 *171:37 0
34 *1202:A1 *162:8 0.000400198
35 *1202:A4 *162:8 4.6595e-05
36 *1218:B2 *162:51 4.21594e-06
37 *133:23 *162:51 0
38 *135:135 *162:21 0.000135547
39 *145:42 *162:29 8.85189e-05
40 *154:8 *162:21 8.29273e-05
*RES
1 *1202:X *162:8 48.15 
2 *162:8 *162:10 5.075 
3 *162:10 *1206:A1 38 
4 *162:10 *162:21 22.8921 
5 *162:21 *162:29 36.5871 
6 *162:29 *1222:B 23 
7 *162:21 *162:36 3.48 
8 *162:36 *1375:A2 23.4971 
9 *162:36 *162:51 35.6343 
10 *162:51 *1218:A1 23 
*END

*D_NET *163 0.00730413
*CONN
*I *1216:B I *D sky130_fd_sc_hd__or2_1
*I *1205:B1_N I *D sky130_fd_sc_hd__o21ba_1
*I *1211:B1 I *D sky130_fd_sc_hd__a31o_1
*I *1222:C_N I *D sky130_fd_sc_hd__or3b_1
*I *1203:X O *D sky130_fd_sc_hd__or3_1
*CAP
1 *1216:B 0.000172309
2 *1205:B1_N 0
3 *1211:B1 0
4 *1222:C_N 0
5 *1203:X 0.00077987
6 *163:22 0.000488755
7 *163:14 0.000822627
8 *163:12 0.000537798
9 *163:8 0.00115611
10 *1216:B *171:37 0
11 *1216:B *183:14 0.000185428
12 *1216:B *372:34 0
13 *1216:B *391:73 0.000185428
14 *163:8 *372:34 0.000820888
15 *163:12 *165:8 8.93663e-05
16 *163:12 *372:34 0
17 *163:12 *391:73 0
18 *163:14 *313:21 4.5051e-05
19 *163:14 *313:46 0.000551669
20 *163:14 *392:28 0.000614094
21 *163:22 *1211:A2 2.18506e-05
22 *163:22 *1214:B 2.48636e-05
23 *163:22 *170:29 2.91142e-05
24 *163:22 *171:18 0.000222113
25 *163:22 *177:10 0
26 *163:22 *225:8 0.000271401
27 *163:22 *392:22 0.000140259
28 *163:22 *392:28 4.5051e-05
29 *1211:A1 *163:14 4.08664e-05
30 *1211:A1 *163:22 5.50049e-05
31 *145:42 *163:22 4.21594e-06
*RES
1 *1203:X *163:8 49.5793 
2 *163:8 *163:12 18.6664 
3 *163:12 *163:14 12.5321 
4 *163:14 *163:22 40.7714 
5 *163:22 *1222:C_N 23 
6 *163:14 *1211:B1 23 
7 *163:12 *1205:B1_N 23 
8 *163:8 *1216:B 42.3086 
*END

*D_NET *164 0.000978746
*CONN
*I *1207:B1 I *D sky130_fd_sc_hd__a221oi_1
*I *1205:A2 I *D sky130_fd_sc_hd__o21ba_1
*I *1204:X O *D sky130_fd_sc_hd__a21o_1
*CAP
1 *1207:B1 0
2 *1205:A2 0.000104259
3 *1204:X 5.34812e-05
4 *164:6 0.00015774
5 *1205:A2 *1207:A1 0
6 *1205:A2 *313:46 0.000105861
7 *1205:A2 *392:28 0.000263652
8 *164:6 *1207:A1 4.79544e-05
9 *164:6 *306:29 5.3304e-05
10 *164:6 *313:46 1.22822e-05
11 *164:6 *392:28 0.000180212
*RES
1 *1204:X *164:6 25.0507 
2 *164:6 *1205:A2 26.5007 
3 *164:6 *1207:B1 23 
*END

*D_NET *165 0.00139026
*CONN
*I *1206:A2 I *D sky130_fd_sc_hd__o21a_1
*I *1205:X O *D sky130_fd_sc_hd__o21ba_1
*CAP
1 *1206:A2 0.000173015
2 *1205:X 0.000145706
3 *165:8 0.000318721
4 *1206:A2 *1206:B1 5.50049e-05
5 *1206:A2 *372:34 0.000315852
6 *165:8 *302:30 0
7 *137:16 *1206:A2 0.000292591
8 *163:12 *165:8 8.93663e-05
*RES
1 *1205:X *165:8 40.61 
2 *165:8 *1206:A2 44.3386 
*END

*D_NET *166 0.00215975
*CONN
*I *1207:C1 I *D sky130_fd_sc_hd__a221oi_1
*I *1206:X O *D sky130_fd_sc_hd__o21a_1
*CAP
1 *1207:C1 0
2 *1206:X 0.000572937
3 *166:10 0.000572937
4 *166:10 *314:20 0.000135547
5 *166:10 *391:73 0.000135547
6 *137:16 *166:10 0.000742784
*RES
1 *1206:X *166:10 48.15 
2 *166:10 *1207:C1 38 
*END

*D_NET *167 0.000832563
*CONN
*I *1215:A1 I *D sky130_fd_sc_hd__a21oi_1
*I *1207:Y O *D sky130_fd_sc_hd__a221oi_1
*CAP
1 *1215:A1 0
2 *1207:Y 0.000301827
3 *167:10 0.000301827
4 *167:10 *293:42 0
5 *167:10 *293:56 0
6 *167:10 *313:46 0.000228909
7 *154:29 *167:10 0
*RES
1 *1207:Y *167:10 42.785 
2 *167:10 *1215:A1 38 
*END

*D_NET *168 0.000350048
*CONN
*I *1209:A3 I *D sky130_fd_sc_hd__a31o_1
*I *1208:X O *D sky130_fd_sc_hd__or2_1
*CAP
1 *1209:A3 9.62684e-05
2 *1208:X 9.62684e-05
3 *1209:A3 *169:10 3.3577e-05
4 *1209:A3 *371:22 0.000123934
*RES
1 *1208:X *1209:A3 48.5271 
*END

*D_NET *169 0.00138479
*CONN
*I *1211:A3 I *D sky130_fd_sc_hd__a31o_1
*I *1209:X O *D sky130_fd_sc_hd__a31o_1
*CAP
1 *1211:A3 0
2 *1209:X 0.000520958
3 *169:10 0.000520958
4 *169:10 *1209:A1 7.53384e-06
5 *169:10 *1214:B 0.00014411
6 *169:10 *371:22 5.74317e-06
7 *1202:A1 *169:10 0
8 *1202:A4 *169:10 0
9 *1209:A3 *169:10 3.3577e-05
10 *160:12 *169:10 0.000151909
*RES
1 *1209:X *169:10 47.5907 
2 *169:10 *1211:A3 38 
*END

*D_NET *170 0.00381012
*CONN
*I *1376:B I *D sky130_fd_sc_hd__or3_1
*I *1220:B I *D sky130_fd_sc_hd__nand2b_1
*I *1214:B I *D sky130_fd_sc_hd__or3_1
*I *1211:X O *D sky130_fd_sc_hd__a31o_1
*CAP
1 *1376:B 0.000248556
2 *1220:B 0
3 *1214:B 0.000754372
4 *1211:X 7.68064e-05
5 *170:29 0.000374399
6 *170:8 0.000957021
7 *1214:B *172:33 8.2832e-05
8 *1214:B *313:10 4.63479e-05
9 *1376:B *1220:A_N 0.000122436
10 *1376:B *172:21 6.37675e-05
11 *1376:B *177:10 5.68978e-05
12 *1376:B *293:33 8.42001e-06
13 *170:8 *392:22 9.67842e-05
14 *170:29 *171:18 6.16531e-05
15 *170:29 *177:10 1.41077e-05
16 *170:29 *293:33 5.45381e-05
17 *170:29 *313:10 3.98859e-05
18 *1202:A1 *1214:B 3.04021e-05
19 *162:8 *1214:B 0.000522803
20 *163:22 *1214:B 2.48636e-05
21 *163:22 *170:29 2.91142e-05
22 *169:10 *1214:B 0.00014411
*RES
1 *1211:X *170:8 39.0979 
2 *170:8 *1214:B 49.9729 
3 *170:8 *170:29 17.522 
4 *170:29 *1220:B 23 
5 *170:29 *1376:B 27.6452 
*END

*D_NET *171 0.00809582
*CONN
*I *1218:B1 I *D sky130_fd_sc_hd__o32a_1
*I *1213:B I *D sky130_fd_sc_hd__nand2_1
*I *1212:Y O *D sky130_fd_sc_hd__nor2_1
*CAP
1 *1218:B1 0
2 *1213:B 0
3 *1212:Y 0.00119149
4 *171:37 0.00107924
5 *171:24 8.39184e-05
6 *171:18 0.00150373
7 *171:10 0.00153206
8 *171:10 *1289:A1 4.34745e-05
9 *171:10 *226:6 1.32939e-05
10 *171:10 *228:10 5.50049e-05
11 *171:10 *293:33 0.000755225
12 *171:10 *317:38 9.67842e-05
13 *171:10 *343:14 0.00035673
14 *171:10 *343:25 2.32004e-05
15 *171:10 *391:8 9.24795e-06
16 *171:10 *391:10 5.45334e-05
17 *171:10 *391:18 3.22879e-05
18 *171:10 *391:38 9.5877e-05
19 *171:18 *177:10 2.54046e-05
20 *171:18 *313:10 0
21 *171:18 *391:60 8.78244e-05
22 *171:24 *290:44 7.81176e-05
23 *171:37 *1217:B 0
24 *171:37 *1227:A2 0.000184527
25 *171:37 *174:8 7.47273e-05
26 *171:37 *178:10 8.22421e-06
27 *171:37 *181:14 2.64616e-05
28 *171:37 *183:14 0.000146911
29 *171:37 *305:37 0
30 *171:37 *372:34 0
31 *171:37 *391:60 7.01251e-05
32 *1216:B *171:37 0
33 *1218:B2 *171:37 6.07611e-06
34 *1401:D *171:10 1.64354e-05
35 *135:103 *171:24 0.000161121
36 *162:51 *171:37 0
37 *163:22 *171:18 0.000222113
38 *170:29 *171:18 6.16531e-05
*RES
1 *1212:Y *171:10 45.2264 
2 *171:10 *171:18 35.9657 
3 *171:18 *171:24 32.2579 
4 *171:24 *1213:B 23 
5 *171:18 *171:37 46.0329 
6 *171:37 *1218:B1 23 
*END

*D_NET *172 0.00249689
*CONN
*I *1376:C I *D sky130_fd_sc_hd__or3_1
*I *1214:C I *D sky130_fd_sc_hd__or3_1
*I *1220:A_N I *D sky130_fd_sc_hd__nand2b_1
*I *1213:Y O *D sky130_fd_sc_hd__nand2_1
*CAP
1 *1376:C 0
2 *1214:C 0
3 *1220:A_N 5.34051e-05
4 *1213:Y 0
5 *172:33 0.000410691
6 *172:21 0.000480904
7 *172:4 0.000123618
8 *1220:A_N *293:33 1.9799e-05
9 *1220:A_N *313:35 6.20519e-05
10 *172:21 *293:33 1.41129e-05
11 *172:21 *313:35 5.69489e-05
12 *172:33 *181:14 0.000394564
13 *172:33 *293:33 5.3304e-05
14 *172:33 *302:30 0.000315852
15 *172:33 *313:35 9.72057e-06
16 *1214:B *172:33 8.2832e-05
17 *1376:A *172:33 5.3304e-05
18 *1376:B *1220:A_N 0.000122436
19 *1376:B *172:21 6.37675e-05
20 *137:16 *172:33 0
21 *162:8 *172:33 7.88926e-05
22 *162:10 *172:33 0.00010069
*RES
1 *1213:Y *172:4 23 
2 *172:4 *1220:A_N 24.797 
3 *172:4 *172:21 2.21643 
4 *172:21 *172:33 41.455 
5 *172:33 *1214:C 23 
6 *172:21 *1376:C 23 
*END

*D_NET *173 0.000633507
*CONN
*I *1215:A2 I *D sky130_fd_sc_hd__a21oi_1
*I *1214:X O *D sky130_fd_sc_hd__or3_1
*CAP
1 *1215:A2 0
2 *1214:X 0.000157977
3 *173:8 0.000157977
4 *173:8 *293:118 0.000317553
*RES
1 *1214:X *173:8 27.3293 
2 *173:8 *1215:A2 23 
*END

*D_NET *174 0.00133873
*CONN
*I *1218:A2 I *D sky130_fd_sc_hd__o32a_1
*I *1375:A3 I *D sky130_fd_sc_hd__o31a_1
*I *1216:X O *D sky130_fd_sc_hd__or2_1
*CAP
1 *1218:A2 8.26907e-05
2 *1375:A3 0
3 *1216:X 0.000213798
4 *174:10 8.26907e-05
5 *174:8 0.000213798
6 *1218:A2 *1218:A3 5.67058e-05
7 *1218:A2 *294:16 6.51763e-05
8 *174:8 *178:10 2.33476e-05
9 *174:8 *305:37 0.000186274
10 *174:8 *306:64 2.8314e-06
11 *174:8 *372:34 1.01436e-05
12 *1375:B1 *1218:A2 1.32939e-05
13 *162:51 *1218:A2 0.000313255
14 *171:37 *174:8 7.47273e-05
*RES
1 *1216:X *174:8 42.3707 
2 *174:8 *174:10 15 
3 *174:10 *1375:A3 23 
4 *174:10 *1218:A2 26.48 
*END

*D_NET *175 0.000447882
*CONN
*I *1218:A3 I *D sky130_fd_sc_hd__o32a_1
*I *1217:X O *D sky130_fd_sc_hd__or3_1
*CAP
1 *1218:A3 0.000100578
2 *1217:X 0.000100578
3 *1218:A3 *1217:C 0
4 *1218:A3 *176:12 5.67058e-05
5 *1218:A3 *294:16 0.000105209
6 *1218:A2 *1218:A3 5.67058e-05
7 *162:51 *1218:A3 2.81041e-05
*RES
1 *1217:X *1218:A3 49.1693 
*END

*D_NET *176 0.000850814
*CONN
*I *1219:B I *D sky130_fd_sc_hd__nor2_1
*I *1218:X O *D sky130_fd_sc_hd__o32a_1
*CAP
1 *1219:B 0
2 *1218:X 0.000295471
3 *176:12 0.000295471
4 *176:12 *1217:C 0.000107894
5 *176:12 *294:16 7.0627e-05
6 *1218:A3 *176:12 5.67058e-05
7 *82:18 *176:12 2.46468e-05
*RES
1 *1218:X *176:12 28.4479 
2 *176:12 *1219:B 23 
*END

*D_NET *177 0.00185236
*CONN
*I *1228:A1 I *D sky130_fd_sc_hd__a31o_1
*I *1220:Y O *D sky130_fd_sc_hd__nand2b_1
*CAP
1 *1228:A1 0.000157872
2 *1220:Y 0.0002731
3 *177:10 0.000430972
4 *1228:A1 *1228:A3 1.62422e-05
5 *1228:A1 *1229:B 5.61255e-06
6 *1228:A1 *178:22 2.93845e-05
7 *1228:A1 *185:8 0.000144146
8 *1228:A1 *290:44 0.000178517
9 *177:10 *313:10 0.000343064
10 *1228:B1 *1228:A1 3.91386e-05
11 *1376:B *177:10 5.68978e-05
12 *135:135 *1228:A1 0.000126454
13 *145:42 *177:10 1.14452e-05
14 *163:22 *177:10 0
15 *170:29 *177:10 1.41077e-05
16 *171:18 *177:10 2.54046e-05
*RES
1 *1220:Y *177:10 43.8207 
2 *177:10 *1228:A1 42.6193 
*END

*D_NET *178 0.00254753
*CONN
*I *1228:A2 I *D sky130_fd_sc_hd__a31o_1
*I *1221:X O *D sky130_fd_sc_hd__o32a_1
*CAP
1 *1228:A2 0
2 *1221:X 0.000308499
3 *178:22 0.00037915
4 *178:10 0.000687649
5 *178:10 *306:52 0.000137651
6 *178:22 *1229:B 6.17437e-06
7 *178:22 *301:45 0.000298746
8 *178:22 *306:64 0.000215981
9 *1228:A1 *178:22 2.93845e-05
10 *1228:B1 *178:22 2.64616e-05
11 *133:8 *178:10 4.9662e-05
12 *135:135 *178:22 1.03836e-05
13 *154:8 *178:22 2.31209e-05
14 *154:23 *178:10 0.000292591
15 *154:23 *178:22 2.93845e-05
16 *162:21 *178:22 2.11157e-05
17 *171:37 *178:10 8.22421e-06
18 *174:8 *178:10 2.33476e-05
*RES
1 *1221:X *178:10 45.6125 
2 *178:10 *178:22 34.2865 
3 *178:22 *1228:A2 23 
*END

*D_NET *179 0.000382146
*CONN
*I *1228:A3 I *D sky130_fd_sc_hd__a31o_1
*I *1222:X O *D sky130_fd_sc_hd__or3b_1
*CAP
1 *1228:A3 6.35799e-05
2 *1222:X 6.35799e-05
3 *1228:A3 *1229:B 0.00014196
4 *1228:A3 *290:44 9.67842e-05
5 *1228:A1 *1228:A3 1.62422e-05
*RES
1 *1222:X *1228:A3 48.0714 
*END

*D_NET *180 0.000366497
*CONN
*I *1224:C I *D sky130_fd_sc_hd__or3_1
*I *1223:X O *D sky130_fd_sc_hd__o211a_1
*CAP
1 *1224:C 0
2 *1223:X 0.000163823
3 *180:10 0.000163823
4 *1209:A2 *180:10 0
5 *161:14 *180:10 2.96369e-05
6 *161:27 *180:10 9.21347e-06
*RES
1 *1223:X *180:10 40.5271 
2 *180:10 *1224:C 38 
*END

*D_NET *181 0.00248022
*CONN
*I *1227:A3 I *D sky130_fd_sc_hd__a31o_1
*I *1224:X O *D sky130_fd_sc_hd__or3_1
*CAP
1 *1227:A3 0
2 *1224:X 7.02108e-05
3 *181:14 0.00053556
4 *181:8 0.000605771
5 *181:8 *316:72 4.06849e-05
6 *181:14 *1446:A 0.000161121
7 *181:14 *287:10 0.000138718
8 *181:14 *290:44 0.000125506
9 *181:14 *293:33 0.00021356
10 *181:14 *302:30 0
11 *181:14 *391:60 5.3304e-05
12 *1202:A4 *181:14 0.000111998
13 *161:27 *181:14 2.76611e-06
14 *162:21 *181:14 0
15 *171:37 *181:14 2.64616e-05
16 *172:33 *181:14 0.000394564
*RES
1 *1224:X *181:8 39.0979 
2 *181:8 *181:14 28.7957 
3 *181:14 *1227:A3 23 
*END

*D_NET *182 0.000321847
*CONN
*I *1226:D I *D sky130_fd_sc_hd__or4_1
*I *1225:X O *D sky130_fd_sc_hd__or4_1
*CAP
1 *1226:D 0
2 *1225:X 0.000138383
3 *182:8 0.000138383
4 *182:8 *1226:A 0
5 *182:8 *193:10 0
6 *182:8 *295:14 4.21594e-06
7 *182:8 *328:10 4.08641e-05
*RES
1 *1225:X *182:8 40.2579 
2 *182:8 *1226:D 38 
*END

*D_NET *183 0.0040641
*CONN
*I *1227:B1 I *D sky130_fd_sc_hd__a31o_1
*I *1226:X O *D sky130_fd_sc_hd__or4_1
*CAP
1 *1227:B1 0
2 *1226:X 0.00119575
3 *183:14 0.00119575
4 *183:14 *1226:A 2.93747e-05
5 *183:14 *1226:B 9.67842e-05
6 *183:14 *1227:A2 5.12254e-05
7 *183:14 *311:8 3.41012e-05
8 *183:14 *391:60 0.000438474
9 *183:14 *391:73 0.000176763
10 *1216:B *183:14 0.000185428
11 *1226:C *183:14 0.000225399
12 *148:16 *183:14 0.000288134
13 *171:37 *183:14 0.000146911
*RES
1 *1226:X *183:14 49.2036 
2 *183:14 *1227:B1 23 
*END

*D_NET *184 0.00218022
*CONN
*I *1377:C1 I *D sky130_fd_sc_hd__o211a_1
*I *1229:B I *D sky130_fd_sc_hd__and2b_1
*I *1227:X O *D sky130_fd_sc_hd__a31o_1
*CAP
1 *1377:C1 0.000102584
2 *1229:B 0.000403799
3 *1227:X 0.000138071
4 *184:8 0.000644454
5 *1229:B *290:44 0.000411709
6 *1377:C1 *287:10 8.16253e-05
7 *184:8 *287:10 0.000104133
8 *184:8 *290:44 0.000140103
9 *1228:A1 *1229:B 5.61255e-06
10 *1228:A3 *1229:B 0.00014196
11 *135:101 *1377:C1 0
12 *178:22 *1229:B 6.17437e-06
*RES
1 *1227:X *184:8 40.9621 
2 *184:8 *1229:B 45.4571 
3 *184:8 *1377:C1 40.2579 
*END

*D_NET *185 0.000754506
*CONN
*I *1229:A_N I *D sky130_fd_sc_hd__and2b_1
*I *1228:X O *D sky130_fd_sc_hd__a31o_1
*CAP
1 *1229:A_N 0
2 *1228:X 0.000247757
3 *185:8 0.000247757
4 *185:8 *290:44 0.000114846
5 *1228:A1 *185:8 0.000144146
*RES
1 *1228:X *185:8 27.4536 
2 *185:8 *1229:A_N 23 
*END

*D_NET *186 0.000980745
*CONN
*I *1231:B1 I *D sky130_fd_sc_hd__a21o_1
*I *1230:X O *D sky130_fd_sc_hd__xor2_1
*CAP
1 *1231:B1 0
2 *1230:X 0.000467939
3 *186:8 0.000467939
4 *186:8 *297:21 0
5 *186:8 *307:82 0
6 *186:8 *393:10 0
7 *186:8 *395:10 4.48671e-05
*RES
1 *1230:X *186:8 46.5964 
2 *186:8 *1231:B1 38 
*END

*D_NET *187 0.000355201
*CONN
*I *1238:A I *D sky130_fd_sc_hd__or3b_2
*I *1231:X O *D sky130_fd_sc_hd__a21o_1
*CAP
1 *1238:A 0
2 *1231:X 0.000162913
3 *187:10 0.000162913
4 *187:10 *297:31 0
5 *187:10 *307:82 0
6 *187:10 *395:22 2.93747e-05
*RES
1 *1231:X *187:10 40.5271 
2 *187:10 *1238:A 38 
*END

*D_NET *188 0.000436235
*CONN
*I *1234:B1 I *D sky130_fd_sc_hd__a221o_1
*I *1232:Y O *D sky130_fd_sc_hd__nand2_1
*CAP
1 *1234:B1 0
2 *1232:Y 9.5625e-05
3 *188:10 9.5625e-05
4 *188:10 *309:32 1.24376e-05
5 *188:10 *309:38 4.38068e-06
6 *188:10 *310:12 0.000114083
7 *188:10 *375:26 0.000114083
*RES
1 *1232:Y *188:10 40.175 
2 *188:10 *1234:B1 38 
*END

*D_NET *189 0.000563947
*CONN
*I *1234:B2 I *D sky130_fd_sc_hd__a221o_1
*I *1233:X O *D sky130_fd_sc_hd__or2_1
*CAP
1 *1234:B2 9.18627e-06
2 *1233:X 0.000146433
3 *189:10 0.000155619
4 *1234:B2 *1234:C1 1.28818e-05
5 *189:10 *309:32 0.00010018
6 *189:10 *375:26 0.000139647
7 *152:23 *189:10 0
*RES
1 *1233:X *189:10 41.0036 
2 *189:10 *1234:B2 38.1502 
*END

*D_NET *190 0.00279202
*CONN
*I *1238:B I *D sky130_fd_sc_hd__or3b_2
*I *1234:X O *D sky130_fd_sc_hd__a221o_1
*CAP
1 *1238:B 0
2 *1234:X 0.00115222
3 *190:6 0.00115222
4 *190:6 *1236:A2 0.000226306
5 *190:6 *1238:C_N 1.94812e-05
6 *190:6 *1404:CLK 7.24484e-05
7 *190:6 *193:8 5.27215e-06
8 *1234:A2 *190:6 1.54098e-05
9 *1236:A1 *190:6 2.13733e-05
10 *1236:B2 *190:6 9.06965e-05
11 *1404:D *190:6 3.65942e-05
*RES
1 *1234:X *190:6 38.8671 
2 *190:6 *1238:B 23 
*END

*D_NET *191 0.000446629
*CONN
*I *1236:C1 I *D sky130_fd_sc_hd__o221a_1
*I *1235:X O *D sky130_fd_sc_hd__o2bb2a_1
*CAP
1 *1236:C1 0
2 *1235:X 0.000121444
3 *191:10 0.000121444
4 *191:10 *297:31 5.67058e-05
5 *191:10 *309:90 0
6 *191:10 *394:10 0.000140958
7 *191:10 *395:22 6.07611e-06
*RES
1 *1235:X *191:10 40.5271 
2 *191:10 *1236:C1 38 
*END

*D_NET *192 0.000114013
*CONN
*I *1238:C_N I *D sky130_fd_sc_hd__or3b_2
*I *1236:X O *D sky130_fd_sc_hd__o221a_1
*CAP
1 *1238:C_N 1.97605e-05
2 *1236:X 1.97605e-05
3 *1236:A1 *1238:C_N 5.50106e-05
4 *190:6 *1238:C_N 1.94812e-05
*RES
1 *1236:X *1238:C_N 46.6214 
*END

*D_NET *193 0.0141519
*CONN
*I *1276:B1 I *D sky130_fd_sc_hd__a21oi_1
*I *1450:A I *D sky130_fd_sc_hd__buf_2
*I *1239:A I *D sky130_fd_sc_hd__inv_2
*I *1268:B1 I *D sky130_fd_sc_hd__a21oi_1
*I *1274:B1 I *D sky130_fd_sc_hd__a21oi_1
*I *1238:X O *D sky130_fd_sc_hd__or3b_2
*CAP
1 *1276:B1 0
2 *1450:A 0
3 *1239:A 0
4 *1268:B1 0.000190363
5 *1274:B1 0
6 *1238:X 5.21236e-05
7 *193:57 0.000781194
8 *193:42 0.00082989
9 *193:30 0.00169344
10 *193:24 0.000425936
11 *193:18 0.00065808
12 *193:10 0.00224271
13 *193:8 0.00178998
14 *1268:B1 *194:12 0.000573195
15 *1268:B1 *194:23 5.50049e-05
16 *193:10 *293:126 0.000138185
17 *193:10 *295:14 0
18 *193:10 *297:31 0
19 *193:10 *301:10 0
20 *193:10 *305:57 0
21 *193:10 *306:14 0.000509837
22 *193:10 *307:10 0
23 *193:10 *307:23 0
24 *193:10 *307:34 2.24973e-05
25 *193:10 *307:45 7.21237e-05
26 *193:10 *307:56 0.000216936
27 *193:10 *307:82 4.85126e-05
28 *193:10 *311:61 0
29 *193:10 *312:20 0
30 *193:10 *314:10 0.000244526
31 *193:10 *328:10 0
32 *193:10 *392:28 7.03766e-05
33 *193:18 *219:8 0
34 *193:18 *293:126 0
35 *193:18 *293:134 0
36 *193:18 *301:8 3.76441e-05
37 *193:24 *201:66 6.44887e-05
38 *193:24 *219:8 0
39 *193:24 *221:10 2.76611e-06
40 *193:24 *293:134 0
41 *193:24 *371:14 0
42 *193:24 *373:10 1.76557e-05
43 *193:30 *198:35 0
44 *193:30 *201:66 9.84851e-05
45 *193:30 *318:32 0
46 *193:30 *373:10 0.000119969
47 *193:42 *1201:A 9.14812e-05
48 *193:42 *1244:C 5.50049e-05
49 *193:42 *198:35 8.94487e-05
50 *193:42 *199:14 3.05778e-05
51 *193:42 *201:22 0.000272377
52 *193:42 *293:67 0
53 *193:42 *373:27 7.9567e-06
54 *193:57 *1198:B 4.17929e-05
55 *193:57 *1281:A2 0.000111158
56 *193:57 *194:23 0.000168144
57 *193:57 *199:14 0.000348518
58 *193:57 *201:66 0.00012862
59 *193:57 *322:36 0.000218962
60 *193:57 *322:49 0.000188256
61 *1191:B2 *193:10 0.000150047
62 *1236:A1 *193:10 0.000138727
63 *92:10 *1268:B1 0.000123517
64 *134:10 *193:10 0.000303269
65 *134:55 *193:10 0
66 *137:16 *193:10 0
67 *142:17 *193:10 0.000262829
68 *161:12 *193:42 0.000460043
69 *182:8 *193:10 0
70 *190:6 *193:8 5.27215e-06
*RES
1 *1238:X *193:8 38.6214 
2 *193:8 *193:10 36.7679 
3 *193:10 *193:18 36.5664 
4 *193:18 *193:24 17.8793 
5 *193:24 *193:30 20.7379 
6 *193:30 *193:42 29.2721 
7 *193:42 *1274:B1 23 
8 *193:30 *193:57 30.7636 
9 *193:57 *1268:B1 29.815 
10 *193:57 *1239:A 23 
11 *193:24 *1450:A 23 
12 *193:18 *1276:B1 38 
*END

*D_NET *194 0.00539416
*CONN
*I *1281:C1 I *D sky130_fd_sc_hd__o211a_1
*I *1283:C1 I *D sky130_fd_sc_hd__o211a_1
*I *1271:A I *D sky130_fd_sc_hd__and3_1
*I *1239:Y O *D sky130_fd_sc_hd__inv_2
*CAP
1 *1281:C1 0
2 *1283:C1 0
3 *1271:A 0
4 *1239:Y 0
5 *194:31 0.000497782
6 *194:23 0.000709004
7 *194:12 0.000499616
8 *194:4 0.000710837
9 *194:12 *1268:A2 5.50106e-05
10 *194:12 *1270:C 0
11 *194:12 *201:14 0.000658449
12 *194:12 *201:22 1.58805e-05
13 *194:12 *201:33 9.67842e-05
14 *194:12 *331:18 0
15 *194:12 *373:14 0
16 *194:23 *1281:A2 0.000349813
17 *194:23 *201:14 0.000101567
18 *194:31 *1283:A2 0.000359332
19 *194:31 *1283:B1 0
20 *194:31 *1399:CLK 0
21 *194:31 *201:14 1.62015e-05
22 *194:31 *321:18 0.000361027
23 *194:31 *321:58 0
24 *194:31 *322:8 0.000166513
25 *1268:B1 *194:12 0.000573195
26 *1268:B1 *194:23 5.50049e-05
27 *193:57 *194:23 0.000168144
*RES
1 *1239:Y *194:4 23 
2 *194:4 *194:12 44.0236 
3 *194:12 *1271:A 23 
4 *194:4 *194:23 6.02786 
5 *194:23 *194:31 42.2007 
6 *194:31 *1283:C1 23 
7 *194:23 *1281:C1 23 
*END

*D_NET *195 0.00154508
*CONN
*I *1253:B I *D sky130_fd_sc_hd__nor2_1
*I *1251:A I *D sky130_fd_sc_hd__or2_1
*I *1240:X O *D sky130_fd_sc_hd__and3_1
*CAP
1 *1253:B 0.000261084
2 *1251:A 9.70845e-05
3 *1240:X 0.000123076
4 *195:10 0.000481244
5 *1251:A *302:40 0.000228909
6 *1251:A *324:47 2.64616e-05
7 *1253:B *196:10 0.000118285
8 *1253:B *325:25 0
9 *1253:B *325:40 0
10 *1253:B *326:23 0
11 *195:10 *203:10 9.21347e-06
12 *195:10 *323:54 8.62876e-05
13 *195:10 *324:8 2.93845e-05
14 *195:10 *324:47 8.4047e-05
15 *195:10 *325:40 0
16 *195:10 *326:23 0
*RES
1 *1240:X *195:10 40.5271 
2 *195:10 *1251:A 40.5271 
3 *195:10 *1253:B 43.7793 
*END

*D_NET *196 0.0113895
*CONN
*I *1254:A I *D sky130_fd_sc_hd__or2_1
*I *1256:B I *D sky130_fd_sc_hd__xnor2_1
*I *1243:D I *D sky130_fd_sc_hd__and4_1
*I *1242:B I *D sky130_fd_sc_hd__and2_1
*I *1264:A3 I *D sky130_fd_sc_hd__a31o_1
*I *1258:A2 I *D sky130_fd_sc_hd__a21oi_1
*I *1241:X O *D sky130_fd_sc_hd__and4_2
*CAP
1 *1254:A 3.92454e-05
2 *1256:B 0.000135893
3 *1243:D 0.000245822
4 *1242:B 1.50079e-05
5 *1264:A3 0
6 *1258:A2 0
7 *1241:X 0.000289647
8 *196:55 0.000521958
9 *196:45 0.000752004
10 *196:43 0.000757887
11 *196:28 5.37785e-05
12 *196:22 0.000951411
13 *196:18 0.00131741
14 *196:12 0.000620154
15 *196:10 0.000289647
16 *1242:B *197:6 5.50049e-05
17 *1243:D *1243:A 2.43944e-05
18 *1256:B *1256:A 5.98263e-05
19 *1256:B *1389:CLK 5.41288e-05
20 *1256:B *207:8 0.000138727
21 *1256:B *291:70 0
22 *196:10 *205:8 5.86165e-05
23 *196:10 *302:40 2.93845e-05
24 *196:10 *326:23 0.000621028
25 *196:18 *206:10 9.84794e-05
26 *196:18 *207:8 6.48049e-05
27 *196:18 *291:70 0
28 *196:18 *291:72 0
29 *196:18 *291:74 0
30 *196:18 *291:76 0
31 *196:18 *373:69 0.000212517
32 *196:18 *373:79 8.51432e-05
33 *196:22 *1257:A2 2.02872e-05
34 *196:22 *1259:A 2.25419e-05
35 *196:22 *1259:B 5.50049e-05
36 *196:22 *209:10 5.50106e-05
37 *196:22 *373:57 0.000140259
38 *196:22 *373:63 0.000965367
39 *196:22 *373:69 0.000226306
40 *196:28 *1196:B 1.14452e-05
41 *196:28 *326:36 5.01986e-05
42 *196:28 *371:32 0
43 *196:28 *373:63 9.48381e-06
44 *196:43 *1259:B 9.01726e-05
45 *196:43 *1272:A2 0.000455159
46 *196:43 *302:34 0
47 *196:43 *373:27 0.000401106
48 *196:43 *373:31 0
49 *196:43 *373:57 0.000163825
50 *196:45 *302:34 0
51 *196:45 *373:31 0
52 *196:55 *1264:A1 0.000271476
53 *196:55 *197:64 5.31444e-05
54 *196:55 *302:34 8.84662e-05
55 *196:55 *329:12 0.000225265
56 *196:55 *371:95 0
57 *196:55 *373:31 0
58 *1242:A *1242:B 5.50049e-05
59 *1253:B *196:10 0.000118285
60 *1264:A2 *196:55 1.32314e-05
61 *88:10 *1256:B 0
62 *88:10 *196:22 9.75779e-05
63 *156:6 *1243:D 0.000308946
*RES
1 *1241:X *196:10 46.8657 
2 *196:10 *196:12 15 
3 *196:12 *196:18 27.0764 
4 *196:18 *196:22 30.3907 
5 *196:22 *196:28 30.8493 
6 *196:28 *1258:A2 23 
7 *196:22 *196:43 24.5907 
8 *196:43 *196:45 3.66643 
9 *196:45 *196:55 27.3664 
10 *196:55 *1264:A3 23 
11 *196:45 *1242:B 38.6214 
12 *196:43 *1243:D 42.4329 
13 *196:18 *1256:B 41.3557 
14 *196:12 *1254:A 23.6214 
*END

*D_NET *197 0.00556722
*CONN
*I *1263:C I *D sky130_fd_sc_hd__and3_1
*I *1272:A2 I *D sky130_fd_sc_hd__a21oi_1
*I *1259:A I *D sky130_fd_sc_hd__or2_1
*I *1261:A2 I *D sky130_fd_sc_hd__a31o_1
*I *1262:A2 I *D sky130_fd_sc_hd__o21ba_1
*I *1242:X O *D sky130_fd_sc_hd__and2_1
*CAP
1 *1263:C 0
2 *1272:A2 0.000417851
3 *1259:A 0.000121145
4 *1261:A2 0
5 *1262:A2 0.000250389
6 *1242:X 8.06962e-05
7 *197:64 0.000408655
8 *197:34 0.00076474
9 *197:12 0.000368606
10 *197:10 0.000630553
11 *197:6 0.000775944
12 *1259:A *1259:B 1.57571e-05
13 *1259:A *373:63 5.37348e-06
14 *1262:A2 *210:10 0
15 *1262:A2 *327:16 0.000210945
16 *1272:A2 *1258:B1 5.67837e-05
17 *1272:A2 *1259:B 6.83676e-05
18 *1272:A2 *373:27 0.00013961
19 *197:10 *325:49 0.000162116
20 *197:12 *327:16 9.63918e-05
21 *197:34 *1196:B 0.000141869
22 *197:34 *327:12 8.68016e-06
23 *197:34 *327:16 0.000125915
24 *197:64 *1261:A1 3.16052e-05
25 *197:64 *211:10 2.49456e-05
26 *197:64 *373:31 0
27 *1242:A *197:6 4.50607e-05
28 *1242:A *197:10 2.93747e-05
29 *1242:B *197:6 5.50049e-05
30 *196:22 *1259:A 2.25419e-05
31 *196:43 *1272:A2 0.000455159
32 *196:55 *197:64 5.31444e-05
*RES
1 *1242:X *197:6 24.5743 
2 *197:6 *197:10 20.3857 
3 *197:10 *197:12 2.61 
4 *197:12 *1262:A2 44.0486 
5 *197:12 *1261:A2 38 
6 *197:10 *197:34 20.4271 
7 *197:34 *1259:A 25.0714 
8 *197:34 *1272:A2 33.3364 
9 *197:6 *197:64 35.8518 
10 *197:64 *1263:C 23 
*END

*D_NET *198 0.00439651
*CONN
*I *1273:A I *D sky130_fd_sc_hd__or2_1
*I *1277:A2 I *D sky130_fd_sc_hd__a21oi_1
*I *1244:C I *D sky130_fd_sc_hd__and3_1
*I *1275:B I *D sky130_fd_sc_hd__xnor2_1
*I *1243:X O *D sky130_fd_sc_hd__and4_1
*CAP
1 *1273:A 1.63083e-05
2 *1277:A2 0
3 *1244:C 0.000200634
4 *1275:B 0
5 *1243:X 0.000346563
6 *198:35 0.000387765
7 *198:22 0.0009505
8 *198:10 0.00112624
9 *1244:C *1201:A 2.32004e-05
10 *1244:C *1277:A1 6.09174e-05
11 *1244:C *1277:B1 0.000127802
12 *1244:C *318:24 3.58084e-06
13 *1244:C *319:10 0
14 *1273:A *316:72 2.22183e-05
15 *198:10 *1243:A 5.72217e-05
16 *198:10 *1272:B1 5.62433e-06
17 *198:10 *218:8 7.7086e-05
18 *198:10 *316:10 1.17152e-05
19 *198:10 *316:12 3.27534e-05
20 *198:10 *316:72 7.75329e-06
21 *198:10 *325:59 0
22 *198:22 *293:56 3.32402e-05
23 *198:22 *293:67 0.000228903
24 *198:22 *373:10 9.91895e-05
25 *198:35 *293:67 2.72055e-05
26 *198:35 *318:32 0.000136486
27 *198:35 *373:10 4.21281e-05
28 *1395:D *198:22 4.9054e-06
29 *161:14 *1273:A 5.55911e-05
30 *161:14 *198:10 0.000166522
31 *193:30 *198:35 0
32 *193:42 *1244:C 5.50049e-05
33 *193:42 *198:35 8.94487e-05
*RES
1 *1243:X *198:10 44.4214 
2 *198:10 *198:22 28.2157 
3 *198:22 *1275:B 23 
4 *198:22 *198:35 34.06 
5 *198:35 *1244:C 27.0082 
6 *198:35 *1277:A2 23 
7 *198:10 *1273:A 38.8493 
*END

*D_NET *199 0.00360553
*CONN
*I *1278:A I *D sky130_fd_sc_hd__or2_1
*I *1245:B I *D sky130_fd_sc_hd__and2_1
*I *1281:A2 I *D sky130_fd_sc_hd__o211a_1
*I *1244:X O *D sky130_fd_sc_hd__and3_1
*CAP
1 *1278:A 8.77523e-05
2 *1245:B 0
3 *1281:A2 0.00039738
4 *1244:X 2.70444e-05
5 *199:14 0.000796859
6 *199:8 0.000514275
7 *1278:A *1278:B 0.000182826
8 *1278:A *318:22 0.000226306
9 *1278:A *318:24 1.56665e-05
10 *1278:A *319:10 3.34247e-05
11 *1281:A2 *1281:B1 4.37033e-05
12 *1281:A2 *200:10 9.28842e-05
13 *1281:A2 *201:14 0.000223687
14 *1281:A2 *293:73 0
15 *1281:A2 *322:36 1.34354e-05
16 *199:8 *1278:B 4.21023e-05
17 *199:8 *318:22 1.14154e-05
18 *199:8 *318:24 5.67058e-05
19 *199:14 *293:67 0
20 *193:42 *199:14 3.05778e-05
21 *193:57 *1281:A2 0.000111158
22 *193:57 *199:14 0.000348518
23 *194:23 *1281:A2 0.000349813
*RES
1 *1244:X *199:8 24.1186 
2 *199:8 *199:14 24.2179 
3 *199:14 *1281:A2 47.5493 
4 *199:14 *1245:B 38 
5 *199:8 *1278:A 26.5007 
*END

*D_NET *200 0.00463682
*CONN
*I *1280:B1_N I *D sky130_fd_sc_hd__a21bo_1
*I *1246:C I *D sky130_fd_sc_hd__nand3_2
*I *1282:C I *D sky130_fd_sc_hd__nand3b_1
*I *1283:A2 I *D sky130_fd_sc_hd__o211a_1
*I *1284:A2 I *D sky130_fd_sc_hd__a21oi_1
*I *1245:X O *D sky130_fd_sc_hd__and2_1
*CAP
1 *1280:B1_N 0
2 *1246:C 0
3 *1282:C 0
4 *1283:A2 0.000569218
5 *1284:A2 5.9363e-05
6 *1245:X 0
7 *200:64 0.000129632
8 *200:51 0.000478473
9 *200:25 0.000631976
10 *200:10 0.000546606
11 *200:4 0.000773324
12 *1283:A2 *321:18 0.00018179
13 *1283:A2 *321:34 0.000165496
14 *1283:A2 *321:58 0
15 *1284:A2 *1282:A_N 0
16 *1284:A2 *1282:B 5.16861e-05
17 *1284:A2 *386:10 0.000127169
18 *200:10 *293:73 0
19 *200:10 *322:25 0
20 *200:10 *322:36 0
21 *200:25 *1282:B 2.07807e-05
22 *200:25 *223:8 9.88574e-06
23 *200:25 *293:73 0
24 *200:25 *321:58 0
25 *200:25 *322:25 1.19692e-05
26 *200:25 *386:10 9.67842e-05
27 *200:51 *1245:A 0.00017761
28 *200:51 *201:8 5.3304e-05
29 *200:51 *320:10 2.25419e-05
30 *200:64 *1198:C 2.5415e-05
31 *200:64 *1245:A 2.22079e-05
32 *200:64 *293:138 0
33 *200:64 *320:10 2.93747e-05
34 *1281:A2 *200:10 9.28842e-05
35 *194:31 *1283:A2 0.000359332
*RES
1 *1245:X *200:4 23 
2 *200:4 *200:10 37.1879 
3 *200:10 *1284:A2 24.9471 
4 *200:10 *200:25 16.9471 
5 *200:25 *1283:A2 49.9521 
6 *200:25 *1282:C 38 
7 *200:4 *200:51 6.25571 
8 *200:51 *1246:C 23 
9 *200:51 *200:64 32.5271 
10 *200:64 *1280:B1_N 23 
*END

*D_NET *201 0.0105128
*CONN
*I *1449:A I *D sky130_fd_sc_hd__buf_2
*I *1268:A1 I *D sky130_fd_sc_hd__a21oi_1
*I *1269:A2 I *D sky130_fd_sc_hd__a31o_1
*I *1270:C I *D sky130_fd_sc_hd__nand4_1
*I *1274:A1 I *D sky130_fd_sc_hd__a21oi_1
*I *1246:Y O *D sky130_fd_sc_hd__nand3_2
*CAP
1 *1449:A 0
2 *1268:A1 0
3 *1269:A2 0
4 *1270:C 0.000275958
5 *1274:A1 0
6 *1246:Y 4.99221e-05
7 *201:66 0.000896135
8 *201:33 0.000673023
9 *201:22 0.000880074
10 *201:14 0.00208975
11 *201:8 0.00175867
12 *1270:C *1270:A 5.81314e-05
13 *1270:C *1507:A 8.72173e-05
14 *1270:C *293:79 0.000139754
15 *1270:C *331:18 1.14452e-05
16 *1270:C *331:20 0.000138718
17 *1270:C *332:19 5.12254e-05
18 *1270:C *332:56 4.96717e-05
19 *201:14 *1399:CLK 0
20 *201:14 *321:58 0.000216712
21 *201:22 *214:8 0
22 *201:22 *316:10 0
23 *201:22 *316:12 0
24 *201:22 *316:14 0
25 *201:22 *316:24 0
26 *201:22 *331:12 0
27 *201:22 *331:18 0
28 *201:22 *373:14 0
29 *201:33 *1268:A2 7.27085e-05
30 *201:33 *331:18 0.00037336
31 *201:66 *1198:B 0.000115013
32 *201:66 *1198:C 0.000127272
33 *201:66 *1245:A 8.94487e-05
34 *201:66 *1279:B1 0.000129841
35 *201:66 *221:10 0
36 *201:66 *293:134 0
37 *201:66 *293:138 0
38 *201:66 *321:58 7.39034e-05
39 *201:66 *321:69 0.000167452
40 *201:66 *371:6 0.000184527
41 *201:66 *373:10 9.24795e-06
42 *1281:A2 *201:14 0.000223687
43 *93:8 *1270:C 0
44 *96:10 *201:66 2.13733e-05
45 *161:12 *201:22 4.24098e-05
46 *193:24 *201:66 6.44887e-05
47 *193:30 *201:66 9.84851e-05
48 *193:42 *201:22 0.000272377
49 *193:57 *201:66 0.00012862
50 *194:12 *1270:C 0
51 *194:12 *201:14 0.000658449
52 *194:12 *201:22 1.58805e-05
53 *194:12 *201:33 9.67842e-05
54 *194:23 *201:14 0.000101567
55 *194:31 *201:14 1.62015e-05
56 *200:51 *201:8 5.3304e-05
*RES
1 *1246:Y *201:8 38.6214 
2 *201:8 *201:14 29.065 
3 *201:14 *201:22 45.37 
4 *201:22 *1274:A1 23 
5 *201:14 *201:33 23.0786 
6 *201:33 *1270:C 44.4629 
7 *201:33 *1269:A2 38 
8 *201:14 *1268:A1 23 
9 *201:8 *201:66 33.705 
10 *201:66 *1449:A 23 
*END

*D_NET *202 0.000981891
*CONN
*I *1249:A2 I *D sky130_fd_sc_hd__a21oi_1
*I *1248:Y O *D sky130_fd_sc_hd__xnor2_1
*CAP
1 *1249:A2 5.95883e-05
2 *1248:Y 0.000207014
3 *202:10 0.000266603
4 *202:10 *1248:A 5.73309e-05
5 *202:10 *1248:B 5.12873e-05
6 *202:10 *315:14 2.812e-05
7 *202:10 *315:29 8.87986e-05
8 *202:10 *323:17 5.56279e-05
9 *202:10 *323:30 0.000138607
10 global_timeout_count[0] *1249:A2 2.8914e-05
*RES
1 *1248:Y *202:10 43.1371 
2 *202:10 *1249:A2 39.0979 
*END

*D_NET *203 0.00112587
*CONN
*I *1251:B I *D sky130_fd_sc_hd__or2_1
*I *1250:Y O *D sky130_fd_sc_hd__a21oi_1
*CAP
1 *1251:B 0
2 *1250:Y 0.000335726
3 *203:10 0.000335726
4 *203:10 *1250:B1 3.22879e-05
5 *203:10 *204:8 0
6 *203:10 *323:41 0.000141052
7 *203:10 *323:54 9.58714e-05
8 *203:10 *324:8 6.82514e-05
9 *203:10 *324:10 6.68919e-05
10 *203:10 *324:47 4.08537e-05
11 *203:10 *325:40 0
12 *195:10 *203:10 9.21347e-06
*RES
1 *1250:Y *203:10 45.395 
2 *203:10 *1251:B 38 
*END

*D_NET *204 0.000882469
*CONN
*I *1252:A2 I *D sky130_fd_sc_hd__a21oi_1
*I *1251:X O *D sky130_fd_sc_hd__or2_1
*CAP
1 *1252:A2 5.26244e-05
2 *1251:X 0.000240952
3 *204:8 0.000293577
4 *1252:A2 *371:87 0.000141954
5 *204:8 *324:34 0
6 *204:8 *325:40 0.000123977
7 global_timeout_count[3] *1252:A2 2.93845e-05
8 *203:10 *204:8 0
*RES
1 *1251:X *204:8 43.075 
2 *204:8 *1252:A2 39.5743 
*END

*D_NET *205 0.000245807
*CONN
*I *1254:B I *D sky130_fd_sc_hd__or2_1
*I *1253:Y O *D sky130_fd_sc_hd__nor2_1
*CAP
1 *1254:B 0
2 *1253:Y 9.35954e-05
3 *205:8 9.35954e-05
4 *205:8 *325:12 0
5 *196:10 *205:8 5.86165e-05
*RES
1 *1253:Y *205:8 40.2579 
2 *205:8 *1254:B 38 
*END

*D_NET *206 0.000588026
*CONN
*I *1255:A2 I *D sky130_fd_sc_hd__a21oi_1
*I *1254:X O *D sky130_fd_sc_hd__or2_1
*CAP
1 *1255:A2 0
2 *1254:X 0.000135132
3 *206:10 0.000135132
4 *206:10 *326:23 6.68793e-05
5 *206:10 *371:38 1.14452e-05
6 *206:10 *371:44 0.000140958
7 *196:18 *206:10 9.84794e-05
*RES
1 *1254:X *206:10 41.0036 
2 *206:10 *1255:A2 38 
*END

*D_NET *207 0.000763544
*CONN
*I *1257:A2 I *D sky130_fd_sc_hd__a21oi_1
*I *1256:Y O *D sky130_fd_sc_hd__xnor2_1
*CAP
1 *1257:A2 6.59927e-05
2 *1256:Y 0.000108613
3 *207:8 0.000174605
4 *1257:A2 *371:38 5.50106e-05
5 *1257:A2 *373:69 9.84851e-05
6 *207:8 *326:23 0
7 *207:8 *373:69 3.70187e-05
8 *1256:B *207:8 0.000138727
9 *88:10 *207:8 0
10 *196:18 *207:8 6.48049e-05
11 *196:22 *1257:A2 2.02872e-05
*RES
1 *1256:Y *207:8 40.61 
2 *207:8 *1257:A2 39.5743 
*END

*D_NET *208 0.00039048
*CONN
*I *1259:B I *D sky130_fd_sc_hd__or2_1
*I *1258:Y O *D sky130_fd_sc_hd__a21oi_1
*CAP
1 *1259:B 8.0589e-05
2 *1258:Y 8.0589e-05
3 *1259:A *1259:B 1.57571e-05
4 *1272:A2 *1259:B 6.83676e-05
5 *196:22 *1259:B 5.50049e-05
6 *196:43 *1259:B 9.01726e-05
*RES
1 *1258:Y *1259:B 48.1698 
*END

*D_NET *209 0.000599635
*CONN
*I *1260:A2 I *D sky130_fd_sc_hd__a21oi_1
*I *1259:X O *D sky130_fd_sc_hd__or2_1
*CAP
1 *1260:A2 0
2 *1259:X 0.000105799
3 *209:10 0.000105799
4 *209:10 *1260:B1 0.00015637
5 *209:10 *371:32 0.000166513
6 *209:10 *373:63 1.01436e-05
7 *196:22 *209:10 5.50106e-05
*RES
1 *1259:X *209:10 40.8793 
2 *209:10 *1260:A2 38 
*END

*D_NET *210 0.000651832
*CONN
*I *1262:B1_N I *D sky130_fd_sc_hd__o21ba_1
*I *1261:X O *D sky130_fd_sc_hd__a31o_1
*CAP
1 *1262:B1_N 0
2 *1261:X 0.000298106
3 *210:10 0.000298106
4 *210:10 *325:12 0
5 *1262:A2 *210:10 0
6 *90:8 *210:10 5.56203e-05
*RES
1 *1261:X *210:10 43.3443 
2 *210:10 *1262:B1_N 38 
*END

*D_NET *211 0.00440818
*CONN
*I *1267:B I *D sky130_fd_sc_hd__xnor2_1
*I *1269:A3 I *D sky130_fd_sc_hd__a31o_1
*I *1265:A_N I *D sky130_fd_sc_hd__nand2b_1
*I *1270:D I *D sky130_fd_sc_hd__nand4_1
*I *1263:X O *D sky130_fd_sc_hd__and3_1
*CAP
1 *1267:B 0.000101328
2 *1269:A3 0.000228682
3 *1265:A_N 0.000401744
4 *1270:D 0.000186334
5 *1263:X 0.000332033
6 *211:29 0.000630426
7 *211:14 0.000585599
8 *211:10 0.000832626
9 *1265:A_N *1271:C 5.12254e-05
10 *1265:A_N *302:40 0.000271476
11 *1269:A3 *1271:C 9.98931e-05
12 *1270:D *216:8 4.08537e-05
13 *1270:D *316:24 0.000121405
14 *1270:D *330:19 0
15 *211:10 *1261:A1 5.50049e-05
16 *211:10 *1263:A 1.94693e-05
17 *211:10 *1263:B 5.3304e-05
18 *211:14 *1263:A 0
19 *211:14 *316:24 0.00032025
20 *211:14 *330:19 0
21 *211:14 *330:28 0
22 *155:8 *211:14 5.15848e-05
23 *197:64 *211:10 2.49456e-05
*RES
1 *1263:X *211:10 28.5514 
2 *211:10 *211:14 23.5964 
3 *211:14 *1270:D 41.3764 
4 *211:14 *211:29 15 
5 *211:29 *1265:A_N 31.2443 
6 *211:29 *1269:A3 26.9771 
7 *211:10 *1267:B 24.5743 
*END

*D_NET *212 0.00109351
*CONN
*I *1265:B I *D sky130_fd_sc_hd__nand2b_1
*I *1264:X O *D sky130_fd_sc_hd__a31o_1
*CAP
1 *1265:B 7.08298e-06
2 *1264:X 0.000395018
3 *212:10 0.000402101
4 *1265:B *302:40 1.28818e-05
5 *212:10 *1264:A1 0.000226306
6 *212:10 *1505:A 5.01247e-05
7 *212:10 *371:95 0
*RES
1 *1264:X *212:10 44.2143 
2 *212:10 *1265:B 38.1502 
*END

*D_NET *213 0.000888085
*CONN
*I *1266:A2 I *D sky130_fd_sc_hd__a21oi_1
*I *1265:Y O *D sky130_fd_sc_hd__nand2b_1
*CAP
1 *1266:A2 0
2 *1265:Y 0.000243475
3 *213:10 0.000243475
4 *213:10 *1505:A 0
5 *213:10 *302:40 1.94812e-05
6 *213:10 *371:95 0.000381653
*RES
1 *1265:Y *213:10 43.6964 
2 *213:10 *1266:A2 38 
*END

*D_NET *214 0.000564675
*CONN
*I *1268:A2 I *D sky130_fd_sc_hd__a21oi_1
*I *1267:Y O *D sky130_fd_sc_hd__xnor2_1
*CAP
1 *1268:A2 7.86599e-05
2 *1267:Y 0.000106569
3 *214:8 0.000185229
4 *214:8 *331:12 2.5415e-05
5 *214:8 *331:18 4.10832e-05
6 *194:12 *1268:A2 5.50106e-05
7 *201:22 *214:8 0
8 *201:33 *1268:A2 7.27085e-05
*RES
1 *1267:Y *214:8 40.2579 
2 *214:8 *1268:A2 40.0507 
*END

*D_NET *215 0.00027074
*CONN
*I *1271:B I *D sky130_fd_sc_hd__and3_1
*I *1269:X O *D sky130_fd_sc_hd__a31o_1
*CAP
1 *1271:B 0.000111104
2 *1269:X 0.000111104
3 *1271:B *1271:C 4.85322e-05
*RES
1 *1269:X *1271:B 47.5743 
*END

*D_NET *216 0.00142536
*CONN
*I *1271:C I *D sky130_fd_sc_hd__and3_1
*I *1270:Y O *D sky130_fd_sc_hd__nand4_1
*CAP
1 *1271:C 0.000528721
2 *1270:Y 4.97561e-05
3 *216:8 0.000578477
4 *216:8 *330:19 2.79004e-05
5 *1265:A_N *1271:C 5.12254e-05
6 *1269:A3 *1271:C 9.98931e-05
7 *1270:D *216:8 4.08537e-05
8 *1271:B *1271:C 4.85322e-05
*RES
1 *1270:Y *216:8 39.2014 
2 *216:8 *1271:C 46.5343 
*END

*D_NET *217 0.000794822
*CONN
*I *1273:B I *D sky130_fd_sc_hd__or2_1
*I *1272:Y O *D sky130_fd_sc_hd__a21oi_1
*CAP
1 *1273:B 0
2 *1272:Y 0.000219857
3 *217:10 0.000219857
4 *217:10 *325:59 0
5 *217:10 *373:27 0.000185434
6 *157:43 *217:10 0
7 *161:14 *217:10 0.000169674
*RES
1 *1272:Y *217:10 42.3086 
2 *217:10 *1273:B 38 
*END

*D_NET *218 0.000527001
*CONN
*I *1274:A2 I *D sky130_fd_sc_hd__a21oi_1
*I *1273:X O *D sky130_fd_sc_hd__or2_1
*CAP
1 *1274:A2 3.12449e-05
2 *1273:X 8.22927e-05
3 *218:8 0.000113538
4 *1274:A2 *1272:B1 6.17437e-06
5 *218:8 *316:10 0.000163361
6 *161:12 *1274:A2 5.3304e-05
7 *198:10 *218:8 7.7086e-05
*RES
1 *1273:X *218:8 40.2579 
2 *218:8 *1274:A2 38.6214 
*END

*D_NET *219 0.000616207
*CONN
*I *1276:A2 I *D sky130_fd_sc_hd__a21oi_1
*I *1275:Y O *D sky130_fd_sc_hd__xnor2_1
*CAP
1 *1276:A2 0.000110613
2 *1275:Y 0.000120914
3 *219:8 0.000231526
4 *1276:A2 *371:22 0.000153155
5 *193:18 *219:8 0
6 *193:24 *219:8 0
*RES
1 *1275:Y *219:8 39.9057 
2 *219:8 *1276:A2 41.0036 
*END

*D_NET *220 0.000754367
*CONN
*I *1278:B I *D sky130_fd_sc_hd__or2_1
*I *1277:Y O *D sky130_fd_sc_hd__a21oi_1
*CAP
1 *1278:B 9.40822e-05
2 *1277:Y 9.40822e-05
3 *1278:B *1277:A1 3.91386e-05
4 *1278:B *1277:B1 0.000225399
5 *1278:B *318:24 1.57571e-05
6 *1278:B *318:39 3.91386e-05
7 *1278:B *319:10 2.18409e-05
8 *1278:A *1278:B 0.000182826
9 *199:8 *1278:B 4.21023e-05
*RES
1 *1277:Y *1278:B 49.8529 
*END

*D_NET *221 0.000551128
*CONN
*I *1279:A2 I *D sky130_fd_sc_hd__a21oi_1
*I *1278:X O *D sky130_fd_sc_hd__or2_1
*CAP
1 *1279:A2 0
2 *1278:X 0.00019778
3 *221:10 0.00019778
4 *221:10 *293:134 5.26204e-05
5 *221:10 *318:22 0.00010018
6 *193:24 *221:10 2.76611e-06
7 *201:66 *221:10 0
*RES
1 *1278:X *221:10 41.3557 
2 *221:10 *1279:A2 38 
*END

*D_NET *222 0.00139587
*CONN
*I *1281:B1 I *D sky130_fd_sc_hd__o211a_1
*I *1280:X O *D sky130_fd_sc_hd__a21bo_1
*CAP
1 *1281:B1 0.000138025
2 *1280:X 0.000169539
3 *222:8 0.000307564
4 *1281:B1 *382:6 0.000184527
5 *222:8 *1399:CLK 0.000219882
6 *222:8 *293:138 0.000138727
7 *1281:A2 *1281:B1 4.37033e-05
8 *97:10 *1281:B1 2.64616e-05
9 *97:10 *222:8 0.000167443
*RES
1 *1280:X *222:8 42.7229 
2 *222:8 *1281:B1 41.5007 
*END

*D_NET *223 0.00201649
*CONN
*I *1283:B1 I *D sky130_fd_sc_hd__o211a_1
*I *1282:Y O *D sky130_fd_sc_hd__nand3b_1
*CAP
1 *1283:B1 0.00014374
2 *1282:Y 0.000732764
3 *223:8 0.000876504
4 *1283:B1 *321:10 0
5 *223:8 *1282:A_N 5.70419e-05
6 *223:8 *1282:B 8.11264e-05
7 *223:8 *1399:CLK 2.30292e-05
8 *223:8 *1453:A 2.79662e-05
9 *223:8 *322:12 6.16164e-05
10 *223:8 *386:10 2.81406e-06
11 *98:8 *1283:B1 0
12 *194:31 *1283:B1 0
13 *200:25 *223:8 9.88574e-06
*RES
1 *1282:Y *223:8 48.15 
2 *223:8 *1283:B1 39.9057 
*END

*D_NET *224 0.000213461
*CONN
*I *1285:B I *D sky130_fd_sc_hd__nor2_1
*I *1284:Y O *D sky130_fd_sc_hd__a21oi_1
*CAP
1 *1285:B 5.54808e-05
2 *1284:Y 5.54808e-05
3 *1285:B *386:10 7.92994e-05
4 *99:10 *1285:B 2.32004e-05
*RES
1 *1284:Y *1285:B 47.4707 
*END

*D_NET *225 0.00460155
*CONN
*I *1291:C1 I *D sky130_fd_sc_hd__o221a_1
*I *1290:B1 I *D sky130_fd_sc_hd__o211a_1
*I *1286:Y O *D sky130_fd_sc_hd__a21oi_1
*CAP
1 *1291:C1 5.44917e-05
2 *1290:B1 0.000241547
3 *1286:Y 0.000545849
4 *225:14 0.00116165
5 *225:8 0.00141146
6 *1290:B1 *228:10 0.000141869
7 *1290:B1 *317:30 2.30292e-05
8 *1290:B1 *317:38 9.39159e-05
9 *1290:B1 *343:12 0
10 *1290:B1 *391:18 4.23817e-05
11 *1290:B1 *392:10 0
12 *1291:C1 *385:8 4.21594e-06
13 *1291:C1 *391:18 2.72055e-05
14 *1291:C1 *392:10 0
15 *225:8 *391:60 0
16 *225:14 *1291:A2 0.000183733
17 *225:14 *372:24 0.000218327
18 *225:14 *391:60 0.000121856
19 *83:12 *225:8 0
20 *145:42 *225:8 0
21 *147:37 *225:8 5.86165e-05
22 *163:22 *225:8 0.000271401
*RES
1 *1286:Y *225:8 49.4136 
2 *225:8 *225:14 43.485 
3 *225:14 *1290:B1 43.3443 
4 *225:14 *1291:C1 39.2014 
*END

*D_NET *226 0.00167131
*CONN
*I *1289:A2 I *D sky130_fd_sc_hd__o21ai_1
*I *1291:A2 I *D sky130_fd_sc_hd__o221a_1
*I *1288:A2 I *D sky130_fd_sc_hd__o21a_1
*I *1287:Y O *D sky130_fd_sc_hd__a21boi_1
*CAP
1 *1289:A2 0
2 *1291:A2 0.000171448
3 *1288:A2 3.75247e-05
4 *1287:Y 0.000207636
5 *226:12 0.000257723
6 *226:6 0.000256387
7 *1288:A2 *372:24 1.94693e-05
8 *1291:A2 *1291:B1 0.000146959
9 *1291:A2 *372:24 7.57122e-05
10 *226:6 *391:10 0.000102093
11 *226:6 *391:18 2.93845e-05
12 *226:12 *343:12 5.80963e-05
13 *226:12 *391:18 0.000111852
14 *171:10 *226:6 1.32939e-05
15 *225:14 *1291:A2 0.000183733
*RES
1 *1287:Y *226:6 26.0036 
2 *226:6 *226:12 31.5536 
3 *226:12 *1288:A2 23.6214 
4 *226:12 *1291:A2 27.4536 
5 *226:6 *1289:A2 23 
*END

*D_NET *227 0.000339185
*CONN
*I *1291:B1 I *D sky130_fd_sc_hd__o221a_1
*I *1288:X O *D sky130_fd_sc_hd__o21a_1
*CAP
1 *1291:B1 5.74437e-05
2 *1288:X 5.74437e-05
3 *1291:B1 *372:24 7.73389e-05
4 *1291:A2 *1291:B1 0.000146959
*RES
1 *1288:X *1291:B1 48.0714 
*END

*D_NET *228 0.000432194
*CONN
*I *1290:C1 I *D sky130_fd_sc_hd__o211a_1
*I *1289:Y O *D sky130_fd_sc_hd__o21ai_1
*CAP
1 *1290:C1 0
2 *1289:Y 0.00011766
3 *228:10 0.00011766
4 *228:10 *236:12 0
5 *1290:B1 *228:10 0.000141869
6 *171:10 *228:10 5.50049e-05
*RES
1 *1289:Y *228:10 40.5271 
2 *228:10 *1290:C1 38 
*END

*D_NET *229 0.00385916
*CONN
*I *1318:B I *D sky130_fd_sc_hd__nor2_1
*I *1296:C I *D sky130_fd_sc_hd__or3_2
*I *1295:X O *D sky130_fd_sc_hd__and4_1
*CAP
1 *1318:B 0.000301085
2 *1296:C 0.000452902
3 *1295:X 0.000296859
4 *229:10 0.00105085
5 *1296:C *1169:A 5.50106e-05
6 *1296:C *1169:B 5.19899e-05
7 *1296:C *1169:D_N 0
8 *1296:C *1193:A 0
9 *1296:C *1296:A 4.07902e-05
10 *1296:C *1296:B 1.24376e-05
11 *1296:C *230:6 8.1796e-05
12 *1296:C *230:18 0.000221396
13 *1318:B *335:43 6.43005e-05
14 *1318:B *337:27 4.85126e-05
15 *1318:B *337:35 0.000190835
16 *1318:B *337:44 3.0647e-05
17 *1318:B *375:54 0.000228903
18 *229:10 *230:18 0.000267178
19 *229:10 *337:18 7.8128e-05
20 *229:10 *337:27 1.83564e-05
21 *1297:B1 *1296:C 0.000141246
22 *139:8 *1318:B 3.70187e-05
23 *139:8 *229:10 0.000188926
*RES
1 *1295:X *229:10 43.6136 
2 *229:10 *1296:C 49.165 
3 *229:10 *1318:B 45.6436 
*END

*D_NET *230 0.00506652
*CONN
*I *1297:A2 I *D sky130_fd_sc_hd__o21a_1
*I *1314:B1 I *D sky130_fd_sc_hd__a31o_1
*I *1313:B1 I *D sky130_fd_sc_hd__a31o_1
*I *1372:B I *D sky130_fd_sc_hd__nor3_1
*I *1296:X O *D sky130_fd_sc_hd__or3_2
*CAP
1 *1297:A2 0
2 *1314:B1 3.08984e-05
3 *1313:B1 0.000447884
4 *1372:B 0.000202422
5 *1296:X 8.56518e-05
6 *230:24 0.000777942
7 *230:22 0.000208903
8 *230:18 0.00069611
9 *230:6 0.000731393
10 *1313:B1 *1542:A 9.84851e-05
11 *1372:B *1314:A3 0
12 *1372:B *1372:C 5.12254e-05
13 *230:18 *1169:C 3.5664e-05
14 *230:18 *335:10 0.000111852
15 *230:18 *335:32 1.01436e-05
16 *230:18 *337:18 0.000223698
17 *230:24 *1314:A3 0
18 *1295:C *1314:B1 0.000141954
19 *1295:C *230:18 9.67842e-05
20 *1296:C *230:6 8.1796e-05
21 *1296:C *230:18 0.000221396
22 *128:10 *1372:B 1.14876e-05
23 *138:12 *1372:B 8.26672e-05
24 *138:12 *230:22 2.71291e-05
25 *138:12 *230:24 0.000108672
26 *138:49 *230:18 9.67842e-05
27 *138:57 *230:22 0
28 *138:57 *230:24 0
29 *139:12 *230:18 4.03335e-05
30 *139:24 *1314:B1 7.88828e-05
31 *149:16 *230:18 9.91798e-05
32 *229:10 *230:18 0.000267178
*RES
1 *1296:X *230:6 24.5743 
2 *230:6 *230:18 43.4229 
3 *230:18 *230:22 15.8493 
4 *230:22 *230:24 2.96214 
5 *230:24 *1372:B 41.8321 
6 *230:24 *1313:B1 45.7679 
7 *230:22 *1314:B1 39.5743 
8 *230:6 *1297:A2 23 
*END

*D_NET *231 0.0105362
*CONN
*I *1309:B1 I *D sky130_fd_sc_hd__o211a_1
*I *1299:C1 I *D sky130_fd_sc_hd__o211a_1
*I *1350:A1 I *D sky130_fd_sc_hd__a21o_1
*I *1349:B I *D sky130_fd_sc_hd__and3_1
*I *1351:B I *D sky130_fd_sc_hd__and3_1
*I *1346:A I *D sky130_fd_sc_hd__nand2_1
*I *1298:X O *D sky130_fd_sc_hd__and4_1
*CAP
1 *1309:B1 0.000144391
2 *1299:C1 5.72657e-05
3 *1350:A1 0
4 *1349:B 0.000103459
5 *1351:B 0
6 *1346:A 0
7 *1298:X 0.000418393
8 *231:55 0.000249838
9 *231:45 0.000610144
10 *231:39 0.00105368
11 *231:33 0.00149358
12 *231:29 0.000980693
13 *231:22 0.000279789
14 *231:14 0.000648202
15 *231:10 0.000589986
16 *1299:C1 *343:33 0.00014196
17 *1309:B1 *1309:C1 0.000139352
18 *1309:B1 *292:140 0.000103647
19 *1309:B1 *292:147 0.000114683
20 *1309:B1 *355:20 0.000306832
21 *1349:B *262:66 7.39034e-05
22 *1349:B *272:6 5.3304e-05
23 *1349:B *272:17 2.29192e-05
24 *231:10 *1306:C 0
25 *231:10 *1306:D 0
26 *231:10 *239:8 0
27 *231:14 *1348:B 7.51467e-06
28 *231:14 *1348:C 0.000138465
29 *231:22 *258:41 0
30 *231:22 *292:25 0.000223043
31 *231:22 *355:20 6.48049e-05
32 *231:29 *1348:C 6.17437e-06
33 *231:29 *292:140 6.17437e-06
34 *231:29 *355:20 0.000165808
35 *231:33 *1309:C1 0
36 *231:33 *356:62 0
37 *231:33 *369:25 0.000663994
38 *231:33 *369:31 0.000136486
39 *231:33 *369:61 0
40 *231:39 *1299:B1 0
41 *231:39 *291:25 0.000161121
42 *231:39 *291:60 1.34354e-05
43 *231:39 *317:12 0.000625797
44 *231:39 *369:61 0
45 *231:39 *369:90 0
46 *231:45 *262:66 8.4047e-05
47 *231:45 *272:17 3.63546e-05
48 *231:45 *274:8 0
49 *231:45 *317:12 0.00022789
50 *231:55 *274:8 4.08641e-05
51 *231:55 *346:42 4.334e-05
52 *231:55 *350:12 0.000267167
53 *117:8 *231:10 3.76761e-05
*RES
1 *1298:X *231:10 43.7379 
2 *231:10 *231:14 18.0036 
3 *231:14 *231:22 35.9657 
4 *231:22 *1346:A 23 
5 *231:14 *231:29 3.95643 
6 *231:29 *231:33 29.2307 
7 *231:33 *231:39 28.2986 
8 *231:39 *231:45 19.4329 
9 *231:45 *231:55 49.205 
10 *231:55 *1351:B 23 
11 *231:45 *1349:B 39.8229 
12 *231:39 *1350:A1 23 
13 *231:33 *1299:C1 39.5743 
14 *231:29 *1309:B1 29.3593 
*END

*D_NET *232 0.00123199
*CONN
*I *1303:C I *D sky130_fd_sc_hd__or4_1
*I *1304:A3 I *D sky130_fd_sc_hd__o41ai_1
*I *1299:X O *D sky130_fd_sc_hd__o211a_1
*CAP
1 *1303:C 0.000219262
2 *1304:A3 3.15195e-05
3 *1299:X 0.000152451
4 *232:10 0.000403233
5 *1303:C *1303:D 5.04769e-05
6 *1303:C *237:8 5.50106e-05
7 *1303:C *361:18 4.67877e-05
8 *1304:A3 *237:20 3.70094e-05
9 *1304:A3 *238:12 0
10 *1304:A3 *343:59 1.02387e-05
11 *232:10 *237:20 8.4047e-05
12 *232:10 *238:12 0
13 *232:10 *343:33 0.000141954
*RES
1 *1299:X *232:10 40.7757 
2 *232:10 *1304:A3 38.8493 
3 *232:10 *1303:C 42.1429 
*END

*D_NET *233 0.00222099
*CONN
*I *1302:A I *D sky130_fd_sc_hd__or2_1
*I *1305:B I *D sky130_fd_sc_hd__or3_2
*I *1300:X O *D sky130_fd_sc_hd__or2_1
*CAP
1 *1302:A 0.000133162
2 *1305:B 0
3 *1300:X 0.000124621
4 *233:10 0.000673596
5 *233:8 0.000665055
6 *1302:A *1305:A 8.51329e-05
7 *1302:A *291:60 0.000158229
8 *233:8 *352:34 2.45549e-06
9 *233:10 *1305:A 4.43717e-05
10 *233:10 *234:10 4.18032e-05
11 *233:10 *283:10 0
12 *233:10 *291:60 6.48142e-05
13 *233:10 *291:66 0.000192087
14 *233:10 *291:70 0
15 *233:10 *291:72 0
16 *123:8 *233:10 3.5664e-05
*RES
1 *1300:X *233:8 39.5743 
2 *233:8 *233:10 11.4136 
3 *233:10 *1305:B 38 
4 *233:10 *1302:A 41.5007 
*END

*D_NET *234 0.0026852
*CONN
*I *1302:B I *D sky130_fd_sc_hd__or2_1
*I *1305:C I *D sky130_fd_sc_hd__or3_2
*I *1301:X O *D sky130_fd_sc_hd__or3_1
*CAP
1 *1302:B 0.000215007
2 *1305:C 7.74572e-05
3 *1301:X 0.000586987
4 *234:10 0.000419817
5 *234:8 0.000714339
6 *1302:B *291:60 0.00021382
7 *1302:B *291:66 3.70187e-05
8 *1305:C *1390:CLK 5.3304e-05
9 *234:8 *1354:B 3.22465e-05
10 *234:8 *276:10 1.08287e-05
11 *234:8 *347:12 1.59071e-05
12 *234:8 *347:16 9.69905e-05
13 *234:10 *291:66 0.000169674
14 *233:10 *234:10 4.18032e-05
*RES
1 *1301:X *234:8 48.6264 
2 *234:8 *234:10 3.31429 
3 *234:10 *1305:C 39.0979 
4 *234:10 *1302:B 42.4121 
*END

*D_NET *235 0.00138304
*CONN
*I *1303:D I *D sky130_fd_sc_hd__or4_1
*I *1304:A4 I *D sky130_fd_sc_hd__o41ai_1
*I *1302:X O *D sky130_fd_sc_hd__or2_1
*CAP
1 *1303:D 5.29005e-05
2 *1304:A4 0
3 *1302:X 0.000497524
4 *235:12 5.29005e-05
5 *235:10 0.000497524
6 *1303:D *237:8 2.93845e-05
7 *1303:D *361:18 0.00014196
8 *235:10 *238:12 0
9 *235:10 *317:12 6.03737e-05
10 *1303:C *1303:D 5.04769e-05
*RES
1 *1302:X *235:10 45.7264 
2 *235:10 *235:12 15 
3 *235:12 *1304:A4 23 
4 *235:12 *1303:D 25.0714 
*END

*D_NET *236 0.00315961
*CONN
*I *1371:A2 I *D sky130_fd_sc_hd__o221a_1
*I *1303:X O *D sky130_fd_sc_hd__or4_1
*CAP
1 *1371:A2 0
2 *1303:X 0.000101994
3 *236:12 0.000960687
4 *236:8 0.00106268
5 *236:8 *317:30 0.000226306
6 *236:12 *1441:A 0.000208409
7 *236:12 *244:12 0.000189184
8 *236:12 *244:36 0
9 *236:12 *250:10 0
10 *236:12 *290:12 0.000237031
11 *236:12 *292:170 0.000103966
12 *236:12 *343:8 0
13 *236:12 *343:12 0
14 *126:10 *236:12 6.93553e-05
15 *138:16 *236:12 0
16 *228:10 *236:12 0
*RES
1 *1303:X *236:8 40.5271 
2 *236:8 *236:12 38.0343 
3 *236:12 *1371:A2 23 
*END

*D_NET *237 0.00461664
*CONN
*I *1313:A1 I *D sky130_fd_sc_hd__a31o_1
*I *1304:Y O *D sky130_fd_sc_hd__o41ai_1
*CAP
1 *1313:A1 0
2 *1304:Y 1.80182e-05
3 *237:20 0.00131786
4 *237:8 0.00133588
5 *237:20 *1309:A2 0.000200348
6 *237:20 *1310:C 0.000260673
7 *237:20 *1317:B 0
8 *237:20 *1441:A 0
9 *237:20 *238:12 0
10 *237:20 *242:10 0.000302339
11 *237:20 *245:10 0.000100533
12 *237:20 *260:8 4.08641e-05
13 *237:20 *261:10 0.000430922
14 *237:20 *290:12 0
15 *237:20 *343:59 6.4393e-05
16 *237:20 *350:18 0
17 *237:20 *356:73 0.000169674
18 *237:20 *374:8 0
19 *1303:C *237:8 5.50106e-05
20 *1303:D *237:8 2.93845e-05
21 *1304:A3 *237:20 3.70094e-05
22 *139:24 *237:20 0.000169683
23 *232:10 *237:20 8.4047e-05
*RES
1 *1304:Y *237:8 38.6214 
2 *237:8 *237:20 44.145 
3 *237:20 *1313:A1 23 
*END

*D_NET *238 0.0071071
*CONN
*I *1312:B1 I *D sky130_fd_sc_hd__a2111o_1
*I *1308:A2 I *D sky130_fd_sc_hd__o31ai_1
*I *1310:B I *D sky130_fd_sc_hd__or3_1
*I *1316:C I *D sky130_fd_sc_hd__nor4_1
*I *1305:X O *D sky130_fd_sc_hd__or3_2
*CAP
1 *1312:B1 0.000128451
2 *1308:A2 0.000177687
3 *1310:B 0.000116707
4 *1316:C 7.82982e-05
5 *1305:X 0
6 *238:27 0.000329252
7 *238:16 0.000264567
8 *238:12 0.00169338
9 *238:6 0.00141352
10 *1308:A2 *1308:B1 4.79544e-05
11 *1308:A2 *1313:A2 0.00018282
12 *1308:A2 *1542:A 5.3304e-05
13 *1308:A2 *240:6 7.67422e-05
14 *1308:A2 *240:16 1.56762e-05
15 *1308:A2 *245:10 6.4393e-05
16 *1308:A2 *249:10 0.000126343
17 *1312:B1 *300:10 6.39787e-05
18 *238:12 *1299:A1 0.000515229
19 *238:12 *1299:B1 9.4505e-05
20 *238:12 *1305:A 0.000189184
21 *238:12 *1309:A2 0
22 *238:12 *1309:C1 0.000583759
23 *238:12 *1310:C 0
24 *238:12 *242:10 0
25 *238:12 *260:8 0
26 *238:12 *292:140 0
27 *238:12 *300:10 5.12254e-05
28 *238:12 *346:10 6.4393e-05
29 *238:12 *356:73 0
30 *238:12 *362:10 0
31 *238:12 *369:25 0
32 *238:16 *1310:C 4.40479e-06
33 *238:16 *240:16 1.83564e-05
34 *238:16 *362:10 0
35 *238:16 *362:23 0
36 *238:27 *240:16 1.78655e-05
37 *238:27 *245:10 1.12487e-05
38 *238:27 *249:10 1.01436e-05
39 *1304:A3 *238:12 0
40 *139:26 *1310:B 9.5877e-05
41 *139:36 *1310:B 5.3304e-05
42 *139:36 *1316:C 0.000182826
43 *139:49 *1312:B1 0.00010018
44 *139:49 *238:16 0.000246748
45 *139:49 *238:27 3.47781e-05
46 *232:10 *238:12 0
47 *235:10 *238:12 0
48 *237:20 *238:12 0
*RES
1 *1305:X *238:6 38 
2 *238:6 *238:12 45.8229 
3 *238:12 *238:16 18.6664 
4 *238:16 *1316:C 40.0507 
5 *238:16 *238:27 0.849286 
6 *238:27 *1310:B 39.5743 
7 *238:27 *1308:A2 43.1475 
8 *238:12 *1312:B1 25.5271 
*END

*D_NET *239 0.00194753
*CONN
*I *1347:A2 I *D sky130_fd_sc_hd__a31o_1
*I *1307:C1 I *D sky130_fd_sc_hd__o211a_1
*I *1340:A I *D sky130_fd_sc_hd__and2_1
*I *1306:X O *D sky130_fd_sc_hd__and4_1
*CAP
1 *1347:A2 2.2585e-05
2 *1307:C1 0.000151325
3 *1340:A 0
4 *1306:X 0.000260578
5 *239:18 0.00032213
6 *239:12 0.000239248
7 *239:8 0.000306436
8 *1307:C1 *258:16 7.70598e-05
9 *1347:A2 *300:10 3.22051e-05
10 *239:8 *1298:D 9.74235e-05
11 *239:8 *1306:D 6.07611e-06
12 *239:8 *360:45 2.96154e-05
13 *239:8 *370:20 0
14 *239:12 *1347:A1 2.47127e-05
15 *239:12 *1347:B1 0.000185434
16 *239:12 *300:10 0.000128359
17 *239:18 *258:16 2.76611e-06
18 *239:18 *258:26 6.15779e-05
19 *239:18 *360:45 0
20 *117:8 *239:8 0
21 *231:10 *239:8 0
*RES
1 *1306:X *239:8 43.075 
2 *239:8 *239:12 17.5271 
3 *239:12 *239:18 17.755 
4 *239:18 *1340:A 38 
5 *239:18 *1307:C1 41.3143 
6 *239:12 *1347:A2 23.6214 
*END

*D_NET *240 0.00174389
*CONN
*I *1308:A3 I *D sky130_fd_sc_hd__o31ai_1
*I *1316:D I *D sky130_fd_sc_hd__nor4_1
*I *1307:X O *D sky130_fd_sc_hd__o211a_1
*CAP
1 *1308:A3 0
2 *1316:D 0
3 *1307:X 0.000293036
4 *240:16 0.000229297
5 *240:6 0.000522333
6 *240:6 *1307:A1 2.93747e-05
7 *240:6 *334:6 0.000187069
8 *240:6 *362:34 4.71384e-05
9 *240:16 *1313:A2 9.84794e-05
10 *240:16 *249:10 8.4047e-05
11 *240:16 *362:23 0
12 *1308:A2 *240:6 7.67422e-05
13 *1308:A2 *240:16 1.56762e-05
14 *139:36 *240:6 9.90751e-05
15 *140:26 *240:16 2.54046e-05
16 *238:16 *240:16 1.83564e-05
17 *238:27 *240:16 1.78655e-05
*RES
1 *1307:X *240:6 29.3386 
2 *240:6 *240:16 34.3293 
3 *240:16 *1316:D 23 
4 *240:6 *1308:A3 23 
*END

*D_NET *241 0.000709774
*CONN
*I *1313:A2 I *D sky130_fd_sc_hd__a31o_1
*I *1308:Y O *D sky130_fd_sc_hd__o31ai_1
*CAP
1 *1313:A2 0.000180107
2 *1308:Y 0.000180107
3 *1313:A2 *1542:A 6.82611e-05
4 *1308:A2 *1313:A2 0.00018282
5 *240:16 *1313:A2 9.84794e-05
*RES
1 *1308:Y *1313:A2 49.9771 
*END

*D_NET *242 0.00169344
*CONN
*I *1310:C I *D sky130_fd_sc_hd__or3_1
*I *1312:C1 I *D sky130_fd_sc_hd__a2111o_1
*I *1309:X O *D sky130_fd_sc_hd__o211a_1
*CAP
1 *1310:C 0.000146835
2 *1312:C1 0
3 *1309:X 0.000256077
4 *242:10 0.000402912
5 *1310:C *245:10 0.000141879
6 *242:10 *292:147 0.000141052
7 *139:49 *1310:C 3.72639e-05
8 *237:20 *1310:C 0.000260673
9 *237:20 *242:10 0.000302339
10 *238:12 *1310:C 0
11 *238:12 *242:10 0
12 *238:16 *1310:C 4.40479e-06
*RES
1 *1309:X *242:10 43.5929 
2 *242:10 *1312:C1 38 
3 *242:10 *1310:C 42.4329 
*END

*D_NET *243 0.00157232
*CONN
*I *1314:A3 I *D sky130_fd_sc_hd__a31o_1
*I *1371:B1 I *D sky130_fd_sc_hd__o221a_1
*I *1310:X O *D sky130_fd_sc_hd__or3_1
*CAP
1 *1314:A3 0.000218648
2 *1371:B1 0.000140145
3 *1310:X 0.000266062
4 *243:8 0.000624855
5 *1314:A3 *250:23 0.000184552
6 *1371:B1 *250:10 6.07611e-06
7 *1371:B1 *250:23 0.000125904
8 *1371:B1 *284:8 0
9 *1372:B *1314:A3 0
10 *138:12 *1371:B1 0
11 *138:16 *1371:B1 0
12 *138:57 *1314:A3 6.07611e-06
13 *230:24 *1314:A3 0
*RES
1 *1310:X *243:8 41.9564 
2 *243:8 *1371:B1 41.3143 
3 *243:8 *1314:A3 43.075 
*END

*D_NET *244 0.00192061
*CONN
*I *1369:A2 I *D sky130_fd_sc_hd__a31o_1
*I *1371:B2 I *D sky130_fd_sc_hd__o221a_1
*I *1317:A_N I *D sky130_fd_sc_hd__nand2b_1
*I *1311:Y O *D sky130_fd_sc_hd__nand2_1
*CAP
1 *1369:A2 0
2 *1371:B2 2.50259e-05
3 *1317:A_N 0
4 *1311:Y 0.000134116
5 *244:36 0.000223382
6 *244:19 0.000280247
7 *244:12 0.000155033
8 *244:6 0.000320989
9 *1371:B2 *1312:A2 0
10 *1371:B2 *302:78 9.95543e-06
11 *244:6 *1312:A2 5.67058e-05
12 *244:6 *302:78 6.16164e-05
13 *244:12 *1441:A 0.000166522
14 *244:12 *250:10 0.00010404
15 *244:19 *302:78 1.41077e-05
16 *244:36 *302:78 4.04199e-05
17 *1371:A1 *244:36 5.41288e-05
18 *138:16 *244:36 8.51329e-05
19 *236:12 *244:12 0.000189184
20 *236:12 *244:36 0
*RES
1 *1311:Y *244:6 25.5271 
2 *244:6 *244:12 35.075 
3 *244:12 *1317:A_N 23 
4 *244:6 *244:19 0.668036 
5 *244:19 *1371:B2 23.6887 
6 *244:19 *244:36 34.7384 
7 *244:36 *1369:A2 23 
*END

*D_NET *245 0.00105507
*CONN
*I *1313:A3 I *D sky130_fd_sc_hd__a31o_1
*I *1312:X O *D sky130_fd_sc_hd__a2111o_1
*CAP
1 *1313:A3 0
2 *1312:X 0.000246051
3 *245:10 0.000246051
4 *245:10 *300:10 4.96717e-05
5 *1308:A2 *245:10 6.4393e-05
6 *1310:C *245:10 0.000141879
7 *139:49 *245:10 0.000195238
8 *237:20 *245:10 0.000100533
9 *238:27 *245:10 1.12487e-05
*RES
1 *1312:X *245:10 43.8207 
2 *245:10 *1313:A3 38 
*END

*D_NET *246 0.00285757
*CONN
*I *1370:B I *D sky130_fd_sc_hd__nor2_1
*I *1319:B I *D sky130_fd_sc_hd__xor2_1
*I *1313:X O *D sky130_fd_sc_hd__a31o_1
*CAP
1 *1370:B 0.000204342
2 *1319:B 0
3 *1313:X 0.00043299
4 *246:10 0.000637332
5 *1370:B *1430:CLK 5.50049e-05
6 *1370:B *336:64 5.50049e-05
7 *1370:B *340:25 0.000465951
8 *246:10 *1308:B1 0.000276588
9 *246:10 *340:25 0.000560677
10 *127:8 *1370:B 0.000169683
11 *140:26 *246:10 0
*RES
1 *1313:X *246:10 48.9786 
2 *246:10 *1319:B 38 
3 *246:10 *1370:B 44.7529 
*END

*D_NET *247 0.00183778
*CONN
*I *1373:B I *D sky130_fd_sc_hd__and2_1
*I *1315:B I *D sky130_fd_sc_hd__nand2b_1
*I *1314:X O *D sky130_fd_sc_hd__a31o_1
*CAP
1 *1373:B 0.000283491
2 *1315:B 1.33989e-05
3 *1314:X 0.000348587
4 *247:10 0.000645476
5 *1315:B *251:6 2.57636e-05
6 *1315:B *375:73 1.27898e-05
7 *1373:B *252:8 0
8 *1373:B *338:10 0.000211599
9 *1373:B *338:16 4.6318e-06
10 *1373:B *375:73 0
11 *247:10 *250:23 9.42761e-05
12 *247:10 *338:16 0.00010763
13 *247:10 *338:22 0
14 *1295:C *247:10 7.53384e-06
15 *129:10 *1373:B 3.7122e-06
16 *138:10 *247:10 0
17 *140:38 *247:10 7.88926e-05
*RES
1 *1314:X *247:10 44.2971 
2 *247:10 *1315:B 38.3004 
3 *247:10 *1373:B 44.4007 
*END

*D_NET *248 0.000105752
*CONN
*I *1320:A I *D sky130_fd_sc_hd__and4_1
*I *1315:Y O *D sky130_fd_sc_hd__nand2b_1
*CAP
1 *1320:A 8.37909e-06
2 *1315:Y 8.37909e-06
3 *1320:A *251:6 3.22879e-05
4 *1320:A *375:73 5.67058e-05
*RES
1 *1315:Y *1320:A 46.6214 
*END

*D_NET *249 0.0012565
*CONN
*I *1542:A I *D sky130_fd_sc_hd__clkbuf_1
*I *1316:Y O *D sky130_fd_sc_hd__nor4_1
*CAP
1 *1542:A 0.000161824
2 *1316:Y 0.000147647
3 *249:10 0.000309472
4 *1542:A *1308:B1 0.00014196
5 *1308:A2 *1542:A 5.3304e-05
6 *1308:A2 *249:10 0.000126343
7 *1313:A2 *1542:A 6.82611e-05
8 *1313:B1 *1542:A 9.84851e-05
9 *139:36 *249:10 5.50106e-05
10 *140:26 *249:10 0
11 *238:27 *249:10 1.01436e-05
12 *240:16 *249:10 8.4047e-05
*RES
1 *1316:Y *249:10 40.8793 
2 *249:10 *1542:A 41.9564 
*END

*D_NET *250 0.00278559
*CONN
*I *1320:B I *D sky130_fd_sc_hd__and4_1
*I *1371:C1 I *D sky130_fd_sc_hd__o221a_1
*I *1317:Y O *D sky130_fd_sc_hd__nand2b_1
*CAP
1 *1320:B 0
2 *1371:C1 0
3 *1317:Y 0.000302175
4 *250:23 0.000677938
5 *250:10 0.000980113
6 *250:10 *1317:B 0
7 *250:10 *1441:A 0.000111852
8 *250:10 *292:147 0.00010018
9 *250:10 *374:8 0
10 *250:23 *251:6 9.84794e-05
11 *250:23 *374:8 0
12 *1314:A3 *250:23 0.000184552
13 *1371:B1 *250:10 6.07611e-06
14 *1371:B1 *250:23 0.000125904
15 *138:12 *250:23 0
16 *138:16 *250:10 0
17 *138:57 *250:23 0
18 *139:24 *250:23 0
19 *140:10 *250:23 0
20 *236:12 *250:10 0
21 *244:12 *250:10 0.00010404
22 *247:10 *250:23 9.42761e-05
*RES
1 *1317:Y *250:10 44.1729 
2 *250:10 *1371:C1 38 
3 *250:10 *250:23 29.2721 
4 *250:23 *1320:B 23 
*END

*D_NET *251 0.000755745
*CONN
*I *1320:C I *D sky130_fd_sc_hd__and4_1
*I *1318:Y O *D sky130_fd_sc_hd__nor2_1
*CAP
1 *1320:C 0
2 *1318:Y 0.000244881
3 *251:6 0.000244881
4 *251:6 *375:54 2.93845e-05
5 *251:6 *375:73 8.00676e-05
6 *1315:B *251:6 2.57636e-05
7 *1320:A *251:6 3.22879e-05
8 *250:23 *251:6 9.84794e-05
*RES
1 *1318:Y *251:6 27.9093 
2 *251:6 *1320:C 23 
*END

*D_NET *252 0.000447468
*CONN
*I *1320:D I *D sky130_fd_sc_hd__and4_1
*I *1319:X O *D sky130_fd_sc_hd__xor2_1
*CAP
1 *1320:D 8.12376e-05
2 *1319:X 0.000132756
3 *252:8 0.000213993
4 *1320:D *253:6 1.94812e-05
5 *252:8 *340:25 0
6 *252:8 *375:73 0
7 *1373:B *252:8 0
*RES
1 *1319:X *252:8 40.2579 
2 *252:8 *1320:D 39.5743 
*END

*D_NET *253 0.00415548
*CONN
*I *1447:A I *D sky130_fd_sc_hd__clkbuf_2
*I *1448:A I *D sky130_fd_sc_hd__buf_1
*I *1320:X O *D sky130_fd_sc_hd__and4_1
*CAP
1 *1447:A 0.000462106
2 *1448:A 3.80122e-05
3 *1320:X 0.000942318
4 *253:10 0.000569588
5 *253:6 0.00101179
6 *1447:A *1520:A 0
7 *1447:A *292:105 0.000193096
8 *1447:A *369:10 0.000512719
9 *1447:A *369:25 0
10 *1448:A *355:49 5.3304e-05
11 *253:6 *355:8 4.69112e-05
12 *253:10 *292:105 0.000166513
13 *253:10 *355:49 0.000139647
14 *1320:D *253:6 1.94812e-05
*RES
1 *1320:X *253:6 35.0557 
2 *253:6 *253:10 17.2579 
3 *253:10 *1448:A 38.6214 
4 *253:10 *1447:A 49.1857 
*END

*D_NET *254 0.000408632
*CONN
*I *1324:B I *D sky130_fd_sc_hd__and3_1
*I *1322:Y O *D sky130_fd_sc_hd__nand2_1
*CAP
1 *1324:B 0.000178703
2 *1322:Y 0.000178703
3 *1324:B *370:63 5.12254e-05
*RES
1 *1322:Y *1324:B 48.0507 
*END

*D_NET *255 0.000567488
*CONN
*I *1324:C I *D sky130_fd_sc_hd__and3_1
*I *1323:X O *D sky130_fd_sc_hd__or2_1
*CAP
1 *1324:C 1.66483e-05
2 *1323:X 0.000211878
3 *255:10 0.000228526
4 *1324:C *370:63 9.70259e-06
5 *255:10 *1323:A 5.37348e-06
6 *255:10 *1410:CLK 0
7 *255:10 *334:25 0
8 *255:10 *358:74 9.53602e-05
*RES
1 *1323:X *255:10 41.7079 
2 *255:10 *1324:C 38.2279 
*END

*D_NET *256 0.000985596
*CONN
*I *1327:B I *D sky130_fd_sc_hd__and3_1
*I *1325:Y O *D sky130_fd_sc_hd__nand3_1
*CAP
1 *1327:B 0
2 *1325:Y 0.000295755
3 *256:6 0.000295755
4 *256:6 *345:31 0.000394086
*RES
1 *1325:Y *256:6 27.4329 
2 *256:6 *1327:B 23 
*END

*D_NET *257 0.000274763
*CONN
*I *1327:C I *D sky130_fd_sc_hd__and3_1
*I *1326:X O *D sky130_fd_sc_hd__a21o_1
*CAP
1 *1327:C 7.44159e-05
2 *1326:X 7.44159e-05
3 *1327:C *292:46 0.000125931
*RES
1 *1326:X *1327:C 47.4086 
*END

*D_NET *258 0.00899073
*CONN
*I *1330:A_N I *D sky130_fd_sc_hd__and3b_1
*I *1340:B I *D sky130_fd_sc_hd__and2_1
*I *1332:B I *D sky130_fd_sc_hd__or2_1
*I *1331:B I *D sky130_fd_sc_hd__nand2_1
*I *1335:A2 I *D sky130_fd_sc_hd__a21o_1
*I *1334:C I *D sky130_fd_sc_hd__and3_2
*I *1347:A3 I *D sky130_fd_sc_hd__a31o_1
*I *1328:X O *D sky130_fd_sc_hd__and4_1
*CAP
1 *1330:A_N 0
2 *1340:B 0
3 *1332:B 0.000459482
4 *1331:B 0.000276908
5 *1335:A2 0
6 *1334:C 0.000286683
7 *1347:A3 0
8 *1328:X 0.000263383
9 *258:56 0.000297702
10 *258:47 0.000419261
11 *258:41 0.00120602
12 *258:26 0.000899702
13 *258:16 0.00087519
14 *258:10 0.000873626
15 *1331:B *356:10 0.000223692
16 *1331:B *356:12 0.000399172
17 *1334:C *356:12 2.46906e-05
18 *1334:C *356:18 2.56944e-05
19 *1334:C *357:16 0.000450377
20 *258:10 *353:31 0.000135037
21 *258:10 *354:12 0.000163352
22 *258:10 *355:49 4.67811e-05
23 *258:10 *370:10 0.000154147
24 *258:16 *1307:B1 0
25 *258:16 *1535:A 0
26 *258:16 *266:10 7.53384e-06
27 *258:16 *292:32 0
28 *258:16 *354:12 0.000249918
29 *258:16 *360:45 0
30 *258:16 *362:36 0
31 *258:16 *370:10 3.70187e-05
32 *258:26 *360:45 0
33 *258:41 *271:10 5.5574e-05
34 *258:41 *292:25 0
35 *258:41 *300:10 0.000206249
36 *258:41 *369:25 0.000663453
37 *258:47 *292:25 0
38 *258:47 *369:25 0.000137441
39 *258:56 *1335:A1 1.12349e-05
40 *1307:C1 *258:16 7.70598e-05
41 *231:22 *258:41 0
42 *239:18 *258:16 2.76611e-06
43 *239:18 *258:26 6.15779e-05
*RES
1 *1328:X *258:10 42.785 
2 *258:10 *258:16 27.5114 
3 *258:16 *258:26 34.3293 
4 *258:26 *1347:A3 23 
5 *258:26 *258:41 29.9764 
6 *258:41 *258:47 17.5271 
7 *258:47 *1334:C 29.3386 
8 *258:47 *258:56 0.497143 
9 *258:56 *1335:A2 23 
10 *258:56 *1331:B 29.815 
11 *258:41 *1332:B 44.815 
12 *258:16 *1340:B 23 
13 *258:10 *1330:A_N 38 
*END

*D_NET *259 0.000721187
*CONN
*I *1330:B I *D sky130_fd_sc_hd__and3b_1
*I *1329:X O *D sky130_fd_sc_hd__a31o_1
*CAP
1 *1330:B 0
2 *1329:X 0.000228625
3 *259:10 0.000228625
4 *259:10 *1329:A2 1.34995e-05
5 *259:10 *1329:A3 0.000244926
6 *259:10 *292:38 5.51181e-06
*RES
1 *1329:X *259:10 42.06 
2 *259:10 *1330:B 38 
*END

*D_NET *260 0.000458258
*CONN
*I *1333:B I *D sky130_fd_sc_hd__and3_1
*I *1331:Y O *D sky130_fd_sc_hd__nand2_1
*CAP
1 *1333:B 0.000124154
2 *1331:Y 6.19464e-05
3 *260:8 0.0001861
4 *1439:A *1333:B 8.06804e-06
5 *3:19 *1333:B 3.71251e-05
6 *237:20 *260:8 4.08641e-05
7 *238:12 *260:8 0
*RES
1 *1331:Y *260:8 39.2014 
2 *260:8 *1333:B 39.5743 
*END

*D_NET *261 0.00108486
*CONN
*I *1333:C I *D sky130_fd_sc_hd__and3_1
*I *1332:X O *D sky130_fd_sc_hd__or2_1
*CAP
1 *1333:C 1.5899e-05
2 *1332:X 0.000258731
3 *261:10 0.00027463
4 *261:10 *1441:A 0
5 *261:10 *290:12 0
6 *1439:A *1333:C 1.95448e-05
7 *112:8 *261:10 8.51329e-05
8 *237:20 *261:10 0.000430922
*RES
1 *1332:X *261:10 44.4007 
2 *261:10 *1333:C 38.2279 
*END

*D_NET *262 0.00775289
*CONN
*I *1336:A_N I *D sky130_fd_sc_hd__and3b_1
*I *1341:A2 I *D sky130_fd_sc_hd__a21o_1
*I *1346:B I *D sky130_fd_sc_hd__nand2_1
*I *1350:A2 I *D sky130_fd_sc_hd__a21o_1
*I *1349:C I *D sky130_fd_sc_hd__and3_1
*I *1351:C I *D sky130_fd_sc_hd__and3_1
*I *1338:B I *D sky130_fd_sc_hd__or2_1
*I *1337:B I *D sky130_fd_sc_hd__nand2_1
*I *1334:X O *D sky130_fd_sc_hd__and3_2
*CAP
1 *1336:A_N 0
2 *1341:A2 0.000210969
3 *1346:B 0.000477079
4 *1350:A2 0
5 *1349:C 0
6 *1351:C 0
7 *1338:B 0
8 *1337:B 1.50079e-05
9 *1334:X 0.000162083
10 *262:73 0.000942083
11 *262:66 0.000256564
12 *262:51 0.00028657
13 *262:44 0.000258957
14 *262:29 0.000477282
15 *262:23 0.000502366
16 *262:14 0.000298659
17 *262:12 0.000283651
18 *262:10 0.000162083
19 *1337:B *358:29 5.50049e-05
20 *1341:A2 *1342:C 0
21 *1341:A2 *1416:CLK 0
22 *1341:A2 *267:10 0
23 *1346:B *359:10 4.06849e-05
24 *262:10 *356:18 5.56336e-05
25 *262:10 *357:26 5.36457e-05
26 *262:14 *358:29 9.67842e-05
27 *262:29 *1338:A 0.000179113
28 *262:29 *1436:A 0
29 *262:29 *265:8 6.32794e-05
30 *262:29 *357:26 2.93845e-05
31 *262:29 *358:29 8.32902e-05
32 *262:29 *372:10 6.68793e-05
33 *262:44 *1338:A 4.17736e-05
34 *262:44 *1349:A 7.01322e-05
35 *262:44 *1415:CLK 4.48628e-05
36 *262:44 *343:33 0.000190686
37 *262:44 *346:42 1.14452e-05
38 *262:44 *357:26 0.000144231
39 *262:44 *361:12 7.18274e-05
40 *262:51 *1349:A 0.000206674
41 *262:51 *361:12 0.000193443
42 *262:66 *1349:A 1.95448e-05
43 *262:66 *274:8 4.80535e-05
44 *262:66 *317:12 0.000226024
45 *262:66 *346:27 0.000224323
46 *262:66 *346:42 0
47 *262:66 *361:12 7.1072e-06
48 *262:73 *1342:C 0
49 *262:73 *267:10 0
50 *262:73 *358:29 1.58805e-05
51 *262:73 *372:10 0.000183097
52 *1349:B *262:66 7.39034e-05
53 *3:19 *1337:B 5.50049e-05
54 *3:19 *262:14 0.000777059
55 *115:8 *262:73 6.7177e-06
56 *231:45 *262:66 8.4047e-05
*RES
1 *1334:X *262:10 40.8793 
2 *262:10 *262:12 15 
3 *262:12 *262:14 8.72071 
4 *262:14 *1337:B 23.6214 
5 *262:14 *262:23 15 
6 *262:23 *262:29 21.4007 
7 *262:29 *1338:B 23 
8 *262:29 *262:44 36.0486 
9 *262:44 *1351:C 23 
10 *262:44 *262:51 2.27857 
11 *262:51 *1349:C 23 
12 *262:51 *262:66 36.4214 
13 *262:66 *1350:A2 23 
14 *262:23 *262:73 5.77929 
15 *262:73 *1346:B 46.2443 
16 *262:73 *1341:A2 42.0807 
17 *262:12 *1336:A_N 23 
*END

*D_NET *263 0.000496778
*CONN
*I *1336:B I *D sky130_fd_sc_hd__and3b_1
*I *1335:X O *D sky130_fd_sc_hd__a21o_1
*CAP
1 *1336:B 0.000113836
2 *1335:X 4.50246e-05
3 *263:8 0.000158861
4 *1336:B *292:25 2.93845e-05
5 *263:8 *292:25 8.62876e-05
6 *263:8 *357:12 4.08641e-05
7 *3:19 *1336:B 2.25203e-05
*RES
1 *1335:X *263:8 39.2014 
2 *263:8 *1336:B 39.5743 
*END

*D_NET *264 0.0009022
*CONN
*I *1339:B I *D sky130_fd_sc_hd__and3_1
*I *1337:Y O *D sky130_fd_sc_hd__nand2_1
*CAP
1 *1339:B 0
2 *1337:Y 0.000246211
3 *264:10 0.000246211
4 *264:10 *265:8 0
5 *264:10 *363:10 0.000224345
6 *264:10 *372:10 0
7 *3:19 *264:10 0.000185434
*RES
1 *1337:Y *264:10 43.0129 
2 *264:10 *1339:B 38 
*END

*D_NET *265 0.000839759
*CONN
*I *1339:C I *D sky130_fd_sc_hd__and3_1
*I *1338:X O *D sky130_fd_sc_hd__or2_1
*CAP
1 *1339:C 0.0001215
2 *1338:X 0.000182633
3 *265:8 0.000304133
4 *1339:C *1339:A 0.000158071
5 *265:8 *363:10 0
6 *265:8 *372:10 1.01436e-05
7 *262:29 *265:8 6.32794e-05
8 *264:10 *265:8 0
*RES
1 *1338:X *265:8 40.9621 
2 *265:8 *1339:C 39.9161 
*END

*D_NET *266 0.00469745
*CONN
*I *1344:B I *D sky130_fd_sc_hd__or2_1
*I *1343:B I *D sky130_fd_sc_hd__nand2_1
*I *1342:A_N I *D sky130_fd_sc_hd__and3b_1
*I *1340:X O *D sky130_fd_sc_hd__and2_1
*CAP
1 *1344:B 0
2 *1343:B 0.00021029
3 *1342:A_N 0
4 *1340:X 0.000904139
5 *266:16 0.000480215
6 *266:12 0.000690504
7 *266:10 0.000904139
8 *1343:B *358:74 0.000278634
9 *266:10 *1344:A 2.32004e-05
10 *266:10 *1417:CLK 9.67842e-05
11 *266:10 *360:8 6.49662e-05
12 *266:16 *358:39 0.000362629
13 *266:16 *358:74 0.000530397
14 group_timeout_count[4] *266:16 0.00012758
15 group_timeout_count[7] *266:16 0
16 *1417:D *266:10 1.64354e-05
17 *67:17 *266:16 0
18 *258:16 *266:10 7.53384e-06
*RES
1 *1340:X *266:10 35.2214 
2 *266:10 *266:12 15 
3 *266:12 *266:16 28.5264 
4 *266:16 *1342:A_N 23 
5 *266:12 *1343:B 42.7643 
6 *266:10 *1344:B 23 
*END

*D_NET *267 0.000914505
*CONN
*I *1342:B I *D sky130_fd_sc_hd__and3b_1
*I *1341:X O *D sky130_fd_sc_hd__a21o_1
*CAP
1 *1342:B 0
2 *1341:X 0.000246048
3 *267:10 0.000246048
4 *267:10 *1416:CLK 0.000141869
5 *267:10 *1530:A 2.64616e-05
6 *267:10 *358:39 0.000151806
7 *267:10 *372:10 4.76829e-05
8 *1341:A2 *267:10 0
9 *115:8 *267:10 5.45887e-05
10 *262:73 *267:10 0
*RES
1 *1341:X *267:10 44.4007 
2 *267:10 *1342:B 38 
*END

*D_NET *268 0.00122915
*CONN
*I *1345:B I *D sky130_fd_sc_hd__and3_1
*I *1343:Y O *D sky130_fd_sc_hd__nand2_1
*CAP
1 *1345:B 0
2 *1343:Y 0.000394704
3 *268:10 0.000394704
4 *268:10 *1344:A 6.25829e-05
5 *268:10 *1416:CLK 4.24364e-05
6 *268:10 *1434:A 0
7 *268:10 *1533:A 9.10621e-05
8 *268:10 *269:8 8.62876e-05
9 *268:10 *292:60 1.12487e-05
10 *268:10 *360:23 8.4047e-05
11 *1471:A *268:10 3.2442e-05
12 *116:10 *268:10 2.96369e-05
*RES
1 *1343:Y *268:10 44.8771 
2 *268:10 *1345:B 38 
*END

*D_NET *269 0.00041822
*CONN
*I *1345:C I *D sky130_fd_sc_hd__and3_1
*I *1344:X O *D sky130_fd_sc_hd__or2_1
*CAP
1 *1345:C 5.24473e-05
2 *1344:X 3.82035e-05
3 *269:8 9.06508e-05
4 *1345:C *1345:A 6.21121e-05
5 *269:8 *1416:CLK 8.85189e-05
6 *268:10 *269:8 8.62876e-05
*RES
1 *1344:X *269:8 39.2014 
2 *269:8 *1345:C 38.7043 
*END

*D_NET *270 0.000276334
*CONN
*I *1348:B I *D sky130_fd_sc_hd__and3_1
*I *1346:Y O *D sky130_fd_sc_hd__nand2_1
*CAP
1 *1348:B 5.57133e-05
2 *1346:Y 6.47461e-05
3 *270:8 0.000120459
4 *270:8 *1306:C 2.79004e-05
5 *231:14 *1348:B 7.51467e-06
*RES
1 *1346:Y *270:8 39.2014 
2 *270:8 *1348:B 38.6214 
*END

*D_NET *271 0.00166194
*CONN
*I *1348:C I *D sky130_fd_sc_hd__and3_1
*I *1347:X O *D sky130_fd_sc_hd__a31o_1
*CAP
1 *1348:C 0.000157382
2 *1347:X 0.000245242
3 *271:10 0.000402624
4 *271:10 *292:25 0.000247687
5 *271:10 *292:32 8.4047e-05
6 *271:10 *355:20 0.000324742
7 *231:14 *1348:C 0.000138465
8 *231:29 *1348:C 6.17437e-06
9 *258:41 *271:10 5.5574e-05
*RES
1 *1347:X *271:10 43.945 
2 *271:10 *1348:C 40.8379 
*END

*D_NET *272 0.00347878
*CONN
*I *1353:B I *D sky130_fd_sc_hd__nand2_1
*I *1356:A2 I *D sky130_fd_sc_hd__a21o_1
*I *1354:B I *D sky130_fd_sc_hd__or2_1
*I *1352:A_N I *D sky130_fd_sc_hd__and3b_1
*I *1349:X O *D sky130_fd_sc_hd__and3_1
*CAP
1 *1353:B 3.30031e-05
2 *1356:A2 0.000192335
3 *1354:B 0.000109636
4 *1352:A_N 0
5 *1349:X 0.000100875
6 *272:19 0.000468701
7 *272:17 0.000515616
8 *272:6 0.000416758
9 *1353:B *369:90 2.93431e-05
10 *1354:B *276:10 8.85189e-05
11 *1354:B *347:12 0
12 *1354:B *347:16 5.56356e-05
13 *1354:B *347:71 0
14 *1354:B *369:92 3.70094e-05
15 *1354:B *369:96 0.000168754
16 *1356:A2 *1356:A1 2.18409e-05
17 *1356:A2 *1357:A 5.67058e-05
18 *1356:A2 *1357:C 1.95448e-05
19 *1356:A2 *1358:B 0.00039759
20 *272:6 *291:29 0.000228001
21 *272:17 *273:10 8.85189e-05
22 *272:17 *274:8 0
23 *272:17 *291:29 5.50049e-05
24 *272:17 *369:90 0
25 *272:19 *274:8 0
26 *272:19 *275:10 8.62783e-05
27 *272:19 *347:71 0
28 *272:19 *369:90 0.000139647
29 *272:19 *369:92 2.46345e-05
30 *1349:B *272:6 5.3304e-05
31 *1349:B *272:17 2.29192e-05
32 *231:45 *272:17 3.63546e-05
33 *234:8 *1354:B 3.22465e-05
*RES
1 *1349:X *272:6 25.5271 
2 *272:6 *1352:A_N 23 
3 *272:6 *272:17 20.6964 
4 *272:17 *272:19 3.31429 
5 *272:19 *1354:B 41.2314 
6 *272:19 *1356:A2 42.9093 
7 *272:17 *1353:B 38.6214 
*END

*D_NET *273 0.000974408
*CONN
*I *1352:B I *D sky130_fd_sc_hd__and3b_1
*I *1350:X O *D sky130_fd_sc_hd__a21o_1
*CAP
1 *1352:B 8.41652e-05
2 *1350:X 0.000214458
3 *273:10 0.000298623
4 *1352:B *291:29 5.29555e-05
5 *273:10 *350:12 0.000235687
6 *272:17 *273:10 8.85189e-05
*RES
1 *1350:X *273:10 41.7286 
2 *273:10 *1352:B 39.0979 
*END

*D_NET *274 0.00113595
*CONN
*I *1357:C I *D sky130_fd_sc_hd__and3_1
*I *1351:X O *D sky130_fd_sc_hd__and3_1
*CAP
1 *1357:C 1.20212e-05
2 *1351:X 0.000446266
3 *274:8 0.000458287
4 *274:8 *1357:B 0.000110913
5 *274:8 *346:33 0
6 *274:8 *346:42 0
7 *274:8 *369:90 0
8 *1356:A2 *1357:C 1.95448e-05
9 *231:45 *274:8 0
10 *231:55 *274:8 4.08641e-05
11 *262:66 *274:8 4.80535e-05
12 *272:17 *274:8 0
13 *272:19 *274:8 0
*RES
1 *1351:X *274:8 46.2443 
2 *274:8 *1357:C 38.2279 
*END

*D_NET *275 0.000348789
*CONN
*I *1355:B I *D sky130_fd_sc_hd__and3_1
*I *1353:Y O *D sky130_fd_sc_hd__nand2_1
*CAP
1 *1355:B 0
2 *1353:Y 0.000103439
3 *275:10 0.000103439
4 *275:10 *369:90 5.56336e-05
5 *272:19 *275:10 8.62783e-05
*RES
1 *1353:Y *275:10 39.8229 
2 *275:10 *1355:B 38 
*END

*D_NET *276 0.000700095
*CONN
*I *1355:C I *D sky130_fd_sc_hd__and3_1
*I *1354:X O *D sky130_fd_sc_hd__or2_1
*CAP
1 *1355:C 2.30037e-05
2 *1354:X 0.000189066
3 *276:10 0.00021207
4 *276:10 *347:12 7.42182e-05
5 *276:10 *347:16 0.000102389
6 *1354:B *276:10 8.85189e-05
7 *234:8 *276:10 1.08287e-05
*RES
1 *1354:X *276:10 41.2521 
2 *276:10 *1355:C 38.2279 
*END

*D_NET *277 0.00053615
*CONN
*I *1358:C I *D sky130_fd_sc_hd__and3b_1
*I *1356:X O *D sky130_fd_sc_hd__a21o_1
*CAP
1 *1358:C 0.000154075
2 *1356:X 0.000154075
3 *1358:C *348:16 0.000228001
*RES
1 *1356:X *1358:C 48.5271 
*END

*D_NET *278 0.00563159
*CONN
*I *1358:A_N I *D sky130_fd_sc_hd__and3b_1
*I *1363:C I *D sky130_fd_sc_hd__and3_1
*I *1359:B I *D sky130_fd_sc_hd__or2_1
*I *1360:B I *D sky130_fd_sc_hd__and2_1
*I *1357:X O *D sky130_fd_sc_hd__and3_1
*CAP
1 *1358:A_N 8.71694e-05
2 *1363:C 0.000392068
3 *1359:B 0
4 *1360:B 0
5 *1357:X 0.000322984
6 *278:24 0.000296141
7 *278:14 0.00127006
8 *278:10 0.000992009
9 *1358:A_N *1358:B 5.50049e-05
10 *1358:A_N *348:16 0.0002263
11 *1363:C *1362:B 0.00014196
12 *1363:C *1363:B 2.65879e-05
13 *1363:C *1364:A_N 5.70419e-05
14 *1363:C *1364:C 0.000185428
15 *1363:C *1365:B 4.0898e-05
16 *1363:C *369:106 1.5769e-05
17 *1363:C *369:116 0.000134652
18 *278:10 *1357:B 5.3304e-05
19 *278:10 *1358:B 0.000612366
20 *278:10 *343:39 1.94522e-05
21 *278:14 *343:39 0.00014198
22 *278:14 *348:24 0
23 *278:14 *349:27 0.000157174
24 *278:24 *1360:A 5.3304e-05
25 *278:24 *1362:B 4.19743e-05
26 *278:24 *349:27 0
27 *278:24 *349:31 0.000172996
28 *278:24 *349:46 3.47781e-05
29 *3:9 *278:24 0
30 *120:10 *278:10 0.00010018
*RES
1 *1357:X *278:10 45.6643 
2 *278:10 *278:14 26.7657 
3 *278:14 *278:24 34.8264 
4 *278:24 *1360:B 23 
5 *278:14 *1359:B 23 
6 *278:14 *1363:C 33.3157 
7 *278:10 *1358:A_N 40.5271 
*END

*D_NET *279 0.000457883
*CONN
*I *1361:C I *D sky130_fd_sc_hd__and3b_1
*I *1359:X O *D sky130_fd_sc_hd__or2_1
*CAP
1 *1361:C 3.86937e-05
2 *1359:X 0.000112379
3 *279:8 0.000151073
4 *1361:C *369:116 1.39317e-05
5 *279:8 *280:12 0
6 *279:8 *349:27 5.55278e-05
7 *279:8 *369:116 8.62783e-05
8 *3:9 *279:8 0
*RES
1 *1359:X *279:8 40.61 
2 *279:8 *1361:C 38.6214 
*END

*D_NET *280 0.00128462
*CONN
*I *1362:B I *D sky130_fd_sc_hd__or2_1
*I *1361:A_N I *D sky130_fd_sc_hd__and3b_1
*I *1360:X O *D sky130_fd_sc_hd__and2_1
*CAP
1 *1362:B 0.00015732
2 *1361:A_N 0
3 *1360:X 0
4 *280:12 0.000234818
5 *280:4 0.000392138
6 *1362:B *1360:A 4.00259e-06
7 *1362:B *349:31 0.000141954
8 *1362:B *369:116 0.000100415
9 *280:12 *1360:A 2.19998e-05
10 *280:12 *349:31 9.8971e-06
11 *1363:C *1362:B 0.00014196
12 *3:9 *280:12 3.81391e-05
13 *278:24 *1362:B 4.19743e-05
14 *279:8 *280:12 0
*RES
1 *1360:X *280:4 23 
2 *280:4 *280:12 33.6043 
3 *280:12 *1361:A_N 23 
4 *280:4 *1362:B 28.1579 
*END

*D_NET *281 0.000376206
*CONN
*I *1364:C I *D sky130_fd_sc_hd__and3b_1
*I *1362:X O *D sky130_fd_sc_hd__or2_1
*CAP
1 *1364:C 9.53889e-05
2 *1362:X 9.53889e-05
3 *1363:C *1364:C 0.000185428
*RES
1 *1362:X *1364:C 48.0507 
*END

*D_NET *282 0.00063332
*CONN
*I *1365:B I *D sky130_fd_sc_hd__xor2_1
*I *1364:A_N I *D sky130_fd_sc_hd__and3b_1
*I *1363:X O *D sky130_fd_sc_hd__and3_1
*CAP
1 *1365:B 0.000130115
2 *1364:A_N 1.76887e-05
3 *1363:X 2.34823e-05
4 *282:6 0.000171286
5 *1364:A_N *1363:B 5.70419e-05
6 *1365:B *1363:B 5.70419e-05
7 *1365:B *351:16 7.87243e-05
8 *1363:C *1364:A_N 5.70419e-05
9 *1363:C *1365:B 4.0898e-05
*RES
1 *1363:X *282:6 23.4971 
2 *282:6 *1364:A_N 24.0979 
3 *282:6 *1365:B 26.48 
*END

*D_NET *283 0.000950715
*CONN
*I *1366:B I *D sky130_fd_sc_hd__and2_1
*I *1365:X O *D sky130_fd_sc_hd__xor2_1
*CAP
1 *1366:B 0
2 *1365:X 0.000403549
3 *283:10 0.000403549
4 *283:10 *352:21 8.5521e-05
5 *123:8 *283:10 5.80963e-05
6 *233:10 *283:10 0
*RES
1 *1365:X *283:10 45.25 
2 *283:10 *1366:B 38 
*END

*D_NET *284 0.00040814
*CONN
*I *1372:C I *D sky130_fd_sc_hd__nor3_1
*I *1371:X O *D sky130_fd_sc_hd__o221a_1
*CAP
1 *1372:C 5.74179e-05
2 *1371:X 8.27641e-05
3 *284:8 0.000140182
4 *1371:B1 *284:8 0
5 *1372:B *1372:C 5.12254e-05
6 *128:10 *1372:C 6.17437e-06
7 *138:12 *284:8 7.03766e-05
*RES
1 *1371:X *284:8 39.9057 
2 *284:8 *1372:C 39.0979 
*END

*D_NET *285 0.00095064
*CONN
*I *1377:A1 I *D sky130_fd_sc_hd__o211a_1
*I *1374:Y O *D sky130_fd_sc_hd__o21bai_1
*CAP
1 *1377:A1 0.000112755
2 *1374:Y 7.94834e-05
3 *285:8 0.000192238
4 *1377:A1 *1377:A2 0.0002263
5 *285:8 *302:22 0.000162813
6 *285:8 *305:37 7.17991e-05
7 *1375:A1 *285:8 1.01436e-05
8 *162:29 *1377:A1 1.94693e-05
9 *162:36 *1377:A1 7.56391e-05
*RES
1 *1374:Y *285:8 40.2579 
2 *285:8 *1377:A1 41.0036 
*END

*D_NET *286 0.000654906
*CONN
*I *1377:A2 I *D sky130_fd_sc_hd__o211a_1
*I *1375:X O *D sky130_fd_sc_hd__o31a_1
*CAP
1 *1377:A2 0.000117487
2 *1375:X 0.000117487
3 *1377:A2 *288:8 0.000183733
4 *1377:A1 *1377:A2 0.0002263
5 *162:29 *1377:A2 9.8971e-06
*RES
1 *1375:X *1377:A2 49.5007 
*END

*D_NET *287 0.00156692
*CONN
*I *1377:B1 I *D sky130_fd_sc_hd__o211a_1
*I *1376:X O *D sky130_fd_sc_hd__or3_1
*CAP
1 *1377:B1 0
2 *1376:X 0.000408362
3 *287:10 0.000408362
4 *287:10 *290:44 1.94685e-05
5 *1376:A *287:10 2.30292e-05
6 *1377:C1 *287:10 8.16253e-05
7 *135:135 *287:10 6.08751e-05
8 *154:8 *287:10 0.000274553
9 *162:21 *287:10 4.77891e-05
10 *181:14 *287:10 0.000138718
11 *184:8 *287:10 0.000104133
*RES
1 *1376:X *287:10 46.5136 
2 *287:10 *1377:B1 38 
*END

*D_NET *288 0.00360164
*CONN
*I *1378:A3 I *D sky130_fd_sc_hd__o31ai_1
*I *1377:X O *D sky130_fd_sc_hd__o211a_1
*CAP
1 *1378:A3 0
2 *1377:X 0.000288455
3 *288:12 0.000922498
4 *288:8 0.00121095
5 *288:12 *302:74 0
6 *288:12 *375:89 0.000185755
7 *1194:B *288:12 6.82208e-05
8 *1194:C_N *288:12 2.96051e-05
9 *1377:A2 *288:8 0.000183733
10 *135:101 *288:12 0.000135703
11 *152:23 *288:12 0.000485689
12 *153:10 *288:12 0
13 *153:23 *288:12 7.56417e-05
14 *154:8 *288:12 0
15 *162:29 *288:8 1.53864e-05
*RES
1 *1377:X *288:8 41.9564 
2 *288:8 *288:12 35.9214 
3 *288:12 *1378:A3 23 
*END

*D_NET *289 0.00038668
*CONN
*I *1380:A2 I *D sky130_fd_sc_hd__a21oi_1
*I *1379:X O *D sky130_fd_sc_hd__or4_1
*CAP
1 *1380:A2 0.000138622
2 *1379:X 0.000138622
3 *1380:A2 *1286:B1 0
4 *1380:A2 *297:49 1.32314e-05
5 *1380:A2 *311:46 6.74482e-05
6 *1380:A2 *314:33 4.00259e-06
7 *145:27 *1380:A2 2.4754e-05
*RES
1 *1379:X *1380:A2 49.0657 
*END

*D_NET *290 0.0108001
*CONN
*I *1443:A I *D sky130_fd_sc_hd__clkbuf_16
*I *1442:A I *D sky130_fd_sc_hd__clkbuf_16
*I *1441:A I *D sky130_fd_sc_hd__clkbuf_16
*I *1440:A I *D sky130_fd_sc_hd__clkbuf_16
*I *1439:X O *D sky130_fd_sc_hd__clkbuf_16
*CAP
1 *1443:A 0
2 *1442:A 0
3 *1441:A 0.000463516
4 *1440:A 0
5 *1439:X 0
6 *290:57 0.000564911
7 *290:44 0.000650304
8 *290:30 0.00141456
9 *290:12 0.000567561
10 *290:8 0.00181185
11 *290:4 0.000980117
12 *1441:A *1317:B 0
13 *1441:A *1369:A3 5.3304e-05
14 *290:12 *317:12 0
15 *290:12 *350:18 0.000189173
16 *290:44 *293:33 0.000110913
17 *290:44 *313:35 0.000135547
18 *290:57 *1402:CLK 0.000155729
19 *290:57 *294:35 4.59027e-05
20 *290:57 *302:16 5.50106e-05
21 *290:57 *309:10 3.56537e-05
22 *290:57 *375:28 0.000484551
23 *1228:A1 *290:44 0.000178517
24 *1228:A3 *290:44 9.67842e-05
25 *1229:B *290:44 0.000411709
26 *1439:A *290:8 0.000149907
27 *83:12 *290:44 2.93747e-05
28 *83:12 *290:57 0.00062735
29 *112:8 *1441:A 0
30 *135:101 *290:44 2.98508e-05
31 *135:103 *290:44 6.21519e-05
32 *135:135 *290:44 2.89564e-05
33 *138:29 *290:8 0.000265088
34 *171:24 *290:44 7.81176e-05
35 *181:14 *290:44 0.000125506
36 *184:8 *290:44 0.000140103
37 *185:8 *290:44 0.000114846
38 *236:12 *1441:A 0.000208409
39 *236:12 *290:12 0.000237031
40 *237:20 *1441:A 0
41 *237:20 *290:12 0
42 *244:12 *1441:A 0.000166522
43 *250:10 *1441:A 0.000111852
44 *261:10 *1441:A 0
45 *261:10 *290:12 0
46 *287:10 *290:44 1.94685e-05
*RES
1 *1439:X *290:4 23 
2 *290:4 *290:8 29.4379 
3 *290:8 *290:12 27.1179 
4 *290:12 *1440:A 23 
5 *290:8 *1441:A 48.9786 
6 *290:4 *290:30 3.48 
7 *290:30 *290:44 46.3229 
8 *290:44 *1442:A 23 
9 *290:30 *290:57 45.7429 
10 *290:57 *1443:A 23 
*END

*D_NET *291 0.0210869
*CONN
*I *1390:CLK I *D sky130_fd_sc_hd__dfxtp_1
*I *1420:CLK I *D sky130_fd_sc_hd__dfxtp_1
*I *1389:CLK I *D sky130_fd_sc_hd__dfxtp_1
*I *1424:CLK I *D sky130_fd_sc_hd__dfxtp_1
*I *1422:CLK I *D sky130_fd_sc_hd__dfxtp_1
*I *1388:CLK I *D sky130_fd_sc_hd__dfxtp_1
*I *1391:CLK I *D sky130_fd_sc_hd__dfxtp_1
*I *1385:CLK I *D sky130_fd_sc_hd__dfxtp_1
*I *1423:CLK I *D sky130_fd_sc_hd__dfxtp_1
*I *1386:CLK I *D sky130_fd_sc_hd__dfxtp_1
*I *1419:CLK I *D sky130_fd_sc_hd__dfxtp_1
*I *1415:CLK I *D sky130_fd_sc_hd__dfxtp_1
*I *1421:CLK I *D sky130_fd_sc_hd__dfxtp_1
*I *1444:A I *D sky130_fd_sc_hd__clkbuf_4
*I *1440:X O *D sky130_fd_sc_hd__clkbuf_16
*CAP
1 *1390:CLK 0.000921428
2 *1420:CLK 0
3 *1389:CLK 0.000294175
4 *1424:CLK 0
5 *1422:CLK 0
6 *1388:CLK 0.000364157
7 *1391:CLK 0.00074479
8 *1385:CLK 0
9 *1423:CLK 0.000494906
10 *1386:CLK 0.000361793
11 *1419:CLK 0
12 *1415:CLK 0.000615399
13 *1421:CLK 0.00023201
14 *1444:A 1.91252e-05
15 *1440:X 1.74373e-05
16 *291:158 0.000921428
17 *291:135 0.00163713
18 *291:89 0.000663579
19 *291:87 0.000913463
20 *291:76 0.000683307
21 *291:74 0.000807178
22 *291:72 0.00181312
23 *291:70 0.000372437
24 *291:66 0.000852172
25 *291:60 0.000417994
26 *291:29 0.00114927
27 *291:25 0.000834474
28 *291:8 0.000575244
29 *291:6 0.000218904
30 *1386:CLK *352:34 0
31 *1386:CLK *371:63 0
32 *1386:CLK *373:79 0
33 *1386:CLK *373:92 0.000456486
34 *1388:CLK *1255:B1 5.50049e-05
35 *1389:CLK *1256:A 3.72114e-05
36 *1391:CLK *1253:A 0.000141954
37 *1391:CLK *1462:A 0.000307132
38 *1391:CLK *325:12 0.000227208
39 *1415:CLK *1338:A 9.04083e-05
40 *1415:CLK *1339:A 3.16936e-05
41 *1415:CLK *1436:A 0
42 *1415:CLK *343:39 0
43 *1415:CLK *346:42 2.96154e-05
44 *1415:CLK *358:10 3.3577e-05
45 *1421:CLK *343:39 0
46 *1421:CLK *346:33 0.000113624
47 *1421:CLK *346:42 9.03157e-05
48 *1423:CLK *351:10 2.07484e-05
49 *1444:A *317:12 5.50106e-05
50 *1444:A *346:23 5.3304e-05
51 *291:6 *317:12 8.60475e-05
52 *291:6 *346:23 9.84851e-05
53 *291:8 *317:12 8.52481e-05
54 *291:8 *346:23 9.67842e-05
55 *291:25 *346:10 0
56 *291:25 *361:12 0.000168656
57 *291:29 *361:12 0.000837763
58 *291:60 *1305:A 5.76076e-05
59 *291:76 *352:34 0
60 *291:76 *373:79 0
61 *291:135 *349:27 6.43235e-05
62 *1256:B *1389:CLK 5.41288e-05
63 *1256:B *291:70 0
64 *1302:A *291:60 0.000158229
65 *1302:B *291:60 0.00021382
66 *1302:B *291:66 3.70187e-05
67 *1305:C *1390:CLK 5.3304e-05
68 *1352:B *291:29 5.29555e-05
69 *1385:D *291:89 1.64354e-05
70 *1388:D *1388:CLK 6.37845e-05
71 *1415:D *1415:CLK 8.81944e-05
72 *1422:D *291:135 3.08369e-05
73 *1423:D *1423:CLK 0.000129308
74 *1424:D *291:135 5.33077e-05
75 *84:8 *1386:CLK 4.06512e-05
76 *120:10 *1421:CLK 2.76611e-06
77 *196:18 *291:70 0
78 *196:18 *291:72 0
79 *196:18 *291:74 0
80 *196:18 *291:76 0
81 *231:39 *291:25 0.000161121
82 *231:39 *291:60 1.34354e-05
83 *233:10 *291:60 6.48142e-05
84 *233:10 *291:66 0.000192087
85 *233:10 *291:70 0
86 *233:10 *291:72 0
87 *234:10 *291:66 0.000169674
88 *262:44 *1415:CLK 4.48628e-05
89 *272:6 *291:29 0.000228001
90 *272:17 *291:29 5.50049e-05
*RES
1 *1440:X *291:6 24.0979 
2 *291:6 *291:8 1.09786 
3 *291:8 *1444:A 23.6214 
4 *291:8 *291:25 38.4929 
5 *291:25 *291:29 24.1971 
6 *291:29 *1421:CLK 43.4271 
7 *291:29 *1415:CLK 47.8807 
8 *291:25 *1419:CLK 23 
9 *291:6 *291:60 20.4271 
10 *291:60 *291:66 20.1371 
11 *291:66 *291:70 21.1314 
12 *291:70 *291:72 1.20143 
13 *291:72 *291:74 1.90571 
14 *291:74 *291:76 6.13143 
15 *291:76 *1386:CLK 46.2443 
16 *291:76 *291:87 15 
17 *291:87 *291:89 3.00357 
18 *291:89 *1423:CLK 32.6736 
19 *291:89 *1385:CLK 23 
20 *291:87 *1391:CLK 38.08 
21 *291:74 *1388:CLK 44.3386 
22 *291:72 *291:135 38.7179 
23 *291:135 *1422:CLK 23 
24 *291:70 *1424:CLK 38 
25 *291:66 *1389:CLK 28.4064 
26 *291:60 *291:158 15 
27 *291:158 *1420:CLK 23 
28 *291:158 *1390:CLK 39.82 
*END

*D_NET *292 0.0231137
*CONN
*I *1429:CLK I *D sky130_fd_sc_hd__dfxtp_1
*I *1413:CLK I *D sky130_fd_sc_hd__dfxtp_1
*I *1427:CLK I *D sky130_fd_sc_hd__dfxtp_1
*I *1445:A I *D sky130_fd_sc_hd__clkbuf_4
*I *1428:CLK I *D sky130_fd_sc_hd__dfxtp_1
*I *1430:CLK I *D sky130_fd_sc_hd__dfxtp_1
*I *1409:CLK I *D sky130_fd_sc_hd__dfxtp_1
*I *1412:CLK I *D sky130_fd_sc_hd__dfxtp_1
*I *1410:CLK I *D sky130_fd_sc_hd__dfxtp_1
*I *1411:CLK I *D sky130_fd_sc_hd__dfxtp_1
*I *1417:CLK I *D sky130_fd_sc_hd__dfxtp_1
*I *1416:CLK I *D sky130_fd_sc_hd__dfxtp_1
*I *1414:CLK I *D sky130_fd_sc_hd__dfxtp_1
*I *1418:CLK I *D sky130_fd_sc_hd__dfxtp_1
*I *1441:X O *D sky130_fd_sc_hd__clkbuf_16
*CAP
1 *1429:CLK 0
2 *1413:CLK 0
3 *1427:CLK 2.1727e-05
4 *1445:A 0
5 *1428:CLK 8.54011e-05
6 *1430:CLK 0.000555205
7 *1409:CLK 6.80082e-05
8 *1412:CLK 0
9 *1410:CLK 0.000446012
10 *1411:CLK 0
11 *1417:CLK 3.2551e-05
12 *1416:CLK 0.000334883
13 *1414:CLK 0
14 *1418:CLK 0.000161427
15 *1441:X 0.000260121
16 *292:183 0.00060322
17 *292:170 0.000325915
18 *292:156 0.0010174
19 *292:147 0.000671499
20 *292:140 0.000775527
21 *292:111 0.000765572
22 *292:105 0.00068949
23 *292:60 0.000682839
24 *292:54 0.000501335
25 *292:46 0.00105182
26 *292:38 0.000498952
27 *292:32 0.00130805
28 *292:25 0.000554476
29 *292:19 0.00132172
30 *292:8 0.000586863
31 *292:6 0.000899572
32 *1410:CLK *334:25 0.000213012
33 *1410:CLK *354:27 0.000228971
34 *1410:CLK *358:74 0
35 *1416:CLK *1533:A 0.000181681
36 *1416:CLK *358:39 0.000174026
37 *1416:CLK *358:74 0.000275849
38 *1416:CLK *359:22 0.000252131
39 *1417:CLK *1344:A 5.50106e-05
40 *1417:CLK *360:8 1.40958e-05
41 *1430:CLK *1185:A 7.27182e-05
42 *1430:CLK *336:64 6.36209e-05
43 *1430:CLK *375:73 0.000441978
44 *292:6 *362:10 5.50106e-05
45 *292:25 *1306:C 0
46 *292:25 *355:20 2.13834e-05
47 *292:25 *357:12 2.472e-05
48 *292:25 *357:26 0
49 *292:25 *369:25 0
50 *292:32 *1329:A2 0
51 *292:32 *354:12 0
52 *292:32 *354:69 0.000404968
53 *292:32 *355:10 6.57551e-05
54 *292:32 *355:12 6.61686e-06
55 *292:32 *355:20 0.000248842
56 *292:32 *355:49 4.81497e-05
57 *292:46 *1330:C 0.000107611
58 *292:46 *345:31 0.000537097
59 *292:46 *370:14 0.000424647
60 *292:54 *1534:A 2.76611e-06
61 *292:54 *334:25 2.57556e-05
62 *292:54 *354:27 1.14452e-05
63 *292:54 *358:74 0
64 *292:60 *1344:A 6.48142e-05
65 *292:60 *1534:A 0.000452228
66 *292:60 *358:74 0.000326141
67 *292:60 *360:23 0.000157299
68 *292:105 *1321:B 5.50106e-05
69 *292:105 *355:49 2.21344e-05
70 *292:105 *369:23 0.000304808
71 *292:111 *369:25 3.47781e-05
72 *292:140 *362:10 1.83564e-05
73 *292:140 *369:25 0.000253061
74 *292:147 *1309:C1 0.000139352
75 *292:147 *1317:B 0.000199611
76 *292:147 *355:20 2.13733e-05
77 *292:183 *335:10 0
78 *292:183 *375:41 0.000200432
79 *292:183 *375:54 2.08324e-05
80 *1309:B1 *292:140 0.000103647
81 *1309:B1 *292:147 0.000114683
82 *1327:C *292:46 0.000125931
83 *1336:B *292:25 2.93845e-05
84 *1341:A2 *1416:CLK 0
85 *1370:B *1430:CLK 5.50049e-05
86 *1412:D *292:46 3.22051e-05
87 *1418:D *1418:CLK 2.94791e-05
88 *1427:D *292:156 8.79002e-05
89 *1447:A *292:105 0.000193096
90 *3:19 *292:25 3.22879e-05
91 *110:8 *292:54 5.80963e-05
92 *117:8 *292:25 2.86129e-05
93 *126:10 *292:170 2.96154e-05
94 *127:8 *292:111 0
95 *138:16 *292:170 0.000200738
96 *138:16 *292:183 0
97 *231:22 *292:25 0.000223043
98 *231:29 *292:140 6.17437e-06
99 *236:12 *292:170 0.000103966
100 *238:12 *292:140 0
101 *242:10 *292:147 0.000141052
102 *250:10 *292:147 0.00010018
103 *253:10 *292:105 0.000166513
104 *255:10 *1410:CLK 0
105 *258:16 *292:32 0
106 *258:41 *292:25 0
107 *258:47 *292:25 0
108 *259:10 *292:38 5.51181e-06
109 *263:8 *292:25 8.62876e-05
110 *266:10 *1417:CLK 9.67842e-05
111 *267:10 *1416:CLK 0.000141869
112 *268:10 *1416:CLK 4.24364e-05
113 *268:10 *292:60 1.12487e-05
114 *269:8 *1416:CLK 8.85189e-05
115 *271:10 *292:25 0.000247687
116 *271:10 *292:32 8.4047e-05
*RES
1 *1441:X *292:6 26.48 
2 *292:6 *292:8 4.43286 
3 *292:8 *1418:CLK 25.4236 
4 *292:8 *292:19 15 
5 *292:19 *292:25 27.7393 
6 *292:25 *1414:CLK 23 
7 *292:19 *292:32 16.5196 
8 *292:32 *292:38 16.4189 
9 *292:38 *292:46 27.2214 
10 *292:46 *292:54 18.7286 
11 *292:54 *292:60 25.1707 
12 *292:60 *1416:CLK 49.0614 
13 *292:60 *1417:CLK 39.0979 
14 *292:54 *1411:CLK 23 
15 *292:46 *1410:CLK 47.57 
16 *292:38 *1412:CLK 23 
17 *292:32 *292:105 25.0361 
18 *292:105 *292:111 32.61 
19 *292:111 *1409:CLK 24.0979 
20 *292:111 *1430:CLK 35.0557 
21 *292:105 *1428:CLK 24.5743 
22 *292:6 *292:140 35.365 
23 *292:140 *1445:A 23 
24 *292:140 *292:147 11.5793 
25 *292:147 *1427:CLK 23.4971 
26 *292:147 *292:156 1.57429 
27 *292:156 *292:170 38.3686 
28 *292:170 *1413:CLK 23 
29 *292:156 *292:183 41.3721 
30 *292:183 *1429:CLK 23 
*END

*D_NET *293 0.0206525
*CONN
*I *1382:CLK I *D sky130_fd_sc_hd__dfxtp_2
*I *1396:CLK I *D sky130_fd_sc_hd__dfxtp_1
*I *1397:CLK I *D sky130_fd_sc_hd__dfxtp_1
*I *1398:CLK I *D sky130_fd_sc_hd__dfxtp_1
*I *1399:CLK I *D sky130_fd_sc_hd__dfxtp_1
*I *1393:CLK I *D sky130_fd_sc_hd__dfxtp_1
*I *1400:CLK I *D sky130_fd_sc_hd__dfxtp_1
*I *1394:CLK I *D sky130_fd_sc_hd__dfxtp_1
*I *1392:CLK I *D sky130_fd_sc_hd__dfxtp_1
*I *1387:CLK I *D sky130_fd_sc_hd__dfxtp_1
*I *1395:CLK I *D sky130_fd_sc_hd__dfxtp_1
*I *1401:CLK I *D sky130_fd_sc_hd__dfxtp_1
*I *1446:A I *D sky130_fd_sc_hd__clkbuf_8
*I *1442:X O *D sky130_fd_sc_hd__clkbuf_16
*CAP
1 *1382:CLK 0
2 *1396:CLK 0
3 *1397:CLK 0
4 *1398:CLK 4.11597e-05
5 *1399:CLK 0.000483852
6 *1393:CLK 4.24211e-05
7 *1400:CLK 1.17411e-05
8 *1394:CLK 2.34823e-05
9 *1392:CLK 0
10 *1387:CLK 0.000183996
11 *1395:CLK 0
12 *1401:CLK 0
13 *1446:A 0.000128743
14 *1442:X 0
15 *293:138 0.000955786
16 *293:134 0.000759419
17 *293:126 0.000755138
18 *293:118 0.000624353
19 *293:79 0.00135374
20 *293:75 0.0013366
21 *293:73 0.000802082
22 *293:67 0.00125018
23 *293:56 0.00117514
24 *293:42 0.000939814
25 *293:33 0.00074604
26 *293:8 0.001293
27 *293:4 0.000545827
28 *1398:CLK *320:10 2.64616e-05
29 *1399:CLK *1245:A 0
30 *1400:CLK *321:34 0
31 *1446:A *302:30 5.67058e-05
32 *293:8 *313:46 0.000564583
33 *293:33 *313:35 0.000160339
34 *293:33 *391:8 0.000270209
35 *293:42 *302:30 0
36 *293:56 *302:30 0
37 *293:67 *318:32 7.81176e-05
38 *293:67 *373:10 2.29192e-05
39 *293:67 *373:14 9.43465e-05
40 *293:73 *321:34 1.34354e-05
41 *293:73 *373:14 0.000168873
42 *293:79 *1270:A 5.21138e-05
43 *293:79 *1270:B 0.000264559
44 *293:79 *330:8 9.36953e-05
45 *293:79 *332:56 8.96493e-05
46 *293:118 *306:37 0.000875821
47 *293:126 *301:10 0
48 *293:126 *306:14 4.31159e-05
49 *293:126 *307:10 9.00922e-05
50 *293:134 *306:14 9.05055e-05
51 *293:134 *318:22 5.90132e-05
52 *293:134 *319:10 1.39317e-05
53 *293:134 *371:14 3.83778e-05
54 *293:138 *1198:C 0
55 *293:138 *306:14 7.80251e-05
56 *1199:C *293:67 9.03784e-05
57 *1201:B *293:67 0.000326973
58 *1202:A1 *1446:A 0
59 *1202:A1 *293:33 0
60 *1202:A4 *1446:A 4.6318e-06
61 *1220:A_N *293:33 1.9799e-05
62 *1270:C *293:79 0.000139754
63 *1281:A2 *293:73 0
64 *1376:B *293:33 8.42001e-06
65 *1392:D *293:79 1.64354e-05
66 *1394:D *293:79 1.64354e-05
67 *1395:D *293:56 1.64354e-05
68 *1401:D *293:33 1.64354e-05
69 *81:10 *293:118 0.000147953
70 *81:10 *293:126 0.000126403
71 *92:10 *293:73 8.26569e-05
72 *93:8 *293:73 0
73 *94:12 *293:67 0
74 *96:10 *293:134 4.96264e-05
75 *96:10 *293:138 3.92407e-05
76 *99:10 *293:73 5.31444e-05
77 *154:29 *293:118 0.000228903
78 *162:8 *1446:A 2.93747e-05
79 *167:10 *293:42 0
80 *167:10 *293:56 0
81 *170:29 *293:33 5.45381e-05
82 *171:10 *293:33 0.000755225
83 *172:21 *293:33 1.41129e-05
84 *172:33 *293:33 5.3304e-05
85 *173:8 *293:118 0.000317553
86 *181:14 *1446:A 0.000161121
87 *181:14 *293:33 0.00021356
88 *193:10 *293:126 0.000138185
89 *193:18 *293:126 0
90 *193:18 *293:134 0
91 *193:24 *293:134 0
92 *193:42 *293:67 0
93 *194:31 *1399:CLK 0
94 *198:22 *293:56 3.32402e-05
95 *198:22 *293:67 0.000228903
96 *198:35 *293:67 2.72055e-05
97 *199:14 *293:67 0
98 *200:10 *293:73 0
99 *200:25 *293:73 0
100 *200:64 *293:138 0
101 *201:14 *1399:CLK 0
102 *201:66 *293:134 0
103 *201:66 *293:138 0
104 *221:10 *293:134 5.26204e-05
105 *222:8 *1399:CLK 0.000219882
106 *222:8 *293:138 0.000138727
107 *223:8 *1399:CLK 2.30292e-05
108 *290:44 *293:33 0.000110913
*RES
1 *1442:X *293:4 23 
2 *293:4 *293:8 21.3386 
3 *293:8 *1446:A 40.8793 
4 *293:8 *293:33 35.1136 
5 *293:33 *1401:CLK 23 
6 *293:4 *293:42 16.9057 
7 *293:42 *293:56 26.2271 
8 *293:56 *1395:CLK 23 
9 *293:56 *293:67 28.9407 
10 *293:67 *293:73 26.6829 
11 *293:73 *293:75 2.52714 
12 *293:75 *293:79 21.605 
13 *293:79 *1387:CLK 26.48 
14 *293:79 *1392:CLK 23 
15 *293:75 *1394:CLK 23.4971 
16 *293:73 *1400:CLK 23.4971 
17 *293:67 *1393:CLK 38.6214 
18 *293:42 *293:118 25.6264 
19 *293:118 *293:126 24.8807 
20 *293:126 *293:134 21.5457 
21 *293:134 *293:138 23.5964 
22 *293:138 *1399:CLK 47.2179 
23 *293:138 *1398:CLK 38.6214 
24 *293:134 *1397:CLK 23 
25 *293:126 *1396:CLK 38 
26 *293:118 *1382:CLK 23 
*END

*D_NET *294 0.0222074
*CONN
*I *1403:CLK I *D sky130_fd_sc_hd__dfxtp_1
*I *1426:CLK I *D sky130_fd_sc_hd__dfxtp_1
*I *1408:CLK I *D sky130_fd_sc_hd__dfxtp_1
*I *1425:CLK I *D sky130_fd_sc_hd__dfxtp_1
*I *1381:CLK I *D sky130_fd_sc_hd__dfxtp_1
*I *1407:CLK I *D sky130_fd_sc_hd__dfxtp_1
*I *1431:CLK I *D sky130_fd_sc_hd__dfxtp_2
*I *1405:CLK I *D sky130_fd_sc_hd__dfxtp_1
*I *1404:CLK I *D sky130_fd_sc_hd__dfxtp_1
*I *1432:CLK I *D sky130_fd_sc_hd__dfxtp_2
*I *1406:CLK I *D sky130_fd_sc_hd__dfxtp_1
*I *1384:CLK I *D sky130_fd_sc_hd__dfxtp_1
*I *1402:CLK I *D sky130_fd_sc_hd__dfxtp_1
*I *1383:CLK I *D sky130_fd_sc_hd__dfxtp_1
*I *1443:X O *D sky130_fd_sc_hd__clkbuf_16
*CAP
1 *1403:CLK 0.000515646
2 *1426:CLK 2.34823e-05
3 *1408:CLK 0
4 *1425:CLK 3.76539e-05
5 *1381:CLK 0
6 *1407:CLK 0.000143774
7 *1431:CLK 0.000619394
8 *1405:CLK 0
9 *1404:CLK 4.84789e-05
10 *1432:CLK 0
11 *1406:CLK 0.000150492
12 *1384:CLK 0.000251221
13 *1402:CLK 0.000354595
14 *1383:CLK 0
15 *1443:X 2.44744e-05
16 *294:157 0.000404195
17 *294:142 0.000964271
18 *294:138 0.00106355
19 *294:129 0.000859406
20 *294:125 0.00109642
21 *294:112 0.000500735
22 *294:99 0.00082301
23 *294:92 0.000512165
24 *294:84 0.000900318
25 *294:73 0.000723863
26 *294:35 0.000892997
27 *294:33 0.000837397
28 *294:29 0.00107754
29 *294:23 0.00119924
30 *294:16 0.000850743
31 *294:8 0.00102374
32 *1403:CLK *303:8 2.07097e-05
33 *1406:CLK *302:104 0
34 *1431:CLK *1431:D 3.24476e-06
35 *1431:CLK *375:20 0.000227208
36 *294:8 *297:41 5.41288e-05
37 *294:16 *1217:C 4.67488e-05
38 *294:16 *297:49 0
39 *294:16 *305:37 4.58924e-05
40 *294:16 *314:10 0.000484539
41 *294:16 *384:8 0.000141954
42 *294:23 *297:41 3.98859e-05
43 *294:23 *297:49 0
44 *294:23 *310:36 0
45 *294:23 *375:26 0
46 *294:29 *310:12 5.14746e-06
47 *294:29 *310:21 2.72257e-05
48 *294:33 *302:74 0.000310149
49 *294:35 *309:10 0
50 *294:73 *297:41 0.000175181
51 *294:73 *305:14 0
52 *294:73 *310:12 0.000181889
53 *294:73 *375:26 0
54 *294:84 *305:14 0
55 *294:84 *375:20 0
56 *294:84 *375:26 0
57 *294:84 *378:10 0
58 *294:92 *1237:B 3.91386e-05
59 *294:92 *305:6 0.000370825
60 *294:92 *305:84 3.43594e-05
61 *294:92 *305:101 0.000400198
62 *294:92 *375:14 0.000414182
63 *294:92 *375:20 0.000119969
64 *294:92 *388:10 2.4754e-05
65 *294:99 *375:20 0
66 *294:99 *378:10 0
67 *294:112 *378:10 0
68 *294:125 *366:14 0
69 *294:125 *378:10 0
70 *294:129 *366:8 1.33722e-05
71 *294:138 *366:8 5.67058e-05
72 *294:142 *1185:A 0
73 *294:142 *1185:D_N 5.90675e-06
74 *294:157 *302:104 0.000413521
75 *294:157 *302:117 0
76 *294:157 *335:43 0
77 *294:157 *344:10 5.26204e-05
78 *294:157 *368:10 0
79 *1218:A2 *294:16 6.51763e-05
80 *1218:A3 *294:16 0.000105209
81 *1218:B2 *294:16 4.66036e-05
82 *1234:A2 *1404:CLK 0.000103647
83 *1375:A1 *294:16 0
84 *1375:B1 *294:16 0.000741089
85 *1381:D *294:129 5.10613e-05
86 *1384:D *1384:CLK 0.000320105
87 *1408:D *294:157 6.17437e-06
88 *1425:D *294:142 0.000230553
89 *1426:D *294:138 1.64354e-05
90 *1432:D *294:29 5.2426e-05
91 *80:8 *294:125 0.000148391
92 *82:18 *294:16 4.95114e-05
93 *105:10 *1406:CLK 3.81391e-05
94 *132:10 *1407:CLK 4.9662e-05
95 *135:10 *1406:CLK 0
96 *135:10 *294:35 0
97 *135:21 *1406:CLK 0
98 *145:10 *294:8 9.84794e-05
99 *147:16 *294:16 0.000128965
100 *147:16 *294:23 2.76611e-06
101 *176:12 *294:16 7.0627e-05
102 *190:6 *1404:CLK 7.24484e-05
103 *290:57 *1402:CLK 0.000155729
104 *290:57 *294:35 4.59027e-05
*RES
1 *1443:X *294:8 39.0979 
2 *294:8 *294:16 37.475 
3 *294:16 *1383:CLK 23 
4 *294:8 *294:23 2.61 
5 *294:23 *294:29 24.0936 
6 *294:29 *294:33 23.2443 
7 *294:33 *294:35 5.075 
8 *294:35 *1402:CLK 45.7057 
9 *294:35 *1384:CLK 43.4064 
10 *294:33 *1406:CLK 40.9621 
11 *294:29 *1432:CLK 23 
12 *294:23 *294:73 9.30071 
13 *294:73 *1404:CLK 40.0507 
14 *294:73 *294:84 5.42714 
15 *294:84 *294:92 29.9557 
16 *294:92 *1405:CLK 23 
17 *294:84 *294:99 1.55357 
18 *294:99 *1431:CLK 46.6171 
19 *294:99 *294:112 1.90571 
20 *294:112 *1407:CLK 40.5271 
21 *294:112 *294:125 20.075 
22 *294:125 *294:129 4.80571 
23 *294:129 *1381:CLK 23 
24 *294:129 *294:138 8.61714 
25 *294:138 *294:142 9.21786 
26 *294:142 *1425:CLK 23.6214 
27 *294:142 *294:157 39.2179 
28 *294:157 *1408:CLK 23 
29 *294:138 *1426:CLK 23.4971 
30 *294:125 *1403:CLK 30.1879 
*END

*D_NET *295 0.00140512
*CONN
*I *1225:C I *D sky130_fd_sc_hd__or4_1
*I *1203:B I *D sky130_fd_sc_hd__or3_1
*I *1466:X O *D sky130_fd_sc_hd__clkbuf_1
*CAP
1 *1225:C 0
2 *1203:B 0
3 *1466:X 0.000128556
4 *295:25 5.43287e-05
5 *295:14 0.00034628
6 *295:6 0.000529165
7 *295:6 *313:46 8.06804e-06
8 *295:6 *339:14 1.40958e-05
9 *295:14 *1226:A 0
10 *295:14 *339:14 0.000111308
11 *295:14 *392:28 7.03766e-05
12 *295:25 *1226:A 0.000138727
13 *182:8 *295:14 4.21594e-06
14 *193:10 *295:14 0
*RES
1 *1466:X *295:6 24.5743 
2 *295:6 *295:14 35.9657 
3 *295:14 *1203:B 23 
4 *295:6 *295:25 31.9057 
5 *295:25 *1225:C 23 
*END

*D_NET *296 0.000775398
*CONN
*I *1225:D I *D sky130_fd_sc_hd__or4_1
*I *1203:C I *D sky130_fd_sc_hd__or3_1
*I *1467:X O *D sky130_fd_sc_hd__clkbuf_1
*CAP
1 *1225:D 0
2 *1203:C 0.000225271
3 *1467:X 6.07171e-05
4 *296:8 0.000285988
5 *1203:C *1225:A 7.28721e-05
6 *1203:C *1225:B 8.35101e-05
7 *1203:C *372:34 2.93845e-05
8 *296:8 *1225:A 1.76557e-05
*RES
1 *1467:X *296:8 24.1186 
2 *296:8 *1203:C 27.4536 
3 *296:8 *1225:D 23 
*END

*D_NET *297 0.00918044
*CONN
*I *1293:B I *D sky130_fd_sc_hd__nor2_1
*I *1292:B I *D sky130_fd_sc_hd__nor2_1
*I *1380:B1 I *D sky130_fd_sc_hd__a21oi_1
*I *1451:A I *D sky130_fd_sc_hd__buf_2
*I *1468:X O *D sky130_fd_sc_hd__buf_1
*CAP
1 *1293:B 0
2 *1292:B 0
3 *1380:B1 0
4 *1451:A 0.000454184
5 *1468:X 0
6 *297:49 0.000204696
7 *297:41 0.000807395
8 *297:31 0.00165294
9 *297:21 0.00190558
10 *297:4 0.00130952
11 *297:21 *305:114 0
12 *297:21 *307:82 0
13 *297:21 *365:8 4.21594e-06
14 *297:21 *393:10 0
15 *297:21 *395:10 0.000127272
16 *297:31 *307:82 0
17 *297:31 *309:38 1.89178e-05
18 *297:31 *312:20 1.24376e-05
19 *297:31 *364:8 0
20 *297:31 *365:8 5.86165e-05
21 *297:31 *395:10 1.14452e-05
22 *297:41 *305:14 0
23 *297:41 *309:38 0.0001042
24 *297:41 *375:26 0.000183733
25 global_state_bits[3] *297:21 0
26 global_state_bits[4] *297:21 1.27321e-05
27 *1292:A *297:31 0.000312572
28 *1380:A2 *297:49 1.32314e-05
29 *1468:A *1451:A 5.67058e-05
30 *104:8 *297:21 0.000110913
31 *131:8 *297:49 0.000100625
32 *134:14 *297:31 0.000413184
33 *144:14 *297:41 0.000274553
34 *145:10 *297:41 7.55718e-05
35 *145:27 *297:49 9.67842e-05
36 *147:16 *297:41 6.17437e-06
37 *152:6 *297:41 0.000526324
38 *186:8 *297:21 0
39 *187:10 *297:31 0
40 *191:10 *297:31 5.67058e-05
41 *193:10 *297:31 0
42 *294:8 *297:41 5.41288e-05
43 *294:16 *297:49 0
44 *294:23 *297:41 3.98859e-05
45 *294:23 *297:49 0
46 *294:73 *297:41 0.000175181
*RES
1 *1468:X *297:4 23 
2 *297:4 *1451:A 31.2857 
3 *297:4 *297:21 30.225 
4 *297:21 *297:31 35.0307 
5 *297:31 *297:41 47.4621 
6 *297:41 *297:49 34.06 
7 *297:49 *1380:B1 23 
8 *297:31 *1292:B 23 
9 *297:21 *1293:B 38 
*END

*D_NET *298 0.000608326
*CONN
*I *1225:A I *D sky130_fd_sc_hd__or4_1
*I *1469:X O *D sky130_fd_sc_hd__clkbuf_1
*CAP
1 *1225:A 0.000121749
2 *1469:X 7.25929e-05
3 *298:8 0.000194342
4 *1225:A *1225:B 1.89493e-05
5 *298:8 *1226:A 7.03869e-05
6 *1203:C *1225:A 7.28721e-05
7 *1467:A *298:8 3.9779e-05
8 *296:8 *1225:A 1.76557e-05
*RES
1 *1469:X *298:8 39.9057 
2 *298:8 *1225:A 40.5479 
*END

*D_NET *299 0.00112761
*CONN
*I *1367:A2 I *D sky130_fd_sc_hd__o21a_1
*I *1470:X O *D sky130_fd_sc_hd__clkbuf_1
*CAP
1 *1367:A2 0.00020898
2 *1470:X 0.000236353
3 *299:8 0.000445333
4 *299:8 *302:117 0
5 *299:8 *367:8 0
6 *299:8 *367:20 0
7 *125:10 *299:8 5.61311e-05
8 *135:72 *1367:A2 0.000180812
*RES
1 *1470:X *299:8 42.0186 
2 *299:8 *1367:A2 41.48 
*END

*D_NET *300 0.00452483
*CONN
*I *1311:A I *D sky130_fd_sc_hd__nand2_1
*I *1312:A1 I *D sky130_fd_sc_hd__a2111o_1
*I *1471:X O *D sky130_fd_sc_hd__buf_1
*CAP
1 *1311:A 0.000198554
2 *1312:A1 0
3 *1471:X 0.00157594
4 *300:10 0.0017745
5 *1311:A *1312:A2 0.000119655
6 *1311:A *302:78 2.77232e-05
7 *300:10 *1345:A 0.000140259
8 *300:10 *1347:B1 5.97296e-05
9 *1312:B1 *300:10 6.39787e-05
10 *1347:A2 *300:10 3.22051e-05
11 *139:49 *300:10 9.67842e-05
12 *238:12 *300:10 5.12254e-05
13 *239:12 *300:10 0.000128359
14 *245:10 *300:10 4.96717e-05
15 *258:41 *300:10 0.000206249
*RES
1 *1471:X *300:10 47.0079 
2 *300:10 *1312:A1 23 
3 *300:10 *1311:A 27.3707 
*END

*D_NET *301 0.00749499
*CONN
*I *1221:A2 I *D sky130_fd_sc_hd__o32a_1
*I *1217:C I *D sky130_fd_sc_hd__or3_1
*I *1374:B1_N I *D sky130_fd_sc_hd__o21bai_1
*I *1204:B1 I *D sky130_fd_sc_hd__a21o_1
*I *1472:X O *D sky130_fd_sc_hd__buf_1
*CAP
1 *1221:A2 3.06499e-05
2 *1217:C 0.000134876
3 *1374:B1_N 0
4 *1204:B1 0
5 *1472:X 0.000715171
6 *301:45 0.000834906
7 *301:33 0.00107682
8 *301:27 0.000574653
9 *301:10 0.000726774
10 *301:8 0.00100498
11 *301:10 *306:37 4.73689e-05
12 *301:10 *307:10 8.06039e-05
13 *301:10 *339:29 1.58805e-05
14 *301:27 *307:10 6.07611e-06
15 *301:27 *307:23 0.000131504
16 *301:27 *339:29 0.000548778
17 *301:33 *306:48 9.48381e-06
18 *301:33 *306:52 5.50106e-05
19 *301:33 *311:25 9.84794e-05
20 *301:45 *302:22 2.05503e-05
21 *301:45 *306:64 0.000306344
22 *301:45 *311:46 2.24608e-05
23 *1218:A3 *1217:C 0
24 *1219:A *1217:C 0.000112377
25 *1219:A *301:33 0.000121642
26 *1221:A3 *1217:C 5.52388e-05
27 *1221:A3 *301:27 2.93747e-05
28 *1221:A3 *301:33 2.79657e-05
29 *133:8 *301:27 1.61361e-05
30 *133:8 *301:33 9.24795e-06
31 *148:10 *301:33 0
32 *148:16 *301:27 0.000166513
33 *154:23 *301:45 1.39431e-05
34 *154:29 *301:33 1.01436e-05
35 *176:12 *1217:C 0.000107894
36 *178:22 *301:45 0.000298746
37 *193:10 *301:10 0
38 *193:18 *301:8 3.76441e-05
39 *293:126 *301:10 0
40 *294:16 *1217:C 4.67488e-05
*RES
1 *1472:X *301:8 47.1971 
2 *301:8 *301:10 5.075 
3 *301:10 *1204:B1 38 
4 *301:10 *301:27 25.2329 
5 *301:27 *301:33 17.8275 
6 *301:33 *301:45 33.8876 
7 *301:45 *1374:B1_N 23 
8 *301:33 *1217:C 41.3246 
9 *301:27 *1221:A2 23.4971 
*END

*D_NET *302 0.0257
*CONN
*I *1433:A I *D sky130_fd_sc_hd__clkbuf_1
*I *1438:A I *D sky130_fd_sc_hd__clkbuf_1
*I *1311:B I *D sky130_fd_sc_hd__nand2_1
*I *1312:A2 I *D sky130_fd_sc_hd__a2111o_1
*I *1379:B I *D sky130_fd_sc_hd__or4_1
*I *1206:B1 I *D sky130_fd_sc_hd__o21a_1
*I *1202:A2 I *D sky130_fd_sc_hd__a41o_1
*I *1481:A I *D sky130_fd_sc_hd__buf_2
*I *1179:Y O *D sky130_fd_sc_hd__inv_2
*CAP
1 *1433:A 0
2 *1438:A 0
3 *1311:B 0
4 *1312:A2 0.000113441
5 *1379:B 0
6 *1206:B1 1.50079e-05
7 *1202:A2 0
8 *1481:A 0.000299848
9 *1179:Y 6.55323e-05
10 *302:117 0.000428409
11 *302:104 0.00125751
12 *302:78 0.000919899
13 *302:74 0.00241553
14 *302:40 0.0027259
15 *302:36 0.00242605
16 *302:34 0.00127963
17 *302:30 0.00216588
18 *302:22 0.0014684
19 *302:16 0.00131053
20 *302:8 0.0015889
21 *302:8 *309:10 0
22 *302:16 *313:63 5.01986e-05
23 *302:16 *375:26 0.000229702
24 *302:16 *375:28 0.000107466
25 *302:22 *1227:A2 8.68903e-05
26 *302:22 *305:37 1.83736e-05
27 *302:22 *306:64 2.47015e-05
28 *302:22 *311:46 0.000171493
29 *302:22 *313:63 0.000222123
30 *302:22 *372:34 7.62842e-05
31 *302:34 *1505:A 0
32 *302:34 *327:51 0
33 *302:34 *329:12 0
34 *302:34 *329:47 8.26569e-05
35 *302:34 *330:19 0
36 *302:34 *330:28 0
37 *302:40 *1241:A 0.000143655
38 *302:40 *315:58 1.94812e-05
39 *302:40 *325:40 0.000215671
40 *302:74 *309:10 0
41 *302:104 *1169:C 0.000218962
42 *302:104 *335:10 0
43 *302:104 *335:43 0
44 *302:104 *337:10 0.000383494
45 *302:104 *376:10 0
46 *302:117 *367:8 0
47 *302:117 *368:10 0
48 *1202:A1 *302:30 7.42621e-05
49 *1202:A4 *302:30 0.000313249
50 *1206:A2 *1206:B1 5.50049e-05
51 *1251:A *302:40 0.000228909
52 *1264:A2 *302:34 0.000144174
53 *1265:A_N *302:40 0.000271476
54 *1265:B *302:40 1.28818e-05
55 *1311:A *1312:A2 0.000119655
56 *1311:A *302:78 2.77232e-05
57 *1371:A1 *302:78 0.000185428
58 *1371:B2 *1312:A2 0
59 *1371:B2 *302:78 9.95543e-06
60 *1373:A *302:104 5.3304e-05
61 *1373:A *302:117 0.000357631
62 *1375:A1 *302:16 0.000138718
63 *1375:A1 *302:22 0.000313806
64 *1406:CLK *302:104 0
65 *1446:A *302:30 5.67058e-05
66 *76:9 *302:117 0
67 *105:10 *302:74 5.67058e-05
68 *107:8 *302:104 5.80963e-05
69 *124:8 *302:117 0.000169674
70 *131:8 *302:16 0
71 *135:101 *302:8 4.08537e-05
72 *135:101 *302:74 6.4393e-05
73 *137:16 *1206:B1 5.50049e-05
74 *145:10 *302:16 7.39034e-05
75 *153:10 *302:74 7.73405e-05
76 *156:10 *302:34 1.94685e-05
77 *160:12 *302:34 0.000567049
78 *162:8 *302:30 3.48868e-05
79 *162:10 *302:30 0
80 *162:21 *302:22 0
81 *162:21 *302:30 0
82 *165:8 *302:30 0
83 *172:33 *302:30 0.000315852
84 *181:14 *302:30 0
85 *196:10 *302:40 2.93845e-05
86 *196:43 *302:34 0
87 *196:45 *302:34 0
88 *196:55 *302:34 8.84662e-05
89 *213:10 *302:40 1.94812e-05
90 *244:6 *1312:A2 5.67058e-05
91 *244:6 *302:78 6.16164e-05
92 *244:19 *302:78 1.41077e-05
93 *244:36 *302:78 4.04199e-05
94 *285:8 *302:22 0.000162813
95 *288:12 *302:74 0
96 *290:57 *302:16 5.50106e-05
97 *293:42 *302:30 0
98 *293:56 *302:30 0
99 *294:33 *302:74 0.000310149
100 *294:157 *302:104 0.000413521
101 *294:157 *302:117 0
102 *299:8 *302:117 0
103 *301:45 *302:22 2.05503e-05
*RES
1 *1179:Y *302:8 39.2014 
2 *302:8 *302:16 40.73 
3 *302:16 *302:22 14.2929 
4 *302:22 *302:30 31.7786 
5 *302:30 *302:34 42.26 
6 *302:34 *302:36 15 
7 *302:36 *302:40 45.6646 
8 *302:40 *1481:A 28.6239 
9 *302:30 *1202:A2 23 
10 *302:22 *1206:B1 38.6214 
11 *302:16 *1379:B 38 
12 *302:8 *302:74 29.9971 
13 *302:74 *302:78 13.9821 
14 *302:78 *1312:A2 26.3402 
15 *302:78 *1311:B 23 
16 *302:74 *302:104 49.7821 
17 *302:104 *1438:A 23 
18 *302:104 *302:117 39.7357 
19 *302:117 *1433:A 23 
*END

*D_NET *303 0.00108315
*CONN
*I *1482:A I *D sky130_fd_sc_hd__buf_2
*I *1458:A I *D sky130_fd_sc_hd__dlygate4sd3_1
*I *1381:Q O *D sky130_fd_sc_hd__dfxtp_1
*CAP
1 *1482:A 0.000110804
2 *1458:A 0.000268597
3 *1381:Q 0.00015182
4 *303:8 0.00053122
5 *1458:A *375:8 0
6 *1482:A *375:8 0
7 *1403:CLK *303:8 2.07097e-05
8 *102:8 *1458:A 0
*RES
1 *1381:Q *303:8 40.0507 
2 *303:8 *1458:A 42.7643 
3 *303:8 *1482:A 39.9057 
*END

*D_NET *304 0.000150926
*CONN
*I *1483:A I *D sky130_fd_sc_hd__buf_2
*I *1433:X O *D sky130_fd_sc_hd__clkbuf_1
*CAP
1 *1483:A 6.39486e-05
2 *1433:X 6.39486e-05
3 global_state_authorized *1483:A 2.30292e-05
*RES
1 *1433:X *1483:A 47.4707 
*END

*D_NET *305 0.0142321
*CONN
*I *1484:A I *D sky130_fd_sc_hd__buf_2
*I *1230:A I *D sky130_fd_sc_hd__xor2_1
*I *1455:A I *D sky130_fd_sc_hd__dlygate4sd3_1
*I *1173:A I *D sky130_fd_sc_hd__nor2_1
*I *1181:A I *D sky130_fd_sc_hd__or3_2
*I *1183:C_N I *D sky130_fd_sc_hd__or3b_2
*I *1175:A I *D sky130_fd_sc_hd__or4b_2
*I *1374:A1 I *D sky130_fd_sc_hd__o21bai_1
*I *1177:A I *D sky130_fd_sc_hd__nor3_1
*I *1431:Q O *D sky130_fd_sc_hd__dfxtp_2
*CAP
1 *1484:A 0
2 *1230:A 0
3 *1455:A 0
4 *1173:A 2.14668e-05
5 *1181:A 0
6 *1183:C_N 7.92849e-05
7 *1175:A 0
8 *1374:A1 0
9 *1177:A 0
10 *1431:Q 0.000315556
11 *305:114 0.000622639
12 *305:101 0.0012895
13 *305:84 0.000737971
14 *305:57 0.00025472
15 *305:49 0.000459585
16 *305:37 0.000837665
17 *305:27 0.00118122
18 *305:21 0.000688863
19 *305:14 0.00082463
20 *305:6 0.00112867
21 *1173:A *1173:B 5.55857e-06
22 *1183:C_N *311:61 2.84809e-05
23 *305:6 *375:20 1.14762e-05
24 *305:14 *310:30 6.48049e-05
25 *305:14 *310:73 9.47227e-05
26 *305:14 *310:99 0
27 *305:21 *1177:B 0.0002263
28 *305:21 *1177:C 0.000182826
29 *305:21 *310:73 7.53384e-06
30 *305:27 *309:42 0
31 *305:27 *384:12 0.000315732
32 *305:37 *1175:D_N 0.000102093
33 *305:37 *306:64 4.77164e-06
34 *305:37 *314:16 4.94192e-05
35 *305:49 *1173:B 0.000184345
36 *305:49 *1177:B 0.000258245
37 *305:49 *1177:C 0.000355029
38 *305:57 *1173:B 1.59094e-06
39 *305:57 *314:44 0
40 *305:101 *1210:B 5.50106e-05
41 *305:101 *307:82 0
42 *305:101 *309:90 0
43 *305:101 *375:14 1.12487e-05
44 *305:101 *388:10 0.000326983
45 *305:101 *397:8 0.000166522
46 global_state_bits[0] *305:114 3.59619e-05
47 global_state_bits[1] *305:114 6.54744e-05
48 *1181:C *1183:C_N 6.69879e-05
49 *1181:C *305:57 1.14452e-05
50 *1187:B *305:14 2.93747e-05
51 *1191:A2 *305:27 9.94675e-05
52 *1191:B2 *1183:C_N 0
53 *1218:B2 *305:37 0
54 *1375:A1 *305:37 0.000171906
55 *103:8 *305:14 0.000110913
56 *133:45 *305:14 0.000246366
57 *133:62 *305:14 0.000147288
58 *134:55 *305:57 0.000116314
59 *136:10 *305:101 0.000128401
60 *141:8 *305:57 7.45278e-05
61 *143:10 *305:37 5.3304e-05
62 *144:6 *305:21 4.75937e-05
63 *146:17 *1183:C_N 0.000126391
64 *147:29 *305:37 0.00026808
65 *148:10 *305:27 0.000301419
66 *151:10 *1183:C_N 0.000108681
67 *171:37 *305:37 0
68 *174:8 *305:37 0.000186274
69 *193:10 *305:57 0
70 *285:8 *305:37 7.17991e-05
71 *294:16 *305:37 4.58924e-05
72 *294:73 *305:14 0
73 *294:84 *305:14 0
74 *294:92 *305:6 0.000370825
75 *294:92 *305:84 3.43594e-05
76 *294:92 *305:101 0.000400198
77 *297:21 *305:114 0
78 *297:41 *305:14 0
79 *302:22 *305:37 1.83736e-05
*RES
1 *1431:Q *305:6 27.9093 
2 *305:6 *305:14 45.5771 
3 *305:14 *1177:A 23 
4 *305:14 *305:21 3.48 
5 *305:21 *305:27 38.5964 
6 *305:27 *305:37 47.0271 
7 *305:37 *1374:A1 23 
8 *305:27 *1175:A 23 
9 *305:21 *305:49 7.70571 
10 *305:49 *305:57 18.3143 
11 *305:57 *1183:C_N 40.61 
12 *305:57 *1181:A 38 
13 *305:49 *1173:A 23.4971 
14 *305:6 *305:84 1.47071 
15 *305:84 *1455:A 23 
16 *305:84 *305:101 45.7429 
17 *305:101 *1230:A 23 
18 *305:101 *305:114 41.6414 
19 *305:114 *1484:A 23 
*END

*D_NET *306 0.0109298
*CONN
*I *1221:A1 I *D sky130_fd_sc_hd__o32a_1
*I *1217:B I *D sky130_fd_sc_hd__or3_1
*I *1374:A2 I *D sky130_fd_sc_hd__o21bai_1
*I *1214:A I *D sky130_fd_sc_hd__or3_1
*I *1166:A I *D sky130_fd_sc_hd__inv_2
*I *1473:X O *D sky130_fd_sc_hd__clkbuf_2
*CAP
1 *1221:A1 0
2 *1217:B 0.000116337
3 *1374:A2 0
4 *1214:A 0
5 *1166:A 0
6 *1473:X 0.000325964
7 *306:64 0.00047155
8 *306:52 0.000665217
9 *306:48 0.000435803
10 *306:37 0.000637678
11 *306:29 0.00115093
12 *306:14 0.000958941
13 *306:8 0.00113013
14 *1217:B *314:20 3.53054e-05
15 *306:14 *339:10 0
16 *306:14 *339:14 0.00018282
17 *306:14 *392:28 9.16362e-05
18 *306:29 *1207:A1 5.3304e-05
19 *306:29 *339:14 0.000154799
20 *306:29 *392:28 0.000325416
21 *306:37 *1207:A2 1.14452e-05
22 *306:37 *339:29 3.47781e-05
23 *306:48 *1207:A2 0.000466515
24 *306:48 *311:25 8.4047e-05
25 *306:48 *339:29 0.000604312
26 *306:52 *311:25 1.56762e-05
27 *306:64 *314:20 7.57281e-06
28 *96:10 *306:14 0.000164282
29 *133:8 *306:52 2.79662e-05
30 *133:10 *1217:B 8.48189e-05
31 *137:6 *306:29 9.84851e-05
32 *154:23 *306:52 0.000139346
33 *154:29 *306:37 0
34 *164:6 *306:29 5.3304e-05
35 *171:37 *1217:B 0
36 *174:8 *306:64 2.8314e-06
37 *178:10 *306:52 0.000137651
38 *178:22 *306:64 0.000215981
39 *193:10 *306:14 0.000509837
40 *293:118 *306:37 0.000875821
41 *293:126 *306:14 4.31159e-05
42 *293:134 *306:14 9.05055e-05
43 *293:138 *306:14 7.80251e-05
44 *301:10 *306:37 4.73689e-05
45 *301:33 *306:48 9.48381e-06
46 *301:33 *306:52 5.50106e-05
47 *301:45 *306:64 0.000306344
48 *302:22 *306:64 2.47015e-05
49 *305:37 *306:64 4.77164e-06
*RES
1 *1473:X *306:8 43.3857 
2 *306:8 *306:14 33.7464 
3 *306:14 *1166:A 23 
4 *306:14 *306:29 20.5721 
5 *306:29 *306:37 28.7336 
6 *306:37 *1214:A 23 
7 *306:29 *306:48 24.3421 
8 *306:48 *306:52 17.5271 
9 *306:52 *306:64 33.072 
10 *306:64 *1374:A2 23 
11 *306:52 *1217:B 40.2579 
12 *306:48 *1221:A1 23 
*END

*D_NET *307 0.012331
*CONN
*I *1485:A I *D sky130_fd_sc_hd__buf_2
*I *1173:B I *D sky130_fd_sc_hd__nor2_1
*I *1177:C I *D sky130_fd_sc_hd__nor3_1
*I *1183:A I *D sky130_fd_sc_hd__or3b_2
*I *1175:B I *D sky130_fd_sc_hd__or4b_2
*I *1464:A I *D sky130_fd_sc_hd__dlygate4sd3_1
*I *1204:A1 I *D sky130_fd_sc_hd__a21o_1
*I *1382:Q O *D sky130_fd_sc_hd__dfxtp_2
*CAP
1 *1485:A 0
2 *1173:B 0.000288727
3 *1177:C 0.000257745
4 *1183:A 5.78045e-05
5 *1175:B 0.000222691
6 *1464:A 0
7 *1204:A1 0
8 *1382:Q 0.000553463
9 *307:82 0.00133496
10 *307:58 0.000546471
11 *307:56 0.00163427
12 *307:45 0.000456372
13 *307:34 0.000510109
14 *307:23 0.000718168
15 *307:10 0.00108347
16 *1175:B *314:16 0.000311554
17 *1183:A *1190:B1 0.000180224
18 *307:23 *314:10 0.000185434
19 *307:34 *1175:D_N 2.71291e-05
20 *307:34 *314:10 0.000299531
21 *307:45 *1175:D_N 7.34962e-05
22 *307:45 *309:42 6.07611e-06
23 *307:56 *309:40 4.08641e-05
24 *307:56 *309:42 0.000172574
25 *307:82 *309:40 0.000153564
26 *307:82 *309:90 0.000450326
27 *307:82 *393:10 0.000157779
28 *1173:A *1173:B 5.55857e-06
29 *1180:B *1183:A 0.000137651
30 *1236:A1 *307:82 0.000128583
31 *82:18 *307:23 0.000185434
32 *82:18 *307:34 4.34745e-05
33 *134:10 *307:82 0.000303269
34 *137:16 *307:10 1.14452e-05
35 *137:16 *307:23 0.000163352
36 *144:6 *1177:C 7.53384e-06
37 *148:8 *1183:A 2.32101e-05
38 *148:10 *307:23 0.000110116
39 *148:10 *307:34 0
40 *148:16 *307:23 9.63918e-05
41 *186:8 *307:82 0
42 *187:10 *307:82 0
43 *193:10 *307:10 0
44 *193:10 *307:23 0
45 *193:10 *307:34 2.24973e-05
46 *193:10 *307:45 7.21237e-05
47 *193:10 *307:56 0.000216936
48 *193:10 *307:82 4.85126e-05
49 *293:126 *307:10 9.00922e-05
50 *297:21 *307:82 0
51 *297:31 *307:82 0
52 *301:10 *307:10 8.06039e-05
53 *301:27 *307:10 6.07611e-06
54 *301:27 *307:23 0.000131504
55 *305:21 *1177:C 0.000182826
56 *305:49 *1173:B 0.000184345
57 *305:49 *1177:C 0.000355029
58 *305:57 *1173:B 1.59094e-06
59 *305:101 *307:82 0
*RES
1 *1382:Q *307:10 46.12 
2 *307:10 *1204:A1 38 
3 *307:10 *307:23 28.1121 
4 *307:23 *1464:A 23 
5 *307:23 *307:34 19.64 
6 *307:34 *1175:B 41.48 
7 *307:34 *307:45 2.25786 
8 *307:45 *1183:A 40.0507 
9 *307:45 *307:56 6.13143 
10 *307:56 *307:58 15 
11 *307:58 *1177:C 29.3593 
12 *307:58 *1173:B 28.4064 
13 *307:56 *307:82 44.145 
14 *307:82 *1485:A 23 
*END

*D_NET *308 0.00203413
*CONN
*I *1190:A2 I *D sky130_fd_sc_hd__a21o_1
*I *1486:A I *D sky130_fd_sc_hd__buf_2
*I *1174:B I *D sky130_fd_sc_hd__or2_1
*I *1454:A I *D sky130_fd_sc_hd__dlygate4sd3_1
*I *1383:Q O *D sky130_fd_sc_hd__dfxtp_1
*CAP
1 *1190:A2 0.000181663
2 *1486:A 0
3 *1174:B 0.000154827
4 *1454:A 0.000119103
5 *1383:Q 9.82853e-05
6 *308:25 0.000190641
7 *308:21 0.000414852
8 *308:8 0.000414764
9 *1174:B *314:44 0.000105934
10 *1190:A2 *311:61 0
11 *1190:A2 *314:44 0.000195248
12 *1454:A *311:61 0
13 *308:21 *311:61 0
14 *308:25 *314:44 7.53384e-06
15 global_state_bits[2] *1190:A2 2.5343e-05
16 *9:15 *1454:A 3.22879e-05
17 *73:11 *1454:A 6.79006e-05
18 *73:11 *308:21 2.57449e-05
*RES
1 *1383:Q *308:8 39.0979 
2 *308:8 *1454:A 40.5271 
3 *308:8 *308:21 3.66643 
4 *308:21 *308:25 15.6214 
5 *308:25 *1174:B 26.5007 
6 *308:25 *1486:A 23 
7 *308:21 *1190:A2 41.9357 
*END

*D_NET *309 0.013832
*CONN
*I *1232:A I *D sky130_fd_sc_hd__nand2_1
*I *1487:A I *D sky130_fd_sc_hd__buf_2
*I *1177:B I *D sky130_fd_sc_hd__nor3_1
*I *1180:A I *D sky130_fd_sc_hd__or2_1
*I *1190:B1 I *D sky130_fd_sc_hd__a21o_1
*I *1175:D_N I *D sky130_fd_sc_hd__or4b_2
*I *1233:A I *D sky130_fd_sc_hd__or2_1
*I *1294:A I *D sky130_fd_sc_hd__and2_1
*I *1384:Q O *D sky130_fd_sc_hd__dfxtp_1
*CAP
1 *1232:A 0
2 *1487:A 0
3 *1177:B 0.000245885
4 *1180:A 0
5 *1190:B1 0.000231802
6 *1175:D_N 0.000334132
7 *1233:A 0
8 *1294:A 0
9 *1384:Q 0.000321936
10 *309:90 0.00094075
11 *309:57 0.000231802
12 *309:42 0.000619571
13 *309:40 0.000790888
14 *309:38 0.00229743
15 *309:32 0.00120759
16 *309:23 0.000896588
17 *309:10 0.00110806
18 *1175:D_N *314:16 0.000438462
19 *1190:B1 *1190:A1 0.000306311
20 *1190:B1 *310:36 0.000306344
21 *309:23 *1232:B 5.41385e-05
22 *309:32 *1232:B 7.42621e-05
23 *309:38 *1232:B 2.02517e-05
24 *309:38 *1235:B2 9.84851e-05
25 *309:40 *384:12 0
26 *309:90 *310:99 0.000526324
27 *309:90 *395:22 0
28 *309:90 *397:8 0
29 *1175:C *1175:D_N 0.000143655
30 *1180:B *1190:B1 4.5051e-05
31 *1183:A *1190:B1 0.000180224
32 *1292:A *309:38 0.000126997
33 *134:14 *309:38 0.000108708
34 *135:10 *309:10 8.16356e-05
35 *135:21 *309:10 6.07611e-06
36 *135:21 *309:23 0.00023335
37 *148:8 *1190:B1 3.17516e-05
38 *148:10 *1175:D_N 0
39 *148:10 *309:42 0
40 *151:10 *1190:B1 3.71251e-05
41 *153:10 *309:10 0
42 *153:10 *309:23 0
43 *188:10 *309:32 1.24376e-05
44 *188:10 *309:38 4.38068e-06
45 *189:10 *309:32 0.00010018
46 *191:10 *309:90 0
47 *290:57 *309:10 3.56537e-05
48 *294:35 *309:10 0
49 *297:31 *309:38 1.89178e-05
50 *297:41 *309:38 0.0001042
51 *302:8 *309:10 0
52 *302:74 *309:10 0
53 *305:21 *1177:B 0.0002263
54 *305:27 *309:42 0
55 *305:37 *1175:D_N 0.000102093
56 *305:49 *1177:B 0.000258245
57 *305:101 *309:90 0
58 *307:34 *1175:D_N 2.71291e-05
59 *307:45 *1175:D_N 7.34962e-05
60 *307:45 *309:42 6.07611e-06
61 *307:56 *309:40 4.08641e-05
62 *307:56 *309:42 0.000172574
63 *307:82 *309:40 0.000153564
64 *307:82 *309:90 0.000450326
*RES
1 *1384:Q *309:10 43.6964 
2 *309:10 *1294:A 38 
3 *309:10 *309:23 29.8521 
4 *309:23 *1233:A 23 
5 *309:23 *309:32 3.02429 
6 *309:32 *309:38 31.1157 
7 *309:38 *309:40 5.42714 
8 *309:40 *309:42 5.075 
9 *309:42 *1175:D_N 46.3686 
10 *309:42 *309:57 15 
11 *309:57 *1190:B1 30.3329 
12 *309:57 *1180:A 23 
13 *309:40 *1177:B 43.3857 
14 *309:38 *309:90 35.3829 
15 *309:90 *1487:A 23 
16 *309:32 *1232:A 23 
*END

*D_NET *310 0.0114653
*CONN
*I *1488:A I *D sky130_fd_sc_hd__buf_2
*I *1459:A I *D sky130_fd_sc_hd__dlygate4sd3_1
*I *1235:B2 I *D sky130_fd_sc_hd__o2bb2a_1
*I *1178:A I *D sky130_fd_sc_hd__or3b_2
*I *1190:A1 I *D sky130_fd_sc_hd__a21o_1
*I *1174:A I *D sky130_fd_sc_hd__or2_1
*I *1187:A I *D sky130_fd_sc_hd__and3_1
*I *1234:A1 I *D sky130_fd_sc_hd__a221o_1
*I *1432:Q O *D sky130_fd_sc_hd__dfxtp_2
*CAP
1 *1488:A 0
2 *1459:A 0.000146869
3 *1235:B2 2.01521e-05
4 *1178:A 0
5 *1190:A1 0.000175226
6 *1174:A 0
7 *1187:A 0
8 *1234:A1 0
9 *1432:Q 0
10 *310:99 0.00093909
11 *310:84 0.00129379
12 *310:73 0.000536776
13 *310:44 0.000130869
14 *310:36 0.0011136
15 *310:30 0.000946078
16 *310:21 0.000730875
17 *310:12 0.000266174
18 *310:4 0.000549678
19 *310:12 *375:26 0.000214044
20 *310:36 *314:33 8.10976e-05
21 *310:44 *311:61 0.000188926
22 *310:44 *314:44 2.64616e-05
23 *310:73 *312:8 0.000136486
24 *310:73 *384:12 0
25 *310:99 *375:14 0
26 *310:99 *378:10 0
27 *1180:B *310:36 3.34129e-05
28 *1190:B1 *1190:A1 0.000306311
29 *1190:B1 *310:36 0.000306344
30 *1235:B1 *310:84 0.000138718
31 *1292:A *1235:B2 9.84851e-05
32 *106:10 *310:99 0
33 *132:10 *310:99 0
34 *133:23 *310:30 2.11827e-05
35 *133:23 *310:36 9.00749e-05
36 *133:34 *310:30 2.36844e-05
37 *133:45 *310:30 1.62615e-05
38 *133:45 *310:73 0.000107538
39 *133:45 *310:84 9.80568e-05
40 *133:62 *1459:A 9.67842e-05
41 *133:62 *310:84 0.000138185
42 *133:62 *310:99 1.12487e-05
43 *136:10 *310:84 0.000289964
44 *136:10 *310:99 0.000138727
45 *142:17 *310:44 9.04083e-05
46 *144:6 *310:73 0.00011122
47 *144:14 *310:21 0.000183733
48 *144:14 *310:30 0
49 *144:14 *310:36 0
50 *144:14 *310:73 0.000108163
51 *146:6 *310:36 0.000180224
52 *146:17 *1190:A1 0.000168687
53 *146:17 *310:36 5.50049e-05
54 *147:16 *310:36 0
55 *148:8 *310:36 3.6485e-05
56 *188:10 *310:12 0.000114083
57 *294:23 *310:36 0
58 *294:29 *310:12 5.14746e-06
59 *294:29 *310:21 2.72257e-05
60 *294:73 *310:12 0.000181889
61 *305:14 *310:30 6.48049e-05
62 *305:14 *310:73 9.47227e-05
63 *305:14 *310:99 0
64 *305:21 *310:73 7.53384e-06
65 *309:38 *1235:B2 9.84851e-05
66 *309:90 *310:99 0.000526324
*RES
1 *1432:Q *310:4 23 
2 *310:4 *310:12 37.8093 
3 *310:12 *1234:A1 23 
4 *310:4 *310:21 5.40643 
5 *310:21 *1187:A 23 
6 *310:21 *310:30 18.3143 
7 *310:30 *310:36 30.7221 
8 *310:36 *310:44 33.2314 
9 *310:44 *1174:A 23 
10 *310:36 *1190:A1 27.9507 
11 *310:30 *1178:A 38 
12 *310:21 *310:73 22.25 
13 *310:73 *1235:B2 39.0979 
14 *310:73 *310:84 6.48357 
15 *310:84 *1459:A 40.5271 
16 *310:84 *310:99 32.835 
17 *310:99 *1488:A 23 
*END

*D_NET *311 0.010658
*CONN
*I *1489:A I *D sky130_fd_sc_hd__buf_2
*I *1379:D I *D sky130_fd_sc_hd__or4_1
*I *1227:A2 I *D sky130_fd_sc_hd__a31o_1
*I *1207:A2 I *D sky130_fd_sc_hd__a221oi_1
*I *1184:Y O *D sky130_fd_sc_hd__inv_2
*CAP
1 *1489:A 0
2 *1379:D 0
3 *1227:A2 0.000186449
4 *1207:A2 0.000232516
5 *1184:Y 0
6 *311:61 0.00101216
7 *311:46 0.00060361
8 *311:25 0.00159447
9 *311:8 0.0016263
10 *311:4 0.00160153
11 *1227:A2 *391:60 3.55732e-05
12 *311:46 *313:63 0.000214091
13 *311:46 *314:33 3.74273e-05
14 *311:61 *314:44 0
15 *311:61 *328:10 8.4047e-05
16 *1183:C_N *311:61 2.84809e-05
17 *1189:A *311:61 0
18 *1189:B *311:61 2.93845e-05
19 *1190:A2 *311:61 0
20 *1191:B1 *311:61 5.3304e-05
21 *1191:B2 *311:61 2.96369e-05
22 *1194:B *311:46 0
23 *1226:C *311:8 1.76557e-05
24 *1380:A2 *311:46 6.74482e-05
25 *1454:A *311:61 0
26 *131:8 *311:46 4.21594e-06
27 *142:17 *311:61 2.01531e-05
28 *145:27 *311:46 2.61526e-05
29 *146:17 *311:61 2.1199e-05
30 *148:16 *311:8 0.000292765
31 *150:12 *311:61 2.11074e-05
32 *151:10 *311:61 8.4047e-05
33 *154:8 *311:46 0
34 *154:23 *311:25 0.000955859
35 *154:29 *1207:A2 0.000153344
36 *154:29 *311:25 2.11887e-05
37 *162:21 *1227:A2 8.93766e-05
38 *162:21 *311:46 9.8735e-05
39 *171:37 *1227:A2 0.000184527
40 *183:14 *1227:A2 5.12254e-05
41 *183:14 *311:8 3.41012e-05
42 *193:10 *311:61 0
43 *301:33 *311:25 9.84794e-05
44 *301:45 *311:46 2.24608e-05
45 *302:22 *1227:A2 8.68903e-05
46 *302:22 *311:46 0.000171493
47 *306:37 *1207:A2 1.14452e-05
48 *306:48 *1207:A2 0.000466515
49 *306:48 *311:25 8.4047e-05
50 *306:52 *311:25 1.56762e-05
51 *308:21 *311:61 0
52 *310:44 *311:61 0.000188926
*RES
1 *1184:Y *311:4 23 
2 *311:4 *311:8 23.2443 
3 *311:8 *1207:A2 44.4836 
4 *311:8 *311:25 43.2571 
5 *311:25 *1227:A2 43.1579 
6 *311:25 *311:46 27.8014 
7 *311:46 *1379:D 23 
8 *311:4 *311:61 47.2757 
9 *311:61 *1489:A 23 
*END

*D_NET *312 0.00316294
*CONN
*I *1188:B I *D sky130_fd_sc_hd__or2_1
*I *1490:A I *D sky130_fd_sc_hd__buf_2
*I *1187:X O *D sky130_fd_sc_hd__and3_1
*CAP
1 *1188:B 0
2 *1490:A 0
3 *1187:X 0.000101183
4 *312:20 0.000316389
5 *312:12 0.000900072
6 *312:8 0.000684867
7 *312:8 *384:12 0
8 *312:20 *364:8 0
9 global_state_escalated *312:20 0
10 *133:45 *312:8 0.000218023
11 *134:6 *312:12 0.000525411
12 *134:55 *312:12 0.000268074
13 *193:10 *312:20 0
14 *297:31 *312:20 1.24376e-05
15 *310:73 *312:8 0.000136486
*RES
1 *1187:X *312:8 40.9621 
2 *312:8 *312:12 27.5321 
3 *312:12 *312:20 35.7171 
4 *312:20 *1490:A 23 
5 *312:12 *1188:B 23 
*END

*D_NET *313 0.0114854
*CONN
*I *1379:C I *D sky130_fd_sc_hd__or4_1
*I *1491:A I *D sky130_fd_sc_hd__buf_2
*I *1213:A I *D sky130_fd_sc_hd__nand2_1
*I *1211:A2 I *D sky130_fd_sc_hd__a31o_1
*I *1182:Y O *D sky130_fd_sc_hd__inv_2
*CAP
1 *1379:C 0
2 *1491:A 0
3 *1213:A 0
4 *1211:A2 8.17815e-05
5 *1182:Y 0
6 *313:63 0.000638536
7 *313:46 0.00120394
8 *313:35 0.000192412
9 *313:21 0.00147903
10 *313:10 0.000700728
11 *313:4 0.0011748
12 *313:46 *1207:A1 0.000141052
13 *313:46 *339:10 0.00019747
14 *313:46 *339:14 0.000944322
15 *313:46 *392:28 3.58358e-05
16 *313:63 *314:33 2.64616e-05
17 *1202:A1 *313:10 3.47781e-05
18 *1202:A1 *313:35 1.58805e-05
19 *1205:A2 *313:46 0.000105861
20 *1211:A1 *1211:A2 5.50049e-05
21 *1211:A1 *313:21 5.3304e-05
22 *1214:B *313:10 4.63479e-05
23 *1220:A_N *313:35 6.20519e-05
24 *131:8 *313:63 0
25 *135:101 *313:10 0.000424793
26 *135:103 *313:10 0.000546143
27 *135:103 *313:35 8.68903e-05
28 *145:27 *313:63 1.46594e-05
29 *145:42 *313:10 0.000142233
30 *147:29 *313:63 0.000330436
31 *162:29 *313:10 8.62783e-05
32 *163:14 *313:21 4.5051e-05
33 *163:14 *313:46 0.000551669
34 *163:22 *1211:A2 2.18506e-05
35 *164:6 *313:46 1.22822e-05
36 *167:10 *313:46 0.000228909
37 *170:29 *313:10 3.98859e-05
38 *171:18 *313:10 0
39 *172:21 *313:35 5.69489e-05
40 *172:33 *313:35 9.72057e-06
41 *177:10 *313:10 0.000343064
42 *290:44 *313:35 0.000135547
43 *293:8 *313:46 0.000564583
44 *293:33 *313:35 0.000160339
45 *295:6 *313:46 8.06804e-06
46 *302:16 *313:63 5.01986e-05
47 *302:22 *313:63 0.000222123
48 *311:46 *313:63 0.000214091
*RES
1 *1182:Y *313:4 23 
2 *313:4 *313:10 43.8786 
3 *313:10 *1211:A2 24.595 
4 *313:10 *313:21 1.57429 
5 *313:21 *313:35 35.3236 
6 *313:35 *1213:A 23 
7 *313:21 *313:46 45.8643 
8 *313:46 *1491:A 38 
9 *313:4 *313:63 41.5793 
10 *313:63 *1379:C 23 
*END

*D_NET *314 0.0101255
*CONN
*I *1188:A I *D sky130_fd_sc_hd__or2_1
*I *1492:A I *D sky130_fd_sc_hd__buf_2
*I *1379:A I *D sky130_fd_sc_hd__or4_1
*I *1207:B2 I *D sky130_fd_sc_hd__a221oi_1
*I *1176:Y O *D sky130_fd_sc_hd__inv_2
*CAP
1 *1188:A 0.00019228
2 *1492:A 0
3 *1379:A 0
4 *1207:B2 0
5 *1176:Y 0.000191022
6 *314:44 0.000995926
7 *314:33 0.000667606
8 *314:20 0.000567671
9 *314:16 0.00153527
10 *314:12 0.00110364
11 *314:10 0.000191022
12 *314:20 *384:12 0
13 *314:20 *391:73 0.000152553
14 *314:33 *384:12 0
15 global_state_boot *314:44 3.34756e-05
16 global_state_safe_mode *1188:A 3.55887e-05
17 global_state_safe_mode *314:44 5.70112e-05
18 *1174:B *314:44 0.000105934
19 *1175:B *314:16 0.000311554
20 *1175:C *314:16 6.68822e-05
21 *1175:C *314:44 4.05745e-05
22 *1175:D_N *314:16 0.000438462
23 *1189:B *314:44 2.30917e-05
24 *1190:A2 *314:44 0.000195248
25 *1217:B *314:20 3.53054e-05
26 *1219:A *314:20 0.000250751
27 *1380:A2 *314:33 4.00259e-06
28 *82:18 *314:10 0.000142513
29 *133:10 *314:20 0.000135168
30 *133:23 *314:20 0.000273614
31 *133:23 *314:33 0.000120029
32 *134:55 *1188:A 0
33 *134:55 *314:44 0
34 *141:8 *314:44 0
35 *142:6 *314:44 2.93845e-05
36 *143:10 *314:20 0
37 *143:12 *314:20 0
38 *145:27 *314:33 6.47194e-05
39 *146:17 *314:44 0
40 *154:29 *314:20 0.000579659
41 *166:10 *314:20 0.000135547
42 *193:10 *314:10 0.000244526
43 *294:16 *314:10 0.000484539
44 *305:37 *314:16 4.94192e-05
45 *305:57 *314:44 0
46 *306:64 *314:20 7.57281e-06
47 *307:23 *314:10 0.000185434
48 *307:34 *314:10 0.000299531
49 *308:25 *314:44 7.53384e-06
50 *310:36 *314:33 8.10976e-05
51 *310:44 *314:44 2.64616e-05
52 *311:46 *314:33 3.74273e-05
53 *311:61 *314:44 0
54 *313:63 *314:33 2.64616e-05
*RES
1 *1176:Y *314:10 46.7 
2 *314:10 *314:12 15 
3 *314:12 *314:16 22.7679 
4 *314:16 *314:20 29.5829 
5 *314:20 *1207:B2 23 
6 *314:16 *314:33 27.18 
7 *314:33 *1379:A 23 
8 *314:12 *314:44 29.5829 
9 *314:44 *1492:A 38 
10 *314:44 *1188:A 41.3557 
*END

*D_NET *315 0.00548393
*CONN
*I *1462:A I *D sky130_fd_sc_hd__dlygate4sd3_1
*I *1241:D I *D sky130_fd_sc_hd__and4_2
*I *1240:C I *D sky130_fd_sc_hd__and3_1
*I *1250:A2 I *D sky130_fd_sc_hd__a21oi_1
*I *1493:A I *D sky130_fd_sc_hd__buf_2
*I *1248:B I *D sky130_fd_sc_hd__xnor2_1
*I *1385:Q O *D sky130_fd_sc_hd__dfxtp_1
*CAP
1 *1462:A 0.000222102
2 *1241:D 0
3 *1240:C 0
4 *1250:A2 2.14194e-05
5 *1493:A 0
6 *1248:B 0.000237753
7 *1385:Q 0
8 *315:58 9.65752e-05
9 *315:43 0.000308788
10 *315:29 0.000146568
11 *315:14 0.000932959
12 *315:12 0.00059354
13 *315:10 0.000522419
14 *315:4 0.000508826
15 *1248:B *1248:A 0.000155443
16 *1250:A2 *1240:A 0
17 *1250:A2 *1250:A1 5.90675e-06
18 *315:10 *326:23 0
19 *315:10 *371:63 0.000189173
20 *315:10 *373:79 0.000114092
21 *315:10 *381:8 0.000166522
22 *315:12 *1240:A 0
23 *315:14 *323:30 0.000198912
24 *315:29 *323:23 0.000167266
25 *315:43 *1250:A1 3.22879e-05
26 *315:43 *1250:B1 3.22879e-05
27 *315:43 *323:30 3.58084e-06
28 *315:43 *323:41 3.58084e-06
29 *315:43 *324:10 5.82352e-05
30 *315:58 *323:54 3.83778e-05
31 *315:58 *326:23 8.62876e-05
32 *1386:D *315:14 0.000146213
33 *1391:CLK *1462:A 0.000307132
34 *202:10 *1248:B 5.12873e-05
35 *202:10 *315:14 2.812e-05
36 *202:10 *315:29 8.87986e-05
37 *302:40 *315:58 1.94812e-05
*RES
1 *1385:Q *315:4 23 
2 *315:4 *315:10 36.8357 
3 *315:10 *315:12 0.497143 
4 *315:12 *315:14 10.6264 
5 *315:14 *1248:B 27.8057 
6 *315:14 *315:29 33.6664 
7 *315:29 *1493:A 23 
8 *315:12 *1250:A2 23.4971 
9 *315:10 *315:43 3.11232 
10 *315:43 *1240:C 23 
11 *315:43 *315:58 31.8229 
12 *315:58 *1241:D 23 
13 *315:4 *1462:A 27.3293 
*END

*D_NET *316 0.00667772
*CONN
*I *1224:A I *D sky130_fd_sc_hd__or3_1
*I *1209:A1 I *D sky130_fd_sc_hd__a31o_1
*I *1272:B1 I *D sky130_fd_sc_hd__a21oi_1
*I *1243:A I *D sky130_fd_sc_hd__and4_1
*I *1199:A I *D sky130_fd_sc_hd__or3_1
*I *1494:A I *D sky130_fd_sc_hd__buf_2
*I *1395:Q O *D sky130_fd_sc_hd__dfxtp_1
*CAP
1 *1224:A 0
2 *1209:A1 8.12489e-05
3 *1272:B1 0.00026187
4 *1243:A 0.000352986
5 *1199:A 5.51761e-05
6 *1494:A 0
7 *1395:Q 0
8 *316:72 0.000410915
9 *316:24 0.00089395
10 *316:14 0.00108584
11 *316:12 0.000613477
12 *316:10 0.000592031
13 *316:6 0.000536053
14 *1209:A1 *371:22 1.76557e-05
15 *1272:B1 *373:27 8.47306e-05
16 *316:12 *325:59 0
17 *316:14 *325:59 0
18 *316:24 *1506:A 0
19 *316:24 *1507:A 6.12496e-06
20 *316:24 *325:59 0
21 *316:24 *330:19 0
22 *316:24 *331:12 7.70038e-05
23 *316:24 *331:18 4.60901e-05
24 *316:24 *332:23 0.000130148
25 *316:24 *332:36 0.000201361
26 *316:72 *371:22 9.29763e-05
27 global_timeout_count[10] *316:24 7.53384e-06
28 *1199:C *1199:A 5.50049e-05
29 *1209:B1 *1209:A1 7.73389e-05
30 *1209:B1 *316:72 4.6595e-05
31 *1224:B *316:72 2.93747e-05
32 *1243:D *1243:A 2.43944e-05
33 *1270:D *316:24 0.000121405
34 *1273:A *316:72 2.22183e-05
35 *1274:A2 *1272:B1 6.17437e-06
36 *155:8 *316:24 0
37 *156:6 *1243:A 4.9662e-05
38 *157:10 *316:24 0
39 *161:12 *1272:B1 5.14824e-05
40 *161:14 *316:72 0
41 *161:27 *316:72 0
42 *169:10 *1209:A1 7.53384e-06
43 *181:8 *316:72 4.06849e-05
44 *198:10 *1243:A 5.72217e-05
45 *198:10 *1272:B1 5.62433e-06
46 *198:10 *316:10 1.17152e-05
47 *198:10 *316:12 3.27534e-05
48 *198:10 *316:72 7.75329e-06
49 *201:22 *316:10 0
50 *201:22 *316:12 0
51 *201:22 *316:14 0
52 *201:22 *316:24 0
53 *211:14 *316:24 0.00032025
54 *218:8 *316:10 0.000163361
*RES
1 *1395:Q *316:6 38 
2 *316:6 *316:10 3.75964 
3 *316:10 *316:12 2.43393 
4 *316:12 *316:14 2.25786 
5 *316:14 *316:24 34.7407 
6 *316:24 *1494:A 23 
7 *316:14 *1199:A 39.0979 
8 *316:12 *1243:A 43.8621 
9 *316:10 *1272:B1 42.9196 
10 *316:6 *316:72 22.3121 
11 *316:72 *1209:A1 25.0507 
12 *316:72 *1224:A 23 
*END

*D_NET *317 0.00828295
*CONN
*I *1290:A2 I *D sky130_fd_sc_hd__o211a_1
*I *1287:B1_N I *D sky130_fd_sc_hd__a21boi_1
*I *1303:B I *D sky130_fd_sc_hd__or4_1
*I *1304:A2 I *D sky130_fd_sc_hd__o41ai_1
*I *1474:X O *D sky130_fd_sc_hd__buf_1
*CAP
1 *1290:A2 0
2 *1287:B1_N 0
3 *1303:B 0
4 *1304:A2 0.000166751
5 *1474:X 2.34823e-05
6 *317:38 0.000115923
7 *317:30 0.000951881
8 *317:14 0.00100271
9 *317:12 0.00125724
10 *317:6 0.00128073
11 *1304:A2 *361:18 0.000234806
12 *317:12 *346:23 0.000304816
13 *317:12 *346:27 0.00023999
14 *317:12 *350:12 0.000424471
15 *317:12 *361:24 4.23714e-05
16 *317:30 *361:18 0.000140259
17 *317:38 *391:10 9.67842e-05
18 *317:38 *391:38 0.000194309
19 *1290:B1 *317:30 2.30292e-05
20 *1290:B1 *317:38 9.39159e-05
21 *1444:A *317:12 5.50106e-05
22 *171:10 *317:38 9.67842e-05
23 *231:39 *317:12 0.000625797
24 *231:45 *317:12 0.00022789
25 *235:10 *317:12 6.03737e-05
26 *236:8 *317:30 0.000226306
27 *262:66 *317:12 0.000226024
28 *290:12 *317:12 0
29 *291:6 *317:12 8.60475e-05
30 *291:8 *317:12 8.52481e-05
*RES
1 *1474:X *317:6 23.4971 
2 *317:6 *317:12 45.8643 
3 *317:12 *317:14 15 
4 *317:14 *1304:A2 25.6204 
5 *317:14 *1303:B 23 
6 *317:14 *317:30 12.3043 
7 *317:30 *317:38 33.7079 
8 *317:38 *1287:B1_N 23 
9 *317:30 *1290:A2 23 
*END

*D_NET *318 0.00447057
*CONN
*I *1495:A I *D sky130_fd_sc_hd__buf_2
*I *1244:B I *D sky130_fd_sc_hd__and3_1
*I *1277:A1 I *D sky130_fd_sc_hd__a21oi_1
*I *1201:A I *D sky130_fd_sc_hd__or2_1
*I *1275:A I *D sky130_fd_sc_hd__xnor2_1
*I *1396:Q O *D sky130_fd_sc_hd__dfxtp_1
*CAP
1 *1495:A 0
2 *1244:B 0
3 *1277:A1 2.49731e-05
4 *1201:A 0.000180079
5 *1275:A 0
6 *1396:Q 0.000153448
7 *318:39 0.000239081
8 *318:32 0.000192416
9 *318:24 0.000363978
10 *318:22 0.00105259
11 *318:10 0.0010685
12 *1201:A *373:27 6.17437e-06
13 *318:22 *319:6 8.91468e-07
14 *318:22 *319:10 0.000129159
15 global_timeout_count[11] *318:22 4.08641e-05
16 *1244:C *1201:A 2.32004e-05
17 *1244:C *1277:A1 6.09174e-05
18 *1244:C *318:24 3.58084e-06
19 *1278:A *318:22 0.000226306
20 *1278:A *318:24 1.56665e-05
21 *1278:B *1277:A1 3.91386e-05
22 *1278:B *318:24 1.57571e-05
23 *1278:B *318:39 3.91386e-05
24 *1397:D *318:22 2.78402e-05
25 *79:13 *318:10 3.34756e-05
26 *193:30 *318:32 0
27 *193:42 *1201:A 9.14812e-05
28 *198:35 *318:32 0.000136486
29 *199:8 *318:22 1.14154e-05
30 *199:8 *318:24 5.67058e-05
31 *221:10 *318:22 0.00010018
32 *293:67 *318:32 7.81176e-05
33 *293:134 *318:22 5.90132e-05
*RES
1 *1396:Q *318:10 40.5271 
2 *318:10 *318:22 30.9293 
3 *318:22 *318:24 2.05071 
4 *318:24 *318:32 33.8321 
5 *318:32 *1275:A 23 
6 *318:24 *318:39 0.849286 
7 *318:39 *1201:A 27.4536 
8 *318:39 *1277:A1 24.1186 
9 *318:22 *1244:B 23 
10 *318:10 *1495:A 38 
*END

*D_NET *319 0.00455877
*CONN
*I *1496:A I *D sky130_fd_sc_hd__buf_2
*I *1198:D I *D sky130_fd_sc_hd__or4_1
*I *1244:A I *D sky130_fd_sc_hd__and3_1
*I *1277:B1 I *D sky130_fd_sc_hd__a21oi_1
*I *1397:Q O *D sky130_fd_sc_hd__dfxtp_1
*CAP
1 *1496:A 0
2 *1198:D 0.000555768
3 *1244:A 0
4 *1277:B1 7.88445e-05
5 *1397:Q 8.07722e-05
6 *319:28 0.000835082
7 *319:10 0.000912559
8 *319:6 0.0011938
9 *1198:D *1280:A2 0.000274078
10 *1244:C *1277:B1 0.000127802
11 *1244:C *319:10 0
12 *1278:A *319:10 3.34247e-05
13 *1278:B *1277:B1 0.000225399
14 *1278:B *319:10 2.18409e-05
15 *1397:D *319:10 4.72035e-05
16 *1473:A *319:28 2.82105e-05
17 *293:134 *319:10 1.39317e-05
18 *318:22 *319:6 8.91468e-07
19 *318:22 *319:10 0.000129159
*RES
1 *1397:Q *319:6 24.0979 
2 *319:6 *319:10 12.0764 
3 *319:10 *1277:B1 25.5271 
4 *319:10 *1244:A 23 
5 *319:6 *319:28 35.075 
6 *319:28 *1198:D 33.1707 
7 *319:28 *1496:A 23 
*END

*D_NET *320 0.00368993
*CONN
*I *1463:A I *D sky130_fd_sc_hd__dlygate4sd3_1
*I *1497:A I *D sky130_fd_sc_hd__buf_2
*I *1198:C I *D sky130_fd_sc_hd__or4_1
*I *1245:A I *D sky130_fd_sc_hd__and2_1
*I *1398:Q O *D sky130_fd_sc_hd__dfxtp_1
*CAP
1 *1463:A 0
2 *1497:A 0.000117436
3 *1198:C 9.19219e-05
4 *1245:A 0.000144608
5 *1398:Q 0.000119988
6 *320:34 0.000290963
7 *320:10 0.00104055
8 *320:6 0.00109753
9 *1245:A *1246:B 5.3304e-05
10 global_timeout_count[15] *1497:A 1.05658e-05
11 *1398:CLK *320:10 2.64616e-05
12 *1398:D *320:10 4.87572e-05
13 *1399:CLK *1245:A 0
14 *26:8 *1497:A 0.000111726
15 *26:8 *320:34 4.22446e-05
16 *200:51 *1245:A 0.00017761
17 *200:51 *320:10 2.25419e-05
18 *200:64 *1198:C 2.5415e-05
19 *200:64 *1245:A 2.22079e-05
20 *200:64 *320:10 2.93747e-05
21 *201:66 *1198:C 0.000127272
22 *201:66 *1245:A 8.94487e-05
23 *293:138 *1198:C 0
*RES
1 *1398:Q *320:6 24.5743 
2 *320:6 *320:10 25.6264 
3 *320:10 *1245:A 41.2521 
4 *320:10 *1198:C 39.9057 
5 *320:6 *320:34 18.6664 
6 *320:34 *1497:A 40.9621 
7 *320:34 *1463:A 38 
*END

*D_NET *321 0.00750683
*CONN
*I *1498:A I *D sky130_fd_sc_hd__buf_2
*I *1283:A1 I *D sky130_fd_sc_hd__o211a_1
*I *1198:B I *D sky130_fd_sc_hd__or4_1
*I *1280:A2 I *D sky130_fd_sc_hd__a21bo_1
*I *1246:B I *D sky130_fd_sc_hd__nand3_2
*I *1284:A1 I *D sky130_fd_sc_hd__a21oi_1
*I *1282:B I *D sky130_fd_sc_hd__nand3b_1
*I *1399:Q O *D sky130_fd_sc_hd__dfxtp_1
*CAP
1 *1498:A 0
2 *1283:A1 0
3 *1198:B 9.3799e-05
4 *1280:A2 0.000176082
5 *1246:B 3.80122e-05
6 *1284:A1 0
7 *1282:B 9.92171e-05
8 *1399:Q 0.000239597
9 *321:69 0.0003195
10 *321:58 0.000587896
11 *321:34 0.000482186
12 *321:18 0.00118409
13 *321:14 0.000514508
14 *321:12 0.000213649
15 *321:10 0.000239597
16 *1198:B *1280:A1 6.17437e-06
17 *1198:B *322:49 3.77614e-05
18 *1280:A2 *1280:A1 0.000315948
19 *1280:A2 *322:49 5.3304e-05
20 *1282:B *1282:A_N 0
21 *1282:B *386:10 5.06148e-05
22 *321:58 *322:8 5.26101e-05
23 *321:58 *322:25 0.000219882
24 *321:58 *322:36 0.00042553
25 *321:58 *322:49 1.14452e-05
26 *321:69 *322:49 0.00016046
27 global_timeout_count[14] *321:10 4.08537e-05
28 *1198:D *1280:A2 0.000274078
29 *1245:A *1246:B 5.3304e-05
30 *1283:A2 *321:18 0.00018179
31 *1283:A2 *321:34 0.000165496
32 *1283:A2 *321:58 0
33 *1283:B1 *321:10 0
34 *1284:A2 *1282:B 5.16861e-05
35 *1400:CLK *321:34 0
36 *98:8 *321:10 0
37 *99:10 *1282:B 1.24376e-05
38 *99:10 *321:34 0.000114074
39 *99:10 *321:58 0
40 *193:57 *1198:B 4.17929e-05
41 *194:31 *321:18 0.000361027
42 *194:31 *321:58 0
43 *200:25 *1282:B 2.07807e-05
44 *200:25 *321:58 0
45 *201:14 *321:58 0.000216712
46 *201:66 *1198:B 0.000115013
47 *201:66 *321:58 7.39034e-05
48 *201:66 *321:69 0.000167452
49 *223:8 *1282:B 8.11264e-05
50 *293:73 *321:34 1.34354e-05
*RES
1 *1399:Q *321:10 41.48 
2 *321:10 *321:12 15 
3 *321:12 *321:14 3.95643 
4 *321:14 *321:18 8.265 
5 *321:18 *321:34 37.975 
6 *321:34 *1282:B 26.2211 
7 *321:34 *1284:A1 23 
8 *321:18 *321:58 26.7657 
9 *321:58 *1246:B 38.6214 
10 *321:58 *321:69 2.25786 
11 *321:69 *1280:A2 43.5514 
12 *321:69 *1198:B 40.175 
13 *321:14 *1283:A1 23 
14 *321:12 *1498:A 23 
*END

*D_NET *322 0.00505619
*CONN
*I *1453:A I *D sky130_fd_sc_hd__dlygate4sd3_1
*I *1280:A1 I *D sky130_fd_sc_hd__a21bo_1
*I *1198:A I *D sky130_fd_sc_hd__or4_1
*I *1246:A I *D sky130_fd_sc_hd__nand3_2
*I *1499:A I *D sky130_fd_sc_hd__buf_2
*I *1282:A_N I *D sky130_fd_sc_hd__nand3b_1
*I *1400:Q O *D sky130_fd_sc_hd__dfxtp_1
*CAP
1 *1453:A 6.4329e-05
2 *1280:A1 0.000171478
3 *1198:A 0
4 *1246:A 0
5 *1499:A 0.00059669
6 *1282:A_N 4.53107e-05
7 *1400:Q 7.51645e-05
8 *322:49 0.000286546
9 *322:36 0.000310857
10 *322:25 0.000914022
11 *322:12 0.000272538
12 *322:10 0.000170014
13 *322:8 7.51645e-05
14 *1282:A_N *386:10 3.53115e-05
15 *322:12 *386:10 6.17437e-06
16 *1198:B *1280:A1 6.17437e-06
17 *1198:B *322:49 3.77614e-05
18 *1280:A2 *1280:A1 0.000315948
19 *1280:A2 *322:49 5.3304e-05
20 *1281:A2 *322:36 1.34354e-05
21 *1282:B *1282:A_N 0
22 *1284:A2 *1282:A_N 0
23 *158:8 *322:49 3.7122e-06
24 *193:57 *322:36 0.000218962
25 *193:57 *322:49 0.000188256
26 *194:31 *322:8 0.000166513
27 *200:10 *322:25 0
28 *200:10 *322:36 0
29 *200:25 *322:25 1.19692e-05
30 *223:8 *1282:A_N 5.70419e-05
31 *223:8 *1453:A 2.79662e-05
32 *223:8 *322:12 6.16164e-05
33 *321:58 *322:8 5.26101e-05
34 *321:58 *322:25 0.000219882
35 *321:58 *322:36 0.00042553
36 *321:58 *322:49 1.14452e-05
37 *321:69 *322:49 0.00016046
*RES
1 *1400:Q *322:8 40.2579 
2 *322:8 *322:10 15 
3 *322:10 *322:12 2.05071 
4 *322:12 *1282:A_N 24.595 
5 *322:12 *322:25 17.9621 
6 *322:25 *1499:A 48.15 
7 *322:25 *322:36 5.77929 
8 *322:36 *1246:A 38 
9 *322:36 *322:49 18.7079 
10 *322:49 *1198:A 23 
11 *322:49 *1280:A1 27.4536 
12 *322:10 *1453:A 24.0979 
*END

*D_NET *323 0.00440332
*CONN
*I *1241:C I *D sky130_fd_sc_hd__and4_2
*I *1240:B I *D sky130_fd_sc_hd__and3_1
*I *1250:A1 I *D sky130_fd_sc_hd__a21oi_1
*I *1500:A I *D sky130_fd_sc_hd__buf_2
*I *1248:A I *D sky130_fd_sc_hd__xnor2_1
*I *1386:Q O *D sky130_fd_sc_hd__dfxtp_1
*CAP
1 *1241:C 0
2 *1240:B 0
3 *1250:A1 5.76294e-05
4 *1500:A 0
5 *1248:A 0.000187027
6 *1386:Q 0
7 *323:54 0.000211758
8 *323:41 0.000336563
9 *323:30 0.00100982
10 *323:23 9.4246e-05
11 *323:17 0.000957357
12 *323:4 0.000222756
13 *1250:A1 *1240:A 5.90675e-06
14 *1250:A1 *324:34 0
15 *323:54 *324:34 6.16531e-05
16 *323:54 *326:23 2.19539e-05
17 *1248:B *1248:A 0.000155443
18 *1250:A2 *1250:A1 5.90675e-06
19 *1386:D *323:30 5.65198e-05
20 *195:10 *323:54 8.62876e-05
21 *202:10 *1248:A 5.73309e-05
22 *202:10 *323:17 5.56279e-05
23 *202:10 *323:30 0.000138607
24 *203:10 *323:41 0.000141052
25 *203:10 *323:54 9.58714e-05
26 *315:14 *323:30 0.000198912
27 *315:29 *323:23 0.000167266
28 *315:43 *1250:A1 3.22879e-05
29 *315:43 *323:30 3.58084e-06
30 *315:43 *323:41 3.58084e-06
31 *315:58 *323:54 3.83778e-05
*RES
1 *1386:Q *323:4 23 
2 *323:4 *1248:A 26.8736 
3 *323:4 *323:17 0.621429 
4 *323:17 *323:23 32.2579 
5 *323:23 *1500:A 23 
6 *323:17 *323:30 12.0557 
7 *323:30 *1250:A1 24.8229 
8 *323:30 *323:41 2.05071 
9 *323:41 *1240:B 23 
10 *323:41 *323:54 34.06 
11 *323:54 *1241:C 23 
*END

*D_NET *324 0.00160832
*CONN
*I *1241:B I *D sky130_fd_sc_hd__and4_2
*I *1501:A I *D sky130_fd_sc_hd__buf_2
*I *1240:A I *D sky130_fd_sc_hd__and3_1
*I *1250:B1 I *D sky130_fd_sc_hd__a21oi_1
*I *1387:Q O *D sky130_fd_sc_hd__dfxtp_1
*CAP
1 *1241:B 0
2 *1501:A 0
3 *1240:A 2.30886e-05
4 *1250:B1 1.00124e-05
5 *1387:Q 0
6 *324:47 0.000111793
7 *324:34 0.000164334
8 *324:10 8.72863e-05
9 *324:8 0.000309788
10 *324:4 0.000203062
11 *324:34 *1252:B1 5.67058e-05
12 *324:34 *326:23 0.000106609
13 *324:34 *371:76 2.93747e-05
14 *1250:A1 *1240:A 5.90675e-06
15 *1250:A1 *324:34 0
16 *1250:A2 *1240:A 0
17 *1251:A *324:47 2.64616e-05
18 *195:10 *324:8 2.93845e-05
19 *195:10 *324:47 8.4047e-05
20 *203:10 *1250:B1 3.22879e-05
21 *203:10 *324:8 6.82514e-05
22 *203:10 *324:10 6.68919e-05
23 *203:10 *324:47 4.08537e-05
24 *204:8 *324:34 0
25 *315:12 *1240:A 0
26 *315:43 *1250:B1 3.22879e-05
27 *315:43 *324:10 5.82352e-05
28 *323:54 *324:34 6.16531e-05
*RES
1 *1387:Q *324:4 23 
2 *324:4 *324:8 2.42357 
3 *324:8 *324:10 1.57429 
4 *324:10 *1250:B1 23.6214 
5 *324:10 *1240:A 23.4971 
6 *324:8 *324:34 34.0807 
7 *324:34 *1501:A 23 
8 *324:4 *324:47 31.8229 
9 *324:47 *1241:B 23 
*END

*D_NET *325 0.00746212
*CONN
*I *1200:A1 I *D sky130_fd_sc_hd__a31o_1
*I *1223:A2 I *D sky130_fd_sc_hd__o211a_1
*I *1502:A I *D sky130_fd_sc_hd__buf_2
*I *1241:A I *D sky130_fd_sc_hd__and4_2
*I *1253:A I *D sky130_fd_sc_hd__nor2_1
*I *1388:Q O *D sky130_fd_sc_hd__dfxtp_1
*CAP
1 *1200:A1 0
2 *1223:A2 0
3 *1502:A 0
4 *1241:A 6.62087e-05
5 *1253:A 6.1801e-05
6 *1388:Q 0
7 *325:59 0.000471421
8 *325:49 0.00134547
9 *325:40 0.000404228
10 *325:25 0.000734985
11 *325:12 0.000764479
12 *325:4 0.00131218
13 *325:59 *326:70 2.58653e-05
14 *1199:B *325:49 5.3304e-05
15 *1200:A2 *325:49 1.94812e-05
16 *1200:B1 *325:49 1.37232e-05
17 *1242:A *325:49 0.000446977
18 *1253:B *325:25 0
19 *1253:B *325:40 0
20 *1391:CLK *1253:A 0.000141954
21 *1391:CLK *325:12 0.000227208
22 *86:10 *325:40 5.61311e-05
23 *157:10 *325:59 6.16439e-05
24 *157:21 *325:59 0.000166522
25 *157:30 *325:59 0.000138718
26 *157:43 *325:59 0.000247687
27 *160:8 *325:49 5.67058e-05
28 *161:14 *325:59 0
29 *195:10 *325:40 0
30 *197:10 *325:49 0.000162116
31 *198:10 *325:59 0
32 *203:10 *325:40 0
33 *204:8 *325:40 0.000123977
34 *205:8 *325:12 0
35 *210:10 *325:12 0
36 *217:10 *325:59 0
37 *302:40 *1241:A 0.000143655
38 *302:40 *325:40 0.000215671
39 *316:12 *325:59 0
40 *316:14 *325:59 0
41 *316:24 *325:59 0
*RES
1 *1388:Q *325:4 23 
2 *325:4 *325:12 39.0107 
3 *325:12 *1253:A 24.5743 
4 *325:12 *325:25 35.075 
5 *325:25 *1241:A 24.5743 
6 *325:25 *325:40 39.0107 
7 *325:40 *1502:A 23 
8 *325:4 *325:49 16.8407 
9 *325:49 *325:59 39.3629 
10 *325:59 *1223:A2 23 
11 *325:49 *1200:A1 23 
*END

*D_NET *326 0.0106155
*CONN
*I *1208:B I *D sky130_fd_sc_hd__or2_1
*I *1223:A1 I *D sky130_fd_sc_hd__o211a_1
*I *1258:A1 I *D sky130_fd_sc_hd__a21oi_1
*I *1196:B I *D sky130_fd_sc_hd__and2_1
*I *1503:A I *D sky130_fd_sc_hd__buf_2
*I *1256:A I *D sky130_fd_sc_hd__xnor2_1
*I *1389:Q O *D sky130_fd_sc_hd__dfxtp_1
*CAP
1 *1208:B 0
2 *1223:A1 0
3 *1258:A1 0
4 *1196:B 0.000243105
5 *1503:A 0
6 *1256:A 0.000393296
7 *1389:Q 0
8 *326:70 0.000456688
9 *326:60 0.000674114
10 *326:36 0.000351066
11 *326:34 0.000924705
12 *326:23 0.00110436
13 *326:6 0.00189901
14 *326:4 0.00100068
15 *1196:B *1196:A 0.000139357
16 *1196:B *327:10 5.24393e-05
17 *1196:B *327:12 0.000141888
18 *1196:B *371:32 0
19 *326:23 *371:38 0.000133521
20 *326:23 *371:44 0.000157216
21 *326:23 *371:63 0
22 *326:23 *373:69 0
23 *326:34 *1260:B1 4.33617e-05
24 *326:36 *327:10 0.000160182
25 *326:60 *1260:B1 0
26 *326:60 *327:10 0.000367234
27 *326:60 *327:43 0.000228903
28 *326:60 *371:22 0.000401106
29 *326:60 *371:24 0
30 *326:70 *327:10 0
31 *326:70 *327:51 0.000425107
32 *1253:B *326:23 0
33 *1256:B *1256:A 5.98263e-05
34 *1389:CLK *1256:A 3.72114e-05
35 *1389:D *1256:A 4.9054e-06
36 *88:10 *326:23 8.4047e-05
37 *195:10 *326:23 0
38 *196:10 *326:23 0.000621028
39 *196:28 *1196:B 1.14452e-05
40 *196:28 *326:36 5.01986e-05
41 *197:34 *1196:B 0.000141869
42 *206:10 *326:23 6.68793e-05
43 *207:8 *326:23 0
44 *315:10 *326:23 0
45 *315:58 *326:23 8.62876e-05
46 *323:54 *326:23 2.19539e-05
47 *324:34 *326:23 0.000106609
48 *325:59 *326:70 2.58653e-05
*RES
1 *1389:Q *326:4 23 
2 *326:4 *326:6 5.38571 
3 *326:6 *1256:A 28.9243 
4 *326:6 *326:23 39.795 
5 *326:23 *1503:A 38 
6 *326:4 *326:34 22.7679 
7 *326:34 *326:36 2.25786 
8 *326:36 *1196:B 43.6136 
9 *326:36 *1258:A1 38 
10 *326:34 *326:60 22.7471 
11 *326:60 *326:70 38.265 
12 *326:70 *1223:A1 23 
13 *326:60 *1208:B 23 
*END

*D_NET *327 0.00691826
*CONN
*I *1208:A I *D sky130_fd_sc_hd__or2_1
*I *1223:C1 I *D sky130_fd_sc_hd__o211a_1
*I *1258:B1 I *D sky130_fd_sc_hd__a21oi_1
*I *1196:A I *D sky130_fd_sc_hd__and2_1
*I *1504:A I *D sky130_fd_sc_hd__buf_2
*I *1390:Q O *D sky130_fd_sc_hd__dfxtp_1
*CAP
1 *1208:A 3.91108e-05
2 *1223:C1 0
3 *1258:B1 6.1217e-05
4 *1196:A 7.47513e-05
5 *1504:A 0
6 *1390:Q 0
7 *327:51 0.000223873
8 *327:43 0.000445018
9 *327:16 0.000692161
10 *327:12 0.000835724
11 *327:10 0.000489942
12 *327:4 0.000541947
13 *1208:A *371:22 7.60125e-05
14 *327:10 *373:31 4.96264e-05
15 *327:12 *373:31 7.91493e-05
16 *327:16 *373:31 0.000208091
17 *327:16 *373:37 0.0010737
18 *327:43 *371:22 1.41129e-05
19 *1196:B *1196:A 0.000139357
20 *1196:B *327:10 5.24393e-05
21 *1196:B *327:12 0.000141888
22 *1262:A2 *327:16 0.000210945
23 *1272:A2 *1258:B1 5.67837e-05
24 *197:12 *327:16 9.63918e-05
25 *197:34 *327:12 8.68016e-06
26 *197:34 *327:16 0.000125915
27 *302:34 *327:51 0
28 *326:36 *327:10 0.000160182
29 *326:60 *327:10 0.000367234
30 *326:60 *327:43 0.000228903
31 *326:70 *327:10 0
32 *326:70 *327:51 0.000425107
*RES
1 *1390:Q *327:4 23 
2 *327:4 *327:10 22.3536 
3 *327:10 *327:12 2.25786 
4 *327:12 *327:16 34.865 
5 *327:16 *1504:A 23 
6 *327:12 *1196:A 39.5743 
7 *327:10 *1258:B1 39.1186 
8 *327:4 *327:43 3.00357 
9 *327:43 *327:51 35.3857 
10 *327:51 *1223:C1 23 
11 *327:43 *1208:A 24.1082 
*END

*D_NET *328 0.000823515
*CONN
*I *1226:B I *D sky130_fd_sc_hd__or4_1
*I *1475:X O *D sky130_fd_sc_hd__clkbuf_1
*CAP
1 *1226:B 7.35367e-05
2 *1475:X 0.000200721
3 *328:10 0.000274258
4 *9:15 *328:10 5.3304e-05
5 *73:11 *328:10 0
6 *182:8 *328:10 4.08641e-05
7 *183:14 *1226:B 9.67842e-05
8 *193:10 *328:10 0
9 *311:61 *328:10 8.4047e-05
*RES
1 *1475:X *328:10 41.5836 
2 *328:10 *1226:B 39.0979 
*END

*D_NET *329 0.00561194
*CONN
*I *1197:D I *D sky130_fd_sc_hd__and4_1
*I *1263:B I *D sky130_fd_sc_hd__and3_1
*I *1261:A1 I *D sky130_fd_sc_hd__a31o_1
*I *1456:A I *D sky130_fd_sc_hd__dlygate4sd3_1
*I *1264:A1 I *D sky130_fd_sc_hd__a31o_1
*I *1505:A I *D sky130_fd_sc_hd__buf_2
*I *1391:Q O *D sky130_fd_sc_hd__dfxtp_1
*CAP
1 *1197:D 3.63239e-05
2 *1263:B 4.09885e-05
3 *1261:A1 0.000708854
4 *1456:A 0
5 *1264:A1 0.000166703
6 *1505:A 0.000537246
7 *1391:Q 0.000277735
8 *329:47 0.000821137
9 *329:41 0.000296197
10 *329:12 0.000832355
11 *329:8 0.000594721
12 *1261:A1 *1261:B1 4.96717e-05
13 *1261:A1 *371:95 2.9853e-05
14 *1505:A *1506:A 0
15 *1505:A *330:19 0
16 *1505:A *371:95 0
17 *329:12 *371:95 0
18 *329:12 *389:8 0
19 *1264:A2 *1264:A1 2.4754e-05
20 *1264:A2 *329:47 0.000164282
21 *157:10 *1197:D 1.59094e-05
22 *157:10 *329:41 1.94693e-05
23 *196:55 *1264:A1 0.000271476
24 *196:55 *329:12 0.000225265
25 *197:64 *1261:A1 3.16052e-05
26 *211:10 *1261:A1 5.50049e-05
27 *211:10 *1263:B 5.3304e-05
28 *212:10 *1264:A1 0.000226306
29 *212:10 *1505:A 5.01247e-05
30 *213:10 *1505:A 0
31 *302:34 *1505:A 0
32 *302:34 *329:12 0
33 *302:34 *329:47 8.26569e-05
*RES
1 *1391:Q *329:8 27.8057 
2 *329:8 *329:12 18.3143 
3 *329:12 *1505:A 47.8186 
4 *329:12 *1264:A1 42.93 
5 *329:8 *1456:A 23 
6 *329:8 *329:41 3.00357 
7 *329:41 *329:47 32.2579 
8 *329:47 *1261:A1 32.57 
9 *329:47 *1263:B 23.6214 
10 *329:41 *1197:D 23.6214 
*END

*D_NET *330 0.00311599
*CONN
*I *1263:A I *D sky130_fd_sc_hd__and3_1
*I *1195:C I *D sky130_fd_sc_hd__and3_1
*I *1197:C I *D sky130_fd_sc_hd__and4_1
*I *1264:B1 I *D sky130_fd_sc_hd__a31o_1
*I *1506:A I *D sky130_fd_sc_hd__buf_2
*I *1392:Q O *D sky130_fd_sc_hd__dfxtp_1
*CAP
1 *1263:A 0.000232247
2 *1195:C 0.000114391
3 *1197:C 8.7012e-05
4 *1264:B1 0
5 *1506:A 0.000126229
6 *1392:Q 0.000227104
7 *330:30 0.000201403
8 *330:28 0.000341163
9 *330:19 0.000487223
10 *330:8 0.00073164
11 *1195:C *1197:A 0.000131369
12 *1195:C *1197:B 3.70553e-06
13 *1197:C *1197:B 5.26733e-06
14 *1264:A2 *1263:A 4.24313e-05
15 *1264:A2 *330:28 3.81391e-05
16 *1270:D *330:19 0
17 *1505:A *1506:A 0
18 *1505:A *330:19 0
19 *155:8 *1263:A 0.000107641
20 *157:10 *1197:C 1.56662e-06
21 *157:10 *1263:A 9.63918e-05
22 *211:10 *1263:A 1.94693e-05
23 *211:14 *1263:A 0
24 *211:14 *330:19 0
25 *211:14 *330:28 0
26 *216:8 *330:19 2.79004e-05
27 *293:79 *330:8 9.36953e-05
28 *302:34 *330:19 0
29 *302:34 *330:28 0
30 *316:24 *1506:A 0
31 *316:24 *330:19 0
*RES
1 *1392:Q *330:8 41.48 
2 *330:8 *1506:A 40.2579 
3 *330:8 *330:19 6.48357 
4 *330:19 *1264:B1 38 
5 *330:19 *330:28 2.25786 
6 *330:28 *330:30 15 
7 *330:30 *1197:C 24.0979 
8 *330:30 *1195:C 24.9161 
9 *330:28 *1263:A 42.9921 
*END

*D_NET *331 0.0048346
*CONN
*I *1267:A I *D sky130_fd_sc_hd__xnor2_1
*I *1195:B I *D sky130_fd_sc_hd__and3_1
*I *1197:B I *D sky130_fd_sc_hd__and4_1
*I *1269:A1 I *D sky130_fd_sc_hd__a31o_1
*I *1270:B I *D sky130_fd_sc_hd__nand4_1
*I *1507:A I *D sky130_fd_sc_hd__buf_2
*I *1393:Q O *D sky130_fd_sc_hd__dfxtp_1
*CAP
1 *1267:A 0
2 *1195:B 0
3 *1197:B 0.00024538
4 *1269:A1 0
5 *1270:B 0.000216155
6 *1507:A 0.000283521
7 *1393:Q 0.000192234
8 *331:51 0.000442412
9 *331:20 0.000553906
10 *331:18 0.000234756
11 *331:12 0.000469114
12 *331:8 0.00028379
13 *1197:B *1197:A 4.39278e-05
14 *1507:A *332:23 0.000139657
15 *1507:A *332:56 0
16 *331:18 *332:36 0.000398924
17 *331:20 *332:23 0.000128574
18 *331:20 *332:36 1.14452e-05
19 *331:51 *1197:A 2.13733e-05
20 *331:51 *332:36 3.53051e-05
21 global_timeout_count[8] *1507:A 5.41385e-05
22 *1195:C *1197:B 3.70553e-06
23 *1197:C *1197:B 5.26733e-06
24 *1270:C *1507:A 8.72173e-05
25 *1270:C *331:18 1.14452e-05
26 *1270:C *331:20 0.000138718
27 *194:12 *331:18 0
28 *201:22 *331:12 0
29 *201:22 *331:18 0
30 *201:33 *331:18 0.00037336
31 *214:8 *331:12 2.5415e-05
32 *214:8 *331:18 4.10832e-05
33 *293:79 *1270:B 0.000264559
34 *316:24 *1507:A 6.12496e-06
35 *316:24 *331:12 7.70038e-05
36 *316:24 *331:18 4.60901e-05
*RES
1 *1393:Q *331:8 26.3764 
2 *331:8 *331:12 17.2579 
3 *331:12 *331:18 7.60214 
4 *331:18 *331:20 1.90571 
5 *331:20 *1507:A 44.0693 
6 *331:20 *1270:B 41.0036 
7 *331:18 *1269:A1 38 
8 *331:12 *331:51 17.5271 
9 *331:51 *1197:B 26.7286 
10 *331:51 *1195:B 23 
11 *331:8 *1267:A 23 
*END

*D_NET *332 0.00376494
*CONN
*I *1508:A I *D sky130_fd_sc_hd__buf_2
*I *1195:A I *D sky130_fd_sc_hd__and3_1
*I *1197:A I *D sky130_fd_sc_hd__and4_1
*I *1269:B1 I *D sky130_fd_sc_hd__a31o_1
*I *1270:A I *D sky130_fd_sc_hd__nand4_1
*I *1394:Q O *D sky130_fd_sc_hd__dfxtp_1
*CAP
1 *1508:A 0
2 *1195:A 0
3 *1197:A 8.97e-05
4 *1269:B1 0
5 *1270:A 0.000183135
6 *1394:Q 0
7 *332:56 0.000424381
8 *332:36 0.000314389
9 *332:23 0.000345262
10 *332:19 0.000613507
11 *332:4 0.000251688
12 *1195:C *1197:A 0.000131369
13 *1197:B *1197:A 4.39278e-05
14 *1270:C *1270:A 5.81314e-05
15 *1270:C *332:19 5.12254e-05
16 *1270:C *332:56 4.96717e-05
17 *1507:A *332:23 0.000139657
18 *1507:A *332:56 0
19 *293:79 *1270:A 5.21138e-05
20 *293:79 *332:56 8.96493e-05
21 *316:24 *332:23 0.000130148
22 *316:24 *332:36 0.000201361
23 *331:18 *332:36 0.000398924
24 *331:20 *332:23 0.000128574
25 *331:20 *332:36 1.14452e-05
26 *331:51 *1197:A 2.13733e-05
27 *331:51 *332:36 3.53051e-05
*RES
1 *1394:Q *332:4 23 
2 *332:4 *1270:A 26.6664 
3 *332:4 *332:19 1.09786 
4 *332:19 *332:23 18.6664 
5 *332:23 *1269:B1 38 
6 *332:23 *332:36 22.0014 
7 *332:36 *1197:A 25.5271 
8 *332:36 *1195:A 23 
9 *332:19 *332:56 36.6907 
10 *332:56 *1508:A 23 
*END

*D_NET *333 0.00232819
*CONN
*I *1509:A I *D sky130_fd_sc_hd__buf_2
*I *1452:A I *D sky130_fd_sc_hd__dlygate4sd3_1
*I *1408:Q O *D sky130_fd_sc_hd__dfxtp_1
*CAP
1 *1509:A 0
2 *1452:A 0
3 *1408:Q 0.000214962
4 *333:21 0.000547997
5 *333:8 0.000762959
6 *333:21 *366:28 9.74235e-05
7 *333:21 *367:20 0.000118736
8 *333:21 *367:32 0.000169683
9 *333:21 *383:8 0
10 *68:9 *333:21 0
11 *135:40 *333:8 0.000173442
12 *135:57 *333:21 1.99391e-05
13 *135:70 *333:21 0.000223043
*RES
1 *1408:Q *333:8 27.4536 
2 *333:8 *1452:A 23 
3 *333:8 *333:21 41.6829 
4 *333:21 *1509:A 23 
*END

*D_NET *334 0.00648005
*CONN
*I *1510:A I *D sky130_fd_sc_hd__buf_2
*I *1434:A I *D sky130_fd_sc_hd__clkbuf_1
*I *1170:Y O *D sky130_fd_sc_hd__inv_2
*CAP
1 *1510:A 0
2 *1434:A 0.000499572
3 *1170:Y 0.000987422
4 *334:25 0.000870128
5 *334:8 0.0013697
6 *334:6 0.000987422
7 *1434:A *1298:A 0.000150242
8 *1434:A *1533:A 0
9 *1434:A *359:22 0
10 *1434:A *370:18 9.47067e-05
11 *1434:A *370:20 9.11002e-05
12 *334:6 *1307:A1 4.32201e-05
13 *334:6 *1307:B1 0.00021732
14 *334:6 *354:69 9.80703e-06
15 *334:6 *362:34 1.05317e-05
16 *334:25 *1534:A 0
17 *334:25 *358:74 0
18 *334:25 *360:23 0
19 *334:25 *370:18 0.000230617
20 *334:25 *370:63 0.000220485
21 *1410:CLK *334:25 0.000213012
22 *1471:A *1434:A 5.32119e-05
23 *50:12 *334:25 5.50049e-05
24 *110:8 *334:25 0.000114092
25 *116:10 *1434:A 4.96264e-05
26 *240:6 *334:6 0.000187069
27 *255:10 *334:25 0
28 *268:10 *1434:A 0
29 *292:54 *334:25 2.57556e-05
*RES
1 *1170:Y *334:6 36.485 
2 *334:6 *334:8 15 
3 *334:8 *1434:A 48.8957 
4 *334:8 *334:25 36.1907 
5 *334:25 *1510:A 23 
*END

*D_NET *335 0.00694676
*CONN
*I *1511:A I *D sky130_fd_sc_hd__buf_2
*I *1185:B I *D sky130_fd_sc_hd__or4b_1
*I *1169:A I *D sky130_fd_sc_hd__or4b_2
*I *1171:D_N I *D sky130_fd_sc_hd__or4b_2
*I *1167:B I *D sky130_fd_sc_hd__or4b_2
*I *1427:Q O *D sky130_fd_sc_hd__dfxtp_1
*CAP
1 *1511:A 0.000550678
2 *1185:B 0
3 *1169:A 1.49804e-05
4 *1171:D_N 0.000326499
5 *1167:B 0
6 *1427:Q 4.96829e-05
7 *335:43 0.00105378
8 *335:32 0.000574964
9 *335:14 0.000629618
10 *335:10 0.00115118
11 *335:8 0.000840863
12 *1169:A *1169:B 5.50106e-05
13 *1171:D_N *1169:B 8.52481e-05
14 *1171:D_N *336:36 0
15 *1171:D_N *338:16 9.84794e-05
16 *1171:D_N *338:29 0.000170394
17 *1511:A *1513:A 0.000185428
18 *1511:A *342:14 0.00017032
19 *1511:A *344:10 7.98155e-05
20 *335:10 *337:10 0
21 *335:10 *375:54 0
22 *335:14 *1169:B 0.000175727
23 *335:32 *1169:C 0
24 *335:43 *337:44 0
25 *335:43 *342:14 7.91493e-05
26 *335:43 *344:10 2.5415e-05
27 group_state_bits[2] *1511:A 3.06338e-05
28 group_state_suspended *1511:A 1.14876e-05
29 *1296:C *1169:A 5.50106e-05
30 *1318:B *335:43 6.43005e-05
31 *139:8 *335:10 0.000188926
32 *139:8 *335:32 7.93144e-05
33 *139:8 *335:43 5.24393e-05
34 *140:10 *1171:D_N 2.54193e-05
35 *230:18 *335:10 0.000111852
36 *230:18 *335:32 1.01436e-05
37 *292:183 *335:10 0
38 *294:157 *335:43 0
39 *302:104 *335:10 0
40 *302:104 *335:43 0
*RES
1 *1427:Q *335:8 38.6214 
2 *335:8 *335:10 15.2871 
3 *335:10 *335:14 18.9564 
4 *335:14 *1167:B 23 
5 *335:14 *1171:D_N 29.7321 
6 *335:10 *335:32 1.20143 
7 *335:32 *1169:A 38.6214 
8 *335:32 *335:43 10.3571 
9 *335:43 *1185:B 38 
10 *335:43 *1511:A 49.1029 
*END

*D_NET *336 0.00717955
*CONN
*I *1185:A I *D sky130_fd_sc_hd__or4b_1
*I *1512:A I *D sky130_fd_sc_hd__buf_2
*I *1169:D_N I *D sky130_fd_sc_hd__or4b_2
*I *1167:A I *D sky130_fd_sc_hd__or4b_2
*I *1171:A I *D sky130_fd_sc_hd__or4b_2
*I *1319:A I *D sky130_fd_sc_hd__xor2_1
*I *1428:Q O *D sky130_fd_sc_hd__dfxtp_1
*CAP
1 *1185:A 0.000675346
2 *1512:A 0
3 *1169:D_N 0.000122086
4 *1167:A 1.31028e-05
5 *1171:A 0
6 *1319:A 9.80662e-05
7 *1428:Q 0.000125693
8 *336:64 0.000299595
9 *336:56 0.00111304
10 *336:36 0.000308285
11 *336:27 0.000900996
12 *336:12 0.000975241
13 *336:8 0.000413067
14 *1167:A *1167:C 5.90675e-06
15 *1169:D_N *1169:B 0.000113312
16 *1185:A *1185:C 7.44354e-05
17 *1185:A *1185:D_N 0
18 *1185:A *338:8 0.000127023
19 *1185:A *375:73 0.000301719
20 *336:12 *340:25 9.70962e-05
21 *336:12 *375:73 0
22 *336:27 *337:35 4.48671e-05
23 *336:27 *338:10 0.000249909
24 *336:27 *338:16 0.000196549
25 *336:27 *375:54 0
26 *336:36 *1167:C 0
27 *336:36 *1169:B 5.41288e-05
28 *336:36 *338:16 2.93747e-05
29 *336:36 *338:29 9.91895e-05
30 *336:56 *340:25 5.51118e-05
31 *336:56 *375:73 0
32 *336:64 *340:25 0
33 *336:64 *375:73 0.000140259
34 *1171:D_N *336:36 0
35 *1296:C *1169:D_N 0
36 *1370:B *336:64 5.50049e-05
37 *1430:CLK *1185:A 7.27182e-05
38 *1430:CLK *336:64 6.36209e-05
39 *1430:D *1185:A 8.79002e-05
40 *138:10 *1169:D_N 9.67842e-05
41 *138:10 *336:36 0.000140259
42 *149:10 *1185:A 2.98648e-05
43 *149:16 *336:27 0
44 *294:142 *1185:A 0
*RES
1 *1428:Q *336:8 39.5743 
2 *336:8 *336:12 18.6664 
3 *336:12 *1319:A 24.5743 
4 *336:12 *336:27 42.5943 
5 *336:27 *1171:A 23 
6 *336:27 *336:36 3.97714 
7 *336:36 *1167:A 23.4971 
8 *336:36 *1169:D_N 26.0243 
9 *336:8 *336:56 17.61 
10 *336:56 *336:64 35.7379 
11 *336:64 *1512:A 23 
12 *336:56 *1185:A 36.9821 
*END

*D_NET *337 0.0063431
*CONN
*I *1169:C I *D sky130_fd_sc_hd__or4b_2
*I *1513:A I *D sky130_fd_sc_hd__buf_2
*I *1185:C I *D sky130_fd_sc_hd__or4b_1
*I *1171:C I *D sky130_fd_sc_hd__or4b_2
*I *1167:D_N I *D sky130_fd_sc_hd__or4b_2
*I *1429:Q O *D sky130_fd_sc_hd__dfxtp_1
*CAP
1 *1169:C 0.000119805
2 *1513:A 0.000211371
3 *1185:C 7.34038e-05
4 *1171:C 0
5 *1167:D_N 0
6 *1429:Q 0.000392837
7 *337:44 0.000646232
8 *337:35 0.000361925
9 *337:27 0.000802286
10 *337:18 0.000369055
11 *337:10 0.000802793
12 *1185:C *1185:D_N 9.25221e-05
13 *1513:A *342:14 0.000105175
14 *337:35 *375:54 0
15 *337:44 *342:14 0.000101647
16 group_state_suspended *1513:A 1.94693e-05
17 *1185:A *1185:C 7.44354e-05
18 *1318:B *337:27 4.85126e-05
19 *1318:B *337:35 0.000190835
20 *1318:B *337:44 3.0647e-05
21 *1511:A *1513:A 0.000185428
22 *138:10 *337:35 6.38845e-05
23 *139:8 *337:18 1.34354e-05
24 *139:12 *337:18 7.88828e-05
25 *149:10 *1185:C 5.50106e-05
26 *149:10 *337:44 9.28739e-05
27 *149:16 *337:18 0.000103101
28 *149:16 *337:27 5.72749e-05
29 *149:16 *337:44 0.000247084
30 *229:10 *337:18 7.8128e-05
31 *229:10 *337:27 1.83564e-05
32 *230:18 *1169:C 3.5664e-05
33 *230:18 *337:18 0.000223698
34 *302:104 *1169:C 0.000218962
35 *302:104 *337:10 0.000383494
36 *335:10 *337:10 0
37 *335:32 *1169:C 0
38 *335:43 *337:44 0
39 *336:27 *337:35 4.48671e-05
*RES
1 *1429:Q *337:10 45.6021 
2 *337:10 *337:18 36.9186 
3 *337:18 *1167:D_N 38 
4 *337:18 *337:27 1.90571 
5 *337:27 *337:35 35.8621 
6 *337:35 *1171:C 38 
7 *337:27 *337:44 9.30071 
8 *337:44 *1185:C 40.0507 
9 *337:44 *1513:A 43.0129 
10 *337:10 *1169:C 40.9621 
*END

*D_NET *338 0.00589112
*CONN
*I *1185:D_N I *D sky130_fd_sc_hd__or4b_1
*I *1514:A I *D sky130_fd_sc_hd__buf_2
*I *1315:A_N I *D sky130_fd_sc_hd__nand2b_1
*I *1169:B I *D sky130_fd_sc_hd__or4b_2
*I *1167:C I *D sky130_fd_sc_hd__or4b_2
*I *1171:B I *D sky130_fd_sc_hd__or4b_2
*I *1430:Q O *D sky130_fd_sc_hd__dfxtp_1
*CAP
1 *1185:D_N 0.000317987
2 *1514:A 0.000347838
3 *1315:A_N 0
4 *1169:B 0.000243277
5 *1167:C 2.14194e-05
6 *1171:B 0
7 *1430:Q 0
8 *338:29 0.000314069
9 *338:22 4.1287e-05
10 *338:16 0.000219056
11 *338:10 0.000420489
12 *338:8 0.00102911
13 *338:4 0.000707167
14 *338:10 *375:73 0
15 group_state_bits[0] *1514:A 4.06849e-05
16 *1167:A *1167:C 5.90675e-06
17 *1169:A *1169:B 5.50106e-05
18 *1169:D_N *1169:B 0.000113312
19 *1171:D_N *1169:B 8.52481e-05
20 *1171:D_N *338:16 9.84794e-05
21 *1171:D_N *338:29 0.000170394
22 *1185:A *1185:D_N 0
23 *1185:A *338:8 0.000127023
24 *1185:C *1185:D_N 9.25221e-05
25 *1296:C *1169:B 5.19899e-05
26 *1373:B *338:10 0.000211599
27 *1373:B *338:16 4.6318e-06
28 *1430:D *338:8 1.06063e-06
29 *129:10 *1514:A 4.17929e-05
30 *129:10 *338:10 4.08641e-05
31 *138:10 *338:16 0
32 *138:10 *338:22 1.86869e-05
33 *149:10 *1185:D_N 5.50106e-05
34 *149:10 *1514:A 0
35 *149:10 *338:8 9.67842e-05
36 *149:10 *338:10 0
37 *149:16 *338:10 0
38 *247:10 *338:16 0.00010763
39 *247:10 *338:22 0
40 *294:142 *1185:D_N 5.90675e-06
41 *335:14 *1169:B 0.000175727
42 *336:27 *338:10 0.000249909
43 *336:27 *338:16 0.000196549
44 *336:36 *1167:C 0
45 *336:36 *1169:B 5.41288e-05
46 *336:36 *338:16 2.93747e-05
47 *336:36 *338:29 9.91895e-05
*RES
1 *1430:Q *338:4 23 
2 *338:4 *338:8 20.8621 
3 *338:8 *338:10 7.89214 
4 *338:10 *338:16 19.06 
5 *338:16 *338:22 30.8493 
6 *338:22 *1171:B 23 
7 *338:16 *338:29 2.05071 
8 *338:29 *1167:C 23.4971 
9 *338:29 *1169:B 29.235 
10 *338:10 *1315:A_N 38 
11 *338:8 *1514:A 44.67 
12 *338:4 *1185:D_N 28.4479 
*END

*D_NET *339 0.00597042
*CONN
*I *1226:A I *D sky130_fd_sc_hd__or4_1
*I *1221:B2 I *D sky130_fd_sc_hd__o32a_1
*I *1207:A1 I *D sky130_fd_sc_hd__a221oi_1
*I *1476:X O *D sky130_fd_sc_hd__buf_1
*CAP
1 *1226:A 0.000376303
2 *1221:B2 0
3 *1207:A1 6.06135e-05
4 *1476:X 0.000300094
5 *339:29 0.000288473
6 *339:14 0.000573361
7 *339:10 0.000900672
8 *339:14 *392:28 1.5769e-05
9 global_state_locked *339:10 1.9574e-05
10 *1205:A2 *1207:A1 0
11 *1466:A *1226:A 0
12 *1467:A *1226:A 0
13 *79:13 *339:10 3.22879e-05
14 *137:6 *339:14 0.00010018
15 *148:16 *339:29 1.37349e-05
16 *164:6 *1207:A1 4.79544e-05
17 *182:8 *1226:A 0
18 *183:14 *1226:A 2.93747e-05
19 *295:6 *339:14 1.40958e-05
20 *295:14 *1226:A 0
21 *295:14 *339:14 0.000111308
22 *295:25 *1226:A 0.000138727
23 *298:8 *1226:A 7.03869e-05
24 *301:10 *339:29 1.58805e-05
25 *301:27 *339:29 0.000548778
26 *306:14 *339:10 0
27 *306:14 *339:14 0.00018282
28 *306:29 *1207:A1 5.3304e-05
29 *306:29 *339:14 0.000154799
30 *306:37 *339:29 3.47781e-05
31 *306:48 *339:29 0.000604312
32 *313:46 *1207:A1 0.000141052
33 *313:46 *339:10 0.00019747
34 *313:46 *339:14 0.000944322
*RES
1 *1476:X *339:10 43.8207 
2 *339:10 *339:14 25.6264 
3 *339:14 *1207:A1 25.0714 
4 *339:14 *339:29 38.5964 
5 *339:29 *1221:B2 23 
6 *339:10 *1226:A 44.7529 
*END

*D_NET *340 0.00346864
*CONN
*I *1515:A I *D sky130_fd_sc_hd__buf_2
*I *1308:B1 I *D sky130_fd_sc_hd__o31ai_1
*I *1172:Y O *D sky130_fd_sc_hd__inv_2
*CAP
1 *1515:A 0
2 *1308:B1 0.00023358
3 *1172:Y 5.67095e-05
4 *340:25 0.000546166
5 *340:8 0.000836456
6 *1308:B1 *362:34 0
7 *340:25 *375:73 0
8 *1308:A2 *1308:B1 4.79544e-05
9 *1370:B *340:25 0.000465951
10 *1542:A *1308:B1 0.00014196
11 *139:24 *1308:B1 3.5664e-05
12 *140:10 *1308:B1 2.22079e-05
13 *140:10 *340:25 7.66085e-05
14 *140:18 *340:8 1.59094e-05
15 *140:26 *1308:B1 0
16 *246:10 *1308:B1 0.000276588
17 *246:10 *340:25 0.000560677
18 *252:8 *340:25 0
19 *336:12 *340:25 9.70962e-05
20 *336:56 *340:25 5.51118e-05
21 *336:64 *340:25 0
*RES
1 *1172:Y *340:8 38.6214 
2 *340:8 *1308:B1 44.3386 
3 *340:8 *340:25 30.9914 
4 *340:25 *1515:A 23 
*END

*D_NET *341 0.000165073
*CONN
*I *1516:A I *D sky130_fd_sc_hd__buf_2
*I *1434:X O *D sky130_fd_sc_hd__clkbuf_1
*CAP
1 *1516:A 8.25367e-05
2 *1434:X 8.25367e-05
*RES
1 *1434:X *1516:A 47.4707 
*END

*D_NET *342 0.00124807
*CONN
*I *1435:A I *D sky130_fd_sc_hd__clkbuf_1
*I *1517:A I *D sky130_fd_sc_hd__buf_2
*I *1186:Y O *D sky130_fd_sc_hd__inv_2
*CAP
1 *1435:A 0
2 *1517:A 0
3 *1186:Y 7.04279e-05
4 *342:14 0.000255787
5 *342:6 0.000326215
6 *1373:A *342:6 0.000139352
7 *1511:A *342:14 0.00017032
8 *1513:A *342:14 0.000105175
9 *335:43 *342:14 7.91493e-05
10 *337:44 *342:14 0.000101647
*RES
1 *1186:Y *342:6 24.5743 
2 *342:6 *342:14 36.4007 
3 *342:14 *1517:A 23 
4 *342:6 *1435:A 23 
*END

*D_NET *343 0.00838638
*CONN
*I *1288:A1 I *D sky130_fd_sc_hd__o21a_1
*I *1289:A1 I *D sky130_fd_sc_hd__o21ai_1
*I *1304:B1 I *D sky130_fd_sc_hd__o41ai_1
*I *1436:A I *D sky130_fd_sc_hd__clkbuf_1
*I *1518:A I *D sky130_fd_sc_hd__buf_2
*I *1212:B I *D sky130_fd_sc_hd__nor2_1
*I *1168:Y O *D sky130_fd_sc_hd__inv_2
*CAP
1 *1288:A1 0
2 *1289:A1 2.2996e-05
3 *1304:B1 0
4 *1436:A 3.94661e-05
5 *1518:A 0
6 *1212:B 0
7 *1168:Y 0.000119743
8 *343:59 0.000160109
9 *343:39 0.000861076
10 *343:33 0.0024233
11 *343:25 0.00196393
12 *343:14 0.000425333
13 *343:12 0.000290867
14 *343:8 0.00024335
15 *1436:A *1338:A 0
16 *343:8 *385:8 0
17 *343:8 *391:18 1.44546e-05
18 *343:12 *391:18 3.07161e-05
19 *343:33 *1338:A 0.000143655
20 *343:33 *357:26 0.000189138
21 *343:39 *348:8 0
22 *343:39 *350:8 0
23 *343:39 *361:8 0.000169674
24 *343:59 *1303:A 0
25 *343:59 *350:18 0
26 group_timeout_count[10] *343:39 0
27 *1290:B1 *343:12 0
28 *1299:C1 *343:33 0.00014196
29 *1304:A3 *343:59 1.02387e-05
30 *1415:CLK *1436:A 0
31 *1415:CLK *343:39 0
32 *1421:CLK *343:39 0
33 *3:9 *1436:A 0
34 *3:9 *343:39 0
35 *38:11 *343:39 9.6402e-05
36 *120:10 *343:39 0
37 *171:10 *1289:A1 4.34745e-05
38 *171:10 *343:14 0.00035673
39 *171:10 *343:25 2.32004e-05
40 *226:12 *343:12 5.80963e-05
41 *232:10 *343:33 0.000141954
42 *236:12 *343:8 0
43 *236:12 *343:12 0
44 *237:20 *343:59 6.4393e-05
45 *262:29 *1436:A 0
46 *262:44 *343:33 0.000190686
47 *278:10 *343:39 1.94522e-05
48 *278:14 *343:39 0.00014198
*RES
1 *1168:Y *343:8 40.2579 
2 *343:8 *343:12 17.9621 
3 *343:12 *343:14 3.95643 
4 *343:14 *1212:B 23 
5 *343:14 *343:25 5.30286 
6 *343:25 *343:33 41.5143 
7 *343:33 *343:39 32.9179 
8 *343:39 *1518:A 23 
9 *343:33 *1436:A 38.8493 
10 *343:25 *343:59 32.2579 
11 *343:59 *1304:B1 23 
12 *343:12 *1289:A1 23.6214 
13 *343:8 *1288:A1 38 
*END

*D_NET *344 0.000891752
*CONN
*I *1519:A I *D sky130_fd_sc_hd__buf_2
*I *1435:X O *D sky130_fd_sc_hd__clkbuf_1
*CAP
1 *1519:A 0
2 *1435:X 0.000327504
3 *344:10 0.000327504
4 *344:10 *368:10 0
5 *1373:A *344:10 7.88926e-05
6 *1511:A *344:10 7.98155e-05
7 *294:157 *344:10 5.26204e-05
8 *335:43 *344:10 2.5415e-05
*RES
1 *1435:X *344:10 44.2971 
2 *344:10 *1519:A 38 
*END

*D_NET *345 0.00838204
*CONN
*I *1520:A I *D sky130_fd_sc_hd__buf_2
*I *1321:A_N I *D sky130_fd_sc_hd__and2b_1
*I *1328:C I *D sky130_fd_sc_hd__and4_1
*I *1322:A I *D sky130_fd_sc_hd__nand2_1
*I *1323:A I *D sky130_fd_sc_hd__or2_1
*I *1325:B I *D sky130_fd_sc_hd__nand3_1
*I *1326:A1 I *D sky130_fd_sc_hd__a21o_1
*I *1329:A2 I *D sky130_fd_sc_hd__a31o_1
*I *1409:Q O *D sky130_fd_sc_hd__dfxtp_1
*CAP
1 *1520:A 0.000546805
2 *1321:A_N 7.27021e-05
3 *1328:C 0
4 *1322:A 7.44895e-05
5 *1323:A 9.05263e-05
6 *1325:B 0
7 *1326:A1 0.000127537
8 *1329:A2 0.000135824
9 *1409:Q 4.25104e-05
10 *345:53 0.000299946
11 *345:37 0.000185878
12 *345:31 0.000718538
13 *345:14 0.000744747
14 *345:12 0.000172724
15 *345:10 0.000266671
16 *345:8 0.000694217
17 *1322:A *353:56 1.35425e-05
18 *1322:A *358:74 0.000249909
19 *1323:A *1323:B 5.3304e-05
20 *1326:A1 *1325:A 0.000139319
21 *1326:A1 *353:39 1.63023e-05
22 *1329:A2 *1329:A3 0.000301543
23 *1329:A2 *354:12 0.000274543
24 *1329:A2 *354:52 0.000146197
25 *1520:A *353:10 3.47781e-05
26 *1520:A *369:10 0
27 *345:8 *353:10 5.50049e-05
28 *345:10 *353:10 0.000195238
29 *345:12 *353:10 0.000155068
30 *345:12 *353:12 1.14452e-05
31 *345:12 *370:10 1.69668e-05
32 *345:14 *1329:A3 0.000136486
33 *345:14 *353:12 5.15096e-05
34 *345:14 *354:12 0.000175612
35 *345:31 *1325:A 3.53115e-05
36 *345:31 *353:35 5.50049e-05
37 *345:31 *353:39 0.000139352
38 *345:37 *353:39 5.3304e-05
39 *345:37 *358:74 5.94125e-05
40 *345:53 *353:45 0.000119828
41 *345:53 *353:56 1.83667e-05
42 *345:53 *358:74 0.000377191
43 group_timeout_count[3] *345:37 6.16531e-05
44 group_timeout_count[3] *345:53 0.000104869
45 *1447:A *1520:A 0
46 *62:8 *1322:A 0.000207805
47 *108:10 *1520:A 0
48 *255:10 *1323:A 5.37348e-06
49 *256:6 *345:31 0.000394086
50 *259:10 *1329:A2 1.34995e-05
51 *292:32 *1329:A2 0
52 *292:46 *345:31 0.000537097
*RES
1 *1409:Q *345:8 38.6214 
2 *345:8 *345:10 2.61 
3 *345:10 *345:12 2.25786 
4 *345:12 *345:14 2.61 
5 *345:14 *1329:A2 43.2407 
6 *345:14 *345:31 42.5321 
7 *345:31 *345:37 16.4707 
8 *345:37 *1326:A1 25.4236 
9 *345:37 *1325:B 23 
10 *345:31 *345:53 5.075 
11 *345:53 *1323:A 39.5743 
12 *345:53 *1322:A 41.3143 
13 *345:12 *1328:C 38 
14 *345:10 *1321:A_N 39.0979 
15 *345:8 *1520:A 48.005 
*END

*D_NET *346 0.00833179
*CONN
*I *1299:B1 I *D sky130_fd_sc_hd__o211a_1
*I *1350:B1 I *D sky130_fd_sc_hd__a21o_1
*I *1349:A I *D sky130_fd_sc_hd__and3_1
*I *1351:A I *D sky130_fd_sc_hd__and3_1
*I *1521:A I *D sky130_fd_sc_hd__buf_2
*I *1305:A I *D sky130_fd_sc_hd__or3_2
*I *1419:Q O *D sky130_fd_sc_hd__dfxtp_1
*CAP
1 *1299:B1 0.000211603
2 *1350:B1 2.30556e-05
3 *1349:A 0.000317365
4 *1351:A 0
5 *1521:A 0
6 *1305:A 0.000222368
7 *1419:Q 4.72972e-05
8 *346:42 0.000468235
9 *346:33 0.000802983
10 *346:27 0.00110973
11 *346:23 0.000360656
12 *346:10 0.000504099
13 *346:8 0.00035891
14 *1299:B1 *356:62 1.14452e-05
15 *1349:A *361:12 9.42327e-05
16 *346:8 *361:12 1.94693e-05
17 *346:23 *350:12 0.000794546
18 *346:27 *350:12 0.000656738
19 *346:33 *1357:B 3.96156e-05
20 *346:33 *347:24 2.76611e-06
21 *346:33 *347:31 4.06408e-05
22 *346:33 *348:24 0.000108449
23 *1302:A *1305:A 8.51329e-05
24 *1415:CLK *346:42 2.96154e-05
25 *1421:CLK *346:33 0.000113624
26 *1421:CLK *346:42 9.03157e-05
27 *1444:A *346:23 5.3304e-05
28 *120:10 *346:33 0
29 *231:39 *1299:B1 0
30 *231:55 *346:42 4.334e-05
31 *233:10 *1305:A 4.43717e-05
32 *238:12 *1299:B1 9.4505e-05
33 *238:12 *1305:A 0.000189184
34 *238:12 *346:10 6.4393e-05
35 *262:44 *1349:A 7.01322e-05
36 *262:44 *346:42 1.14452e-05
37 *262:51 *1349:A 0.000206674
38 *262:66 *1349:A 1.95448e-05
39 *262:66 *346:27 0.000224323
40 *262:66 *346:42 0
41 *274:8 *346:33 0
42 *274:8 *346:42 0
43 *291:6 *346:23 9.84851e-05
44 *291:8 *346:23 9.67842e-05
45 *291:25 *346:10 0
46 *291:60 *1305:A 5.76076e-05
47 *317:12 *346:23 0.000304816
48 *317:12 *346:27 0.00023999
*RES
1 *1419:Q *346:8 38.6214 
2 *346:8 *346:10 1.90571 
3 *346:10 *1305:A 44.1314 
4 *346:10 *346:23 23.7207 
5 *346:23 *346:27 22.2914 
6 *346:27 *346:33 30.4114 
7 *346:33 *1521:A 23 
8 *346:27 *346:42 18.3143 
9 *346:42 *1351:A 23 
10 *346:42 *1349:A 28.5721 
11 *346:23 *1350:B1 23.4971 
12 *346:8 *1299:B1 42.4329 
*END

*D_NET *347 0.00579877
*CONN
*I *1353:A I *D sky130_fd_sc_hd__nand2_1
*I *1354:A I *D sky130_fd_sc_hd__or2_1
*I *1301:C I *D sky130_fd_sc_hd__or3_1
*I *1357:B I *D sky130_fd_sc_hd__and3_1
*I *1356:A1 I *D sky130_fd_sc_hd__a21o_1
*I *1522:A I *D sky130_fd_sc_hd__buf_2
*I *1420:Q O *D sky130_fd_sc_hd__dfxtp_1
*CAP
1 *1353:A 0
2 *1354:A 0
3 *1301:C 0
4 *1357:B 0.000125218
5 *1356:A1 0.000106377
6 *1522:A 0
7 *1420:Q 0
8 *347:71 0.000428084
9 *347:31 0.000347703
10 *347:24 0.000854334
11 *347:18 0.000970443
12 *347:16 0.000297488
13 *347:12 0.000417612
14 *347:4 0.000548208
15 *1356:A1 *1357:A 9.84851e-05
16 *1357:B *369:96 0
17 *347:16 *348:24 2.45549e-06
18 *347:24 *1301:A 0.000107538
19 *347:24 *1362:A 0
20 *347:24 *348:24 0
21 *347:24 *351:24 0.000145784
22 *347:24 *369:106 0.000379403
23 *347:31 *1301:A 6.07611e-06
24 *347:31 *369:96 0
25 *347:71 *369:90 0.000140287
26 *1354:B *347:12 0
27 *1354:B *347:16 5.56356e-05
28 *1354:B *347:71 0
29 *1356:A2 *1356:A1 2.18409e-05
30 *119:8 *347:71 0.000142173
31 *122:8 *347:24 6.68793e-05
32 *234:8 *347:12 1.59071e-05
33 *234:8 *347:16 9.69905e-05
34 *272:19 *347:71 0
35 *274:8 *1357:B 0.000110913
36 *276:10 *347:12 7.42182e-05
37 *276:10 *347:16 0.000102389
38 *278:10 *1357:B 5.3304e-05
39 *346:33 *1357:B 3.96156e-05
40 *346:33 *347:24 2.76611e-06
41 *346:33 *347:31 4.06408e-05
*RES
1 *1420:Q *347:4 23 
2 *347:4 *347:12 32.175 
3 *347:12 *347:16 5.88286 
4 *347:16 *347:18 15 
5 *347:18 *347:24 32.7521 
6 *347:24 *1522:A 23 
7 *347:18 *347:31 1.90571 
8 *347:31 *1356:A1 39.5743 
9 *347:31 *1357:B 40.5271 
10 *347:16 *1301:C 23 
11 *347:12 *1354:A 23 
12 *347:4 *347:71 37.6436 
13 *347:71 *1353:A 23 
*END

*D_NET *348 0.00281947
*CONN
*I *1523:A I *D sky130_fd_sc_hd__buf_2
*I *1357:A I *D sky130_fd_sc_hd__and3_1
*I *1356:B1 I *D sky130_fd_sc_hd__a21o_1
*I *1301:B I *D sky130_fd_sc_hd__or3_1
*I *1421:Q O *D sky130_fd_sc_hd__dfxtp_1
*CAP
1 *1523:A 0
2 *1357:A 6.31131e-05
3 *1356:B1 2.34823e-05
4 *1301:B 0
5 *1421:Q 0.000105802
6 *348:31 0.000115503
7 *348:24 0.000388896
8 *348:16 0.000629548
9 *348:12 0.000284331
10 *348:8 0.000178388
11 *1357:A *1358:B 6.9805e-05
12 *348:16 *1358:B 0.000119313
13 *348:31 *1358:B 2.93845e-05
14 *1356:A1 *1357:A 9.84851e-05
15 *1356:A2 *1357:A 5.67058e-05
16 *1358:A_N *348:16 0.0002263
17 *1358:C *348:16 0.000228001
18 *3:9 *348:8 5.36328e-05
19 *38:11 *348:8 5.58873e-06
20 *53:10 *348:12 3.22879e-05
21 *278:14 *348:24 0
22 *343:39 *348:8 0
23 *346:33 *348:24 0.000108449
24 *347:16 *348:24 2.45549e-06
25 *347:24 *348:24 0
*RES
1 *1421:Q *348:8 40.2579 
2 *348:8 *348:12 16.5743 
3 *348:12 *348:16 5.88286 
4 *348:16 *348:24 36.3179 
5 *348:24 *1301:B 23 
6 *348:16 *348:31 0.621429 
7 *348:31 *1356:B1 23.4971 
8 *348:31 *1357:A 25.0507 
9 *348:12 *1523:A 23 
*END

*D_NET *349 0.0046464
*CONN
*I *1301:A I *D sky130_fd_sc_hd__or3_1
*I *1359:A I *D sky130_fd_sc_hd__or2_1
*I *1524:A I *D sky130_fd_sc_hd__buf_2
*I *1360:A I *D sky130_fd_sc_hd__and2_1
*I *1363:B I *D sky130_fd_sc_hd__and3_1
*I *1422:Q O *D sky130_fd_sc_hd__dfxtp_1
*CAP
1 *1301:A 0.000206583
2 *1359:A 0
3 *1524:A 0
4 *1360:A 7.82255e-05
5 *1363:B 0.000248066
6 *1422:Q 0
7 *349:46 0.000130611
8 *349:31 0.000245825
9 *349:29 3.69886e-05
10 *349:27 0.000776748
11 *349:19 0.0010528
12 *349:6 0.00031754
13 *1301:A *369:96 0
14 *1301:A *369:106 0.000157299
15 *1363:B *369:106 8.4047e-05
16 *349:19 *369:106 0.000132665
17 *349:27 *369:116 8.4047e-05
18 group_timeout_count[13] *349:46 0
19 *1362:B *1360:A 4.00259e-06
20 *1362:B *349:31 0.000141954
21 *1363:C *1363:B 2.65879e-05
22 *1364:A_N *1363:B 5.70419e-05
23 *1365:B *1363:B 5.70419e-05
24 *1422:D *349:27 0.000124708
25 *3:9 *349:27 0
26 *3:9 *349:46 0
27 *278:14 *349:27 0.000157174
28 *278:24 *1360:A 5.3304e-05
29 *278:24 *349:27 0
30 *278:24 *349:31 0.000172996
31 *278:24 *349:46 3.47781e-05
32 *279:8 *349:27 5.55278e-05
33 *280:12 *1360:A 2.19998e-05
34 *280:12 *349:31 9.8971e-06
35 *291:135 *349:27 6.43235e-05
36 *347:24 *1301:A 0.000107538
37 *347:31 *1301:A 6.07611e-06
*RES
1 *1422:Q *349:6 38 
2 *349:6 *1363:B 42.205 
3 *349:6 *349:19 1.90571 
4 *349:19 *349:27 41.6621 
5 *349:27 *349:29 15 
6 *349:29 *349:31 2.05071 
7 *349:31 *1360:A 24.595 
8 *349:31 *349:46 32.2579 
9 *349:46 *1524:A 23 
10 *349:29 *1359:A 23 
11 *349:19 *1301:A 43.075 
*END

*D_NET *350 0.00609553
*CONN
*I *1212:A I *D sky130_fd_sc_hd__nor2_1
*I *1477:X O *D sky130_fd_sc_hd__clkbuf_1
*CAP
1 *1212:A 0
2 *1477:X 7.95875e-05
3 *350:18 0.000210568
4 *350:12 0.00157233
5 *350:8 0.00144135
6 *350:8 *361:8 2.79004e-05
7 *350:12 *361:24 9.84851e-05
8 *350:18 *1303:A 3.3123e-05
9 *350:18 *361:24 6.4393e-05
10 *3:9 *350:8 0
11 *231:55 *350:12 0.000267167
12 *237:20 *350:18 0
13 *273:10 *350:12 0.000235687
14 *290:12 *350:18 0.000189173
15 *317:12 *350:12 0.000424471
16 *343:39 *350:8 0
17 *343:59 *350:18 0
18 *346:23 *350:12 0.000794546
19 *346:27 *350:12 0.000656738
*RES
1 *1477:X *350:8 39.5536 
2 *350:8 *350:12 45.6364 
3 *350:12 *350:18 35.075 
4 *350:18 *1212:A 23 
*END

*D_NET *351 0.00441549
*CONN
*I *1300:B I *D sky130_fd_sc_hd__or2_1
*I *1363:A I *D sky130_fd_sc_hd__and3_1
*I *1362:A I *D sky130_fd_sc_hd__or2_1
*I *1525:A I *D sky130_fd_sc_hd__buf_2
*I *1423:Q O *D sky130_fd_sc_hd__dfxtp_1
*CAP
1 *1300:B 0
2 *1363:A 0
3 *1362:A 0.00010008
4 *1525:A 0.000515108
5 *1423:Q 0.000260731
6 *351:26 0.000615188
7 *351:24 0.000678239
8 *351:16 0.000946498
9 *351:14 0.000298537
10 *351:10 0.000291009
11 *351:10 *352:34 8.6581e-05
12 *351:14 *352:21 5.56279e-05
13 *351:16 *1365:A 0.000144903
14 *351:16 *352:21 0.000177731
15 *1365:B *351:16 7.87243e-05
16 *1423:CLK *351:10 2.07484e-05
17 *122:8 *1362:A 0
18 *122:8 *1525:A 0
19 *347:24 *1362:A 0
20 *347:24 *351:24 0.000145784
*RES
1 *1423:Q *351:10 42.9921 
2 *351:10 *351:14 15.6214 
3 *351:14 *351:16 5.38571 
4 *351:16 *351:24 39.3214 
5 *351:24 *351:26 15 
6 *351:26 *1525:A 47.4043 
7 *351:26 *1362:A 39.5536 
8 *351:16 *1363:A 23 
9 *351:14 *1300:B 23 
*END

*D_NET *352 0.00383878
*CONN
*I *1526:A I *D sky130_fd_sc_hd__buf_2
*I *1300:A I *D sky130_fd_sc_hd__or2_1
*I *1365:A I *D sky130_fd_sc_hd__xor2_1
*I *1424:Q O *D sky130_fd_sc_hd__dfxtp_1
*CAP
1 *1526:A 8.09208e-05
2 *1300:A 0
3 *1365:A 5.36523e-05
4 *1424:Q 0.000127687
5 *352:34 0.00104748
6 *352:21 0.00106766
7 *352:10 0.000154756
8 *352:8 0.000127687
9 *1526:A *1249:A1 0.000173452
10 *1526:A *1249:B1 0.000228903
11 *1526:A *1252:B1 5.50106e-05
12 *352:34 *373:92 0
13 *1386:CLK *352:34 0
14 *84:8 *352:34 0
15 *85:8 *352:34 0.000168744
16 *233:8 *352:34 2.45549e-06
17 *283:10 *352:21 8.5521e-05
18 *291:76 *352:34 0
19 *351:10 *352:34 8.6581e-05
20 *351:14 *352:21 5.56279e-05
21 *351:16 *1365:A 0.000144903
22 *351:16 *352:21 0.000177731
*RES
1 *1424:Q *352:8 40.2579 
2 *352:8 *352:10 15 
3 *352:10 *1365:A 24.5743 
4 *352:10 *352:21 3.50071 
5 *352:21 *1300:A 23 
6 *352:21 *352:34 47.7936 
7 *352:34 *1526:A 26.48 
*END

*D_NET *353 0.00800134
*CONN
*I *1328:D I *D sky130_fd_sc_hd__and4_1
*I *1326:A2 I *D sky130_fd_sc_hd__a21o_1
*I *1325:C I *D sky130_fd_sc_hd__nand3_1
*I *1527:A I *D sky130_fd_sc_hd__buf_2
*I *1322:B I *D sky130_fd_sc_hd__nand2_1
*I *1323:B I *D sky130_fd_sc_hd__or2_1
*I *1329:A3 I *D sky130_fd_sc_hd__a31o_1
*I *1410:Q O *D sky130_fd_sc_hd__dfxtp_1
*CAP
1 *1328:D 0
2 *1326:A2 1.09231e-05
3 *1325:C 0
4 *1527:A 0.000281194
5 *1322:B 0
6 *1323:B 0.000109945
7 *1329:A3 0.000205385
8 *1410:Q 0.000395316
9 *353:56 0.00042284
10 *353:45 0.000515255
11 *353:39 0.000357251
12 *353:35 0.000115852
13 *353:31 0.000617764
14 *353:12 0.000850178
15 *353:10 0.000433687
16 *1326:A2 *1325:A 1.5418e-05
17 *1527:A *358:74 7.75329e-06
18 *353:31 *1529:A 0.000825435
19 *353:31 *354:27 7.56417e-05
20 *353:31 *355:49 0.000166079
21 *353:31 *358:74 5.0135e-05
22 *353:35 *1325:A 2.4754e-05
23 *353:39 *1325:A 3.22879e-05
24 group_timeout_count[3] *353:45 0.000169683
25 *1322:A *353:56 1.35425e-05
26 *1323:A *1323:B 5.3304e-05
27 *1326:A1 *353:39 1.63023e-05
28 *1329:A2 *1329:A3 0.000301543
29 *1520:A *353:10 3.47781e-05
30 *50:12 *1527:A 0.000173452
31 *57:10 *1527:A 0
32 *62:8 *1527:A 0.00014411
33 *62:8 *353:56 0.000210966
34 *258:10 *353:31 0.000135037
35 *259:10 *1329:A3 0.000244926
36 *345:8 *353:10 5.50049e-05
37 *345:10 *353:10 0.000195238
38 *345:12 *353:10 0.000155068
39 *345:12 *353:12 1.14452e-05
40 *345:14 *1329:A3 0.000136486
41 *345:14 *353:12 5.15096e-05
42 *345:31 *353:35 5.50049e-05
43 *345:31 *353:39 0.000139352
44 *345:37 *353:39 5.3304e-05
45 *345:53 *353:45 0.000119828
46 *345:53 *353:56 1.83667e-05
*RES
1 *1410:Q *353:10 46.0786 
2 *353:10 *353:12 0.849286 
3 *353:12 *1329:A3 43.6964 
4 *353:12 *353:31 43.3607 
5 *353:31 *353:35 15.6214 
6 *353:35 *353:39 2.54786 
7 *353:39 *353:45 21.0486 
8 *353:45 *1323:B 39.5743 
9 *353:45 *353:56 3.66643 
10 *353:56 *1322:B 38 
11 *353:56 *1527:A 44.235 
12 *353:39 *1325:C 23 
13 *353:35 *1326:A2 23.4971 
14 *353:10 *1328:D 38 
*END

*D_NET *354 0.00662793
*CONN
*I *1307:A2 I *D sky130_fd_sc_hd__o211a_1
*I *1329:A1 I *D sky130_fd_sc_hd__a31o_1
*I *1328:B I *D sky130_fd_sc_hd__and4_1
*I *1326:B1 I *D sky130_fd_sc_hd__a21o_1
*I *1325:A I *D sky130_fd_sc_hd__nand3_1
*I *1528:A I *D sky130_fd_sc_hd__buf_2
*I *1411:Q O *D sky130_fd_sc_hd__dfxtp_1
*CAP
1 *1307:A2 0
2 *1329:A1 0
3 *1328:B 0
4 *1326:B1 0
5 *1325:A 8.25551e-05
6 *1528:A 2.95294e-05
7 *1411:Q 0.000137627
8 *354:69 0.000295841
9 *354:52 0.000454201
10 *354:27 0.000221883
11 *354:14 0.000529222
12 *354:12 0.00055117
13 *354:6 0.000486792
14 *1528:A *1529:A 5.50049e-05
15 *354:12 *370:10 3.47776e-05
16 *354:14 *1529:A 0.000728651
17 *354:14 *355:49 9.67842e-05
18 *354:14 *370:10 5.12254e-05
19 *354:27 *358:74 0
20 *354:69 *1307:A1 0.000142634
21 *354:69 *1307:B1 1.12349e-05
22 *354:69 *1329:B1 0.000140927
23 *354:69 *355:10 2.46345e-05
24 *354:69 *355:12 0.000380333
25 *354:69 *362:34 0.00018536
26 *1326:A1 *1325:A 0.000139319
27 *1326:A2 *1325:A 1.5418e-05
28 *1329:A2 *354:12 0.000274543
29 *1329:A2 *354:52 0.000146197
30 *1410:CLK *354:27 0.000228971
31 *258:10 *354:12 0.000163352
32 *258:16 *354:12 0.000249918
33 *292:32 *354:12 0
34 *292:32 *354:69 0.000404968
35 *292:54 *354:27 1.14452e-05
36 *334:6 *354:69 9.80703e-06
37 *345:14 *354:12 0.000175612
38 *345:31 *1325:A 3.53115e-05
39 *353:31 *354:27 7.56417e-05
40 *353:35 *1325:A 2.4754e-05
41 *353:39 *1325:A 3.22879e-05
*RES
1 *1411:Q *354:6 25.0507 
2 *354:6 *354:12 36.4836 
3 *354:12 *354:14 9.19714 
4 *354:14 *1528:A 23.6214 
5 *354:14 *354:27 33.3143 
6 *354:27 *1325:A 26.045 
7 *354:27 *1326:B1 23 
8 *354:12 *1328:B 23 
9 *354:6 *354:52 3.37643 
10 *354:52 *1329:A1 23 
11 *354:52 *354:69 40.0257 
12 *354:69 *1307:A2 23 
*END

*D_NET *355 0.0102104
*CONN
*I *1328:A I *D sky130_fd_sc_hd__and4_1
*I *1529:A I *D sky130_fd_sc_hd__buf_2
*I *1329:B1 I *D sky130_fd_sc_hd__a31o_1
*I *1307:A1 I *D sky130_fd_sc_hd__o211a_1
*I *1309:A1 I *D sky130_fd_sc_hd__o211a_1
*I *1412:Q O *D sky130_fd_sc_hd__dfxtp_1
*CAP
1 *1328:A 0
2 *1529:A 0.000258547
3 *1329:B1 0.000115886
4 *1307:A1 6.21211e-05
5 *1309:A1 0
6 *1412:Q 0.00042537
7 *355:49 0.000693501
8 *355:20 0.00127872
9 *355:12 0.00155727
10 *355:10 0.000433867
11 *355:8 0.000961877
12 *1307:A1 *362:34 2.18409e-05
13 *355:49 *370:10 8.67444e-05
14 *1309:B1 *355:20 0.000306832
15 *1448:A *355:49 5.3304e-05
16 *1528:A *1529:A 5.50049e-05
17 *58:10 *1529:A 9.84851e-05
18 *231:22 *355:20 6.48049e-05
19 *231:29 *355:20 0.000165808
20 *240:6 *1307:A1 2.93747e-05
21 *253:6 *355:8 4.69112e-05
22 *253:10 *355:49 0.000139647
23 *258:10 *355:49 4.67811e-05
24 *271:10 *355:20 0.000324742
25 *292:25 *355:20 2.13834e-05
26 *292:32 *355:10 6.57551e-05
27 *292:32 *355:12 6.61686e-06
28 *292:32 *355:20 0.000248842
29 *292:32 *355:49 4.81497e-05
30 *292:105 *355:49 2.21344e-05
31 *292:147 *355:20 2.13733e-05
32 *334:6 *1307:A1 4.32201e-05
33 *353:31 *1529:A 0.000825435
34 *353:31 *355:49 0.000166079
35 *354:14 *1529:A 0.000728651
36 *354:14 *355:49 9.67842e-05
37 *354:69 *1307:A1 0.000142634
38 *354:69 *1329:B1 0.000140927
39 *354:69 *355:10 2.46345e-05
40 *354:69 *355:12 0.000380333
*RES
1 *1412:Q *355:8 43.3857 
2 *355:8 *355:10 2.25786 
3 *355:10 *355:12 5.42714 
4 *355:12 *355:20 38.8214 
5 *355:20 *1309:A1 23 
6 *355:12 *1307:A1 40.0507 
7 *355:10 *1329:B1 40.0507 
8 *355:8 *355:49 24.5286 
9 *355:49 *1529:A 34.1236 
10 *355:49 *1328:A 23 
*END

*D_NET *356 0.00784086
*CONN
*I *1331:A I *D sky130_fd_sc_hd__nand2_1
*I *1309:A2 I *D sky130_fd_sc_hd__o211a_1
*I *1332:A I *D sky130_fd_sc_hd__or2_1
*I *1299:A2 I *D sky130_fd_sc_hd__o211a_1
*I *1335:A1 I *D sky130_fd_sc_hd__a21o_1
*I *1334:B I *D sky130_fd_sc_hd__and3_2
*I *1306:D I *D sky130_fd_sc_hd__and4_1
*I *1530:A I *D sky130_fd_sc_hd__buf_2
*I *1413:Q O *D sky130_fd_sc_hd__dfxtp_1
*CAP
1 *1331:A 0
2 *1309:A2 0.000179026
3 *1332:A 5.39135e-05
4 *1299:A2 0
5 *1335:A1 2.07933e-05
6 *1334:B 0
7 *1306:D 7.62136e-05
8 *1530:A 0.000424214
9 *1413:Q 6.57917e-05
10 *356:73 0.00033379
11 *356:69 0.000124333
12 *356:62 0.000339333
13 *356:24 0.00108345
14 *356:18 0.000931949
15 *356:12 0.000569558
16 *356:10 0.000706896
17 *356:8 0.000257005
18 *1530:A *1348:A 0.000311554
19 *1530:A *358:43 4.39725e-05
20 *1530:A *359:16 0.000184488
21 *1530:A *359:22 5.67058e-05
22 *356:18 *357:16 0.00024726
23 *356:24 *1306:C 0
24 *356:24 *1342:C 0
25 *356:24 *357:16 3.17634e-05
26 *356:24 *357:26 0
27 *356:24 *359:10 0
28 *356:62 *1299:A1 0.000515229
29 *356:62 *1309:C1 0.000129504
30 *1299:B1 *356:62 1.14452e-05
31 *1331:B *356:10 0.000223692
32 *1331:B *356:12 0.000399172
33 *1334:C *356:12 2.46906e-05
34 *1334:C *356:18 2.56944e-05
35 *231:10 *1306:D 0
36 *231:33 *356:62 0
37 *237:20 *1309:A2 0.000200348
38 *237:20 *356:73 0.000169674
39 *238:12 *1309:A2 0
40 *238:12 *356:73 0
41 *239:8 *1306:D 6.07611e-06
42 *258:56 *1335:A1 1.12349e-05
43 *262:10 *356:18 5.56336e-05
44 *267:10 *1530:A 2.64616e-05
*RES
1 *1413:Q *356:8 24.1186 
2 *356:8 *356:10 3.48 
3 *356:10 *356:12 4.90929 
4 *356:12 *356:18 6.85643 
5 *356:18 *356:24 24.4871 
6 *356:24 *1530:A 47.6943 
7 *356:24 *1306:D 39.2014 
8 *356:18 *1334:B 23 
9 *356:12 *1335:A1 23.4971 
10 *356:10 *356:62 38.5964 
11 *356:62 *1299:A2 23 
12 *356:8 *356:69 0.497143 
13 *356:69 *356:73 17.2579 
14 *356:73 *1332:A 38.6214 
15 *356:73 *1309:A2 41.6664 
16 *356:69 *1331:A 23 
*END

*D_NET *357 0.00930456
*CONN
*I *1309:C1 I *D sky130_fd_sc_hd__o211a_1
*I *1299:A1 I *D sky130_fd_sc_hd__o211a_1
*I *1335:B1 I *D sky130_fd_sc_hd__a21o_1
*I *1334:A I *D sky130_fd_sc_hd__and3_2
*I *1306:C I *D sky130_fd_sc_hd__and4_1
*I *1531:A I *D sky130_fd_sc_hd__buf_2
*I *1414:Q O *D sky130_fd_sc_hd__dfxtp_1
*CAP
1 *1309:C1 0.000337164
2 *1299:A1 0.000147973
3 *1335:B1 0
4 *1334:A 0
5 *1306:C 0.0004363
6 *1531:A 0
7 *1414:Q 0
8 *357:54 0.000485137
9 *357:26 0.00110454
10 *357:18 0.00154084
11 *357:16 0.000169125
12 *357:12 0.000741695
13 *357:4 0.00057257
14 *1306:C *1348:A 0.0002263
15 *1309:C1 *369:25 0
16 *357:26 *1338:A 1.76557e-05
17 *357:26 *363:10 5.67058e-05
18 *357:26 *369:52 0
19 *357:26 *369:61 0
20 *1309:B1 *1309:C1 0.000139352
21 *1334:C *357:16 0.000450377
22 *3:19 *357:12 0.000206843
23 *231:10 *1306:C 0
24 *231:33 *1309:C1 0
25 *238:12 *1299:A1 0.000515229
26 *238:12 *1309:C1 0.000583759
27 *262:10 *357:26 5.36457e-05
28 *262:29 *357:26 2.93845e-05
29 *262:44 *357:26 0.000144231
30 *263:8 *357:12 4.08641e-05
31 *270:8 *1306:C 2.79004e-05
32 *292:25 *1306:C 0
33 *292:25 *357:12 2.472e-05
34 *292:25 *357:26 0
35 *292:147 *1309:C1 0.000139352
36 *343:33 *357:26 0.000189138
37 *356:18 *357:16 0.00024726
38 *356:24 *1306:C 0
39 *356:24 *357:16 3.17634e-05
40 *356:24 *357:26 0
41 *356:62 *1299:A1 0.000515229
42 *356:62 *1309:C1 0.000129504
*RES
1 *1414:Q *357:4 23 
2 *357:4 *357:12 38.5964 
3 *357:12 *357:16 6.35929 
4 *357:16 *357:18 15 
5 *357:18 *357:26 35.5486 
6 *357:26 *1531:A 23 
7 *357:18 *1306:C 46.3064 
8 *357:16 *1334:A 23 
9 *357:12 *1335:B1 23 
10 *357:4 *357:54 15 
11 *357:54 *1299:A1 44.8357 
12 *357:54 *1309:C1 47.4664 
*END

*D_NET *358 0.0114221
*CONN
*I *1337:A I *D sky130_fd_sc_hd__nand2_1
*I *1532:A I *D sky130_fd_sc_hd__buf_2
*I *1306:B I *D sky130_fd_sc_hd__and4_1
*I *1298:B I *D sky130_fd_sc_hd__and4_1
*I *1341:A1 I *D sky130_fd_sc_hd__a21o_1
*I *1338:A I *D sky130_fd_sc_hd__or2_1
*I *1415:Q O *D sky130_fd_sc_hd__dfxtp_1
*CAP
1 *1337:A 0
2 *1532:A 0
3 *1306:B 0.000193049
4 *1298:B 0
5 *1341:A1 0
6 *1338:A 0.000165678
7 *1415:Q 0.000178557
8 *358:74 0.00120159
9 *358:58 0.000256766
10 *358:50 0.000595043
11 *358:43 0.000356866
12 *358:39 0.00184248
13 *358:29 0.000746983
14 *358:10 0.00066197
15 *1306:B *1348:A 4.79641e-05
16 *1306:B *359:16 0.000169595
17 *358:10 *1339:A 0.000402806
18 *358:39 *363:10 1.14452e-05
19 *358:39 *372:10 0
20 *358:43 *359:16 0.00010018
21 *358:43 *359:22 2.18506e-05
22 *358:50 *359:16 0.000217372
23 *358:58 *1298:A 3.53051e-05
24 *358:58 *359:22 0
25 *358:58 *370:20 8.4047e-05
26 *358:74 *1534:A 7.75329e-06
27 group_timeout_count[3] *358:74 3.13478e-05
28 group_timeout_count[9] *358:74 6.16635e-05
29 *1322:A *358:74 0.000249909
30 *1337:B *358:29 5.50049e-05
31 *1343:B *358:74 0.000278634
32 *1410:CLK *358:74 0
33 *1415:CLK *1338:A 9.04083e-05
34 *1415:CLK *358:10 3.3577e-05
35 *1416:CLK *358:39 0.000174026
36 *1416:CLK *358:74 0.000275849
37 *1436:A *1338:A 0
38 *1527:A *358:74 7.75329e-06
39 *1530:A *358:43 4.39725e-05
40 *3:19 *358:29 3.75171e-05
41 *3:19 *358:39 0.000187129
42 *57:10 *358:74 0
43 *62:8 *358:74 6.67764e-05
44 *255:10 *358:74 9.53602e-05
45 *262:14 *358:29 9.67842e-05
46 *262:29 *1338:A 0.000179113
47 *262:29 *358:29 8.32902e-05
48 *262:44 *1338:A 4.17736e-05
49 *262:73 *358:29 1.58805e-05
50 *266:16 *358:39 0.000362629
51 *266:16 *358:74 0.000530397
52 *267:10 *358:39 0.000151806
53 *292:54 *358:74 0
54 *292:60 *358:74 0.000326141
55 *334:25 *358:74 0
56 *343:33 *1338:A 0.000143655
57 *345:37 *358:74 5.94125e-05
58 *345:53 *358:74 0.000377191
59 *353:31 *358:74 5.0135e-05
60 *354:27 *358:74 0
61 *357:26 *1338:A 1.76557e-05
*RES
1 *1415:Q *358:10 43.2821 
2 *358:10 *1338:A 43.2407 
3 *358:10 *358:29 20.9864 
4 *358:29 *358:39 27.47 
5 *358:39 *358:43 18.0036 
6 *358:43 *1341:A1 23 
7 *358:43 *358:50 2.52714 
8 *358:50 *358:58 33.7286 
9 *358:58 *1298:B 23 
10 *358:50 *1306:B 26.0036 
11 *358:39 *358:74 45.0771 
12 *358:74 *1532:A 23 
13 *358:29 *1337:A 23 
*END

*D_NET *359 0.00371709
*CONN
*I *1306:A I *D sky130_fd_sc_hd__and4_1
*I *1341:B1 I *D sky130_fd_sc_hd__a21o_1
*I *1533:A I *D sky130_fd_sc_hd__buf_2
*I *1298:A I *D sky130_fd_sc_hd__and4_1
*I *1416:Q O *D sky130_fd_sc_hd__dfxtp_1
*CAP
1 *1306:A 0
2 *1341:B1 0
3 *1533:A 0.000193123
4 *1298:A 0.000291226
5 *1416:Q 0.000213683
6 *359:22 0.000645457
7 *359:16 0.000282034
8 *359:12 0.000120927
9 *359:10 0.000213683
10 *1533:A *1345:A 5.3304e-05
11 *359:10 *1342:C 5.26101e-05
12 *359:10 *370:20 9.48381e-06
13 *359:16 *1348:A 0.000140259
14 *359:22 *370:20 0
15 *1306:B *359:16 0.000169595
16 *1346:B *359:10 4.06849e-05
17 *1416:CLK *1533:A 0.000181681
18 *1416:CLK *359:22 0.000252131
19 *1434:A *1298:A 0.000150242
20 *1434:A *1533:A 0
21 *1434:A *359:22 0
22 *1530:A *359:16 0.000184488
23 *1530:A *359:22 5.67058e-05
24 *268:10 *1533:A 9.10621e-05
25 *356:24 *359:10 0
26 *358:43 *359:16 0.00010018
27 *358:43 *359:22 2.18506e-05
28 *358:50 *359:16 0.000217372
29 *358:58 *1298:A 3.53051e-05
30 *358:58 *359:22 0
*RES
1 *1416:Q *359:10 41.7079 
2 *359:10 *359:12 15 
3 *359:12 *359:16 5.88286 
4 *359:16 *359:22 18.9357 
5 *359:22 *1298:A 43.3857 
6 *359:22 *1533:A 42.1843 
7 *359:16 *1341:B1 23 
8 *359:12 *1306:A 23 
*END

*D_NET *360 0.00577479
*CONN
*I *1307:B1 I *D sky130_fd_sc_hd__o211a_1
*I *1347:A1 I *D sky130_fd_sc_hd__a31o_1
*I *1298:D I *D sky130_fd_sc_hd__and4_1
*I *1534:A I *D sky130_fd_sc_hd__buf_2
*I *1343:A I *D sky130_fd_sc_hd__nand2_1
*I *1344:A I *D sky130_fd_sc_hd__or2_1
*I *1417:Q O *D sky130_fd_sc_hd__dfxtp_1
*CAP
1 *1307:B1 0.000248839
2 *1347:A1 0.000183264
3 *1298:D 0.000110727
4 *1534:A 0.000319452
5 *1343:A 0
6 *1344:A 9.50763e-05
7 *1417:Q 0
8 *360:45 0.000482097
9 *360:43 0.000436945
10 *360:23 0.000392788
11 *360:8 0.000779328
12 *360:4 0.000610916
13 *1298:D *1298:C 0.000102365
14 *1307:B1 *362:34 0.000146945
15 *1307:B1 *362:36 6.22372e-05
16 *1347:A1 *1347:B1 0.000269781
17 *360:45 *1298:C 1.22803e-05
18 *360:45 *362:36 0.000149433
19 *1417:CLK *1344:A 5.50106e-05
20 *1417:CLK *360:8 1.40958e-05
21 *1417:D *360:8 3.24476e-06
22 *239:8 *1298:D 9.74235e-05
23 *239:8 *360:45 2.96154e-05
24 *239:12 *1347:A1 2.47127e-05
25 *239:18 *360:45 0
26 *258:16 *1307:B1 0
27 *258:16 *360:45 0
28 *258:26 *360:45 0
29 *266:10 *1344:A 2.32004e-05
30 *266:10 *360:8 6.49662e-05
31 *268:10 *1344:A 6.25829e-05
32 *268:10 *360:23 8.4047e-05
33 *292:54 *1534:A 2.76611e-06
34 *292:60 *1344:A 6.48142e-05
35 *292:60 *1534:A 0.000452228
36 *292:60 *360:23 0.000157299
37 *334:6 *1307:B1 0.00021732
38 *334:25 *1534:A 0
39 *334:25 *360:23 0
40 *354:69 *1307:B1 1.12349e-05
41 *358:74 *1534:A 7.75329e-06
*RES
1 *1417:Q *360:4 23 
2 *360:4 *360:8 22.7679 
3 *360:8 *1344:A 40.4443 
4 *360:8 *360:23 2.25786 
5 *360:23 *1343:A 38 
6 *360:23 *1534:A 45.3536 
7 *360:4 *360:43 15 
8 *360:43 *360:45 4.37071 
9 *360:45 *1298:D 41.2314 
10 *360:45 *1347:A1 41.9771 
11 *360:43 *1307:B1 44.8357 
*END

*D_NET *361 0.00762958
*CONN
*I *1304:A1 I *D sky130_fd_sc_hd__o41ai_1
*I *1303:A I *D sky130_fd_sc_hd__or4_1
*I *1202:B1 I *D sky130_fd_sc_hd__a41o_1
*I *1478:X O *D sky130_fd_sc_hd__buf_1
*CAP
1 *1304:A1 0
2 *1303:A 3.61425e-05
3 *1202:B1 0
4 *1478:X 7.61155e-05
5 *361:24 0.00117951
6 *361:18 0.00140582
7 *361:12 0.00116195
8 *361:8 0.00104789
9 *361:12 *1352:C 5.79559e-05
10 *1303:C *361:18 4.67877e-05
11 *1303:D *361:18 0.00014196
12 *1304:A2 *361:18 0.000234806
13 *1349:A *361:12 9.42327e-05
14 *1419:D *361:12 0.000171761
15 *3:9 *361:8 0
16 *162:8 *361:24 0.00010018
17 *262:44 *361:12 7.18274e-05
18 *262:51 *361:12 0.000193443
19 *262:66 *361:12 7.1072e-06
20 *291:25 *361:12 0.000168656
21 *291:29 *361:12 0.000837763
22 *317:12 *361:24 4.23714e-05
23 *317:30 *361:18 0.000140259
24 *343:39 *361:8 0.000169674
25 *343:59 *1303:A 0
26 *346:8 *361:12 1.94693e-05
27 *350:8 *361:8 2.79004e-05
28 *350:12 *361:24 9.84851e-05
29 *350:18 *1303:A 3.3123e-05
30 *350:18 *361:24 6.4393e-05
*RES
1 *1478:X *361:8 40.2579 
2 *361:8 *361:12 38.49 
3 *361:12 *361:18 20.7586 
4 *361:18 *361:24 37.8893 
5 *361:24 *1202:B1 23 
6 *361:18 *1303:A 38.8493 
7 *361:12 *1304:A1 23 
*END

*D_NET *362 0.00699709
*CONN
*I *1535:A I *D sky130_fd_sc_hd__buf_2
*I *1347:B1 I *D sky130_fd_sc_hd__a31o_1
*I *1298:C I *D sky130_fd_sc_hd__and4_1
*I *1308:A1 I *D sky130_fd_sc_hd__o31ai_1
*I *1316:A I *D sky130_fd_sc_hd__nor4_1
*I *1418:Q O *D sky130_fd_sc_hd__dfxtp_1
*CAP
1 *1535:A 0.000628067
2 *1347:B1 0.000113397
3 *1298:C 0.000119031
4 *1308:A1 0
5 *1316:A 5.84278e-05
6 *1418:Q 0.000275894
7 *362:36 0.000553217
8 *362:34 0.00187876
9 *362:23 0.00106264
10 *362:10 0.000467055
11 *1298:C *370:20 0
12 *1535:A *370:18 0
13 *362:10 *369:25 0.000104245
14 *362:23 *369:25 2.65002e-05
15 *362:36 *370:18 0
16 *362:36 *370:20 0
17 *1298:D *1298:C 0.000102365
18 *1307:A1 *362:34 2.18409e-05
19 *1307:B1 *362:34 0.000146945
20 *1307:B1 *362:36 6.22372e-05
21 *1308:B1 *362:34 0
22 *1347:A1 *1347:B1 0.000269781
23 *139:36 *1316:A 3.71369e-05
24 *139:36 *362:23 0.000192096
25 *139:36 *362:34 9.90751e-05
26 *140:26 *362:23 5.51058e-05
27 *238:12 *362:10 0
28 *238:16 *362:10 0
29 *238:16 *362:23 0
30 *239:12 *1347:B1 0.000185434
31 *240:6 *362:34 4.71384e-05
32 *240:16 *362:23 0
33 *258:16 *1535:A 0
34 *258:16 *362:36 0
35 *292:6 *362:10 5.50106e-05
36 *292:140 *362:10 1.83564e-05
37 *300:10 *1347:B1 5.97296e-05
38 *334:6 *362:34 1.05317e-05
39 *354:69 *362:34 0.00018536
40 *360:45 *1298:C 1.22803e-05
41 *360:45 *362:36 0.000149433
*RES
1 *1418:Q *362:10 43.3443 
2 *362:10 *1316:A 39.0979 
3 *362:10 *362:23 18.6664 
4 *362:23 *1308:A1 23 
5 *362:23 *362:34 28.3814 
6 *362:34 *362:36 6.83571 
7 *362:36 *1298:C 40.9621 
8 *362:36 *1347:B1 41.9564 
9 *362:34 *1535:A 48.15 
*END

*D_NET *363 0.000862568
*CONN
*I *1536:A I *D sky130_fd_sc_hd__buf_2
*I *1436:X O *D sky130_fd_sc_hd__clkbuf_1
*CAP
1 *1536:A 0
2 *1436:X 0.000280103
3 *363:10 0.000280103
4 *363:10 *372:10 0
5 group_unlocked *363:10 9.86551e-06
6 *3:9 *363:10 0
7 *264:10 *363:10 0.000224345
8 *265:8 *363:10 0
9 *357:26 *363:10 5.67058e-05
10 *358:39 *363:10 1.14452e-05
*RES
1 *1436:X *363:10 43.3443 
2 *363:10 *1536:A 38 
*END

*D_NET *364 0.000742208
*CONN
*I *1537:A I *D sky130_fd_sc_hd__buf_2
*I *1437:A I *D sky130_fd_sc_hd__clkbuf_1
*I *1188:X O *D sky130_fd_sc_hd__or2_1
*CAP
1 *1537:A 0
2 *1437:A 9.37445e-05
3 *1188:X 0.000223308
4 *364:10 9.37445e-05
5 *364:8 0.000223308
6 global_state_escalated *364:8 4.334e-05
7 safe_led *364:8 6.47626e-05
8 *297:31 *364:8 0
9 *312:20 *364:8 0
*RES
1 *1188:X *364:8 42.7229 
2 *364:8 *364:10 15 
3 *364:10 *1437:A 24.5743 
4 *364:10 *1537:A 23 
*END

*D_NET *365 0.000352739
*CONN
*I *1538:A I *D sky130_fd_sc_hd__buf_2
*I *1437:X O *D sky130_fd_sc_hd__clkbuf_1
*CAP
1 *1538:A 4.24211e-05
2 *1437:X 9.11417e-05
3 *365:8 0.000133563
4 security_breach *365:8 2.2781e-05
5 *297:21 *365:8 4.21594e-06
6 *297:31 *365:8 5.86165e-05
*RES
1 *1437:X *365:8 40.2579 
2 *365:8 *1538:A 38.6214 
*END

*D_NET *366 0.00529746
*CONN
*I *1539:A I *D sky130_fd_sc_hd__buf_2
*I *1457:A I *D sky130_fd_sc_hd__dlygate4sd3_1
*I *1192:A1 I *D sky130_fd_sc_hd__o31a_1
*I *1193:A I *D sky130_fd_sc_hd__nor2_1
*I *1296:A I *D sky130_fd_sc_hd__or3_2
*I *1378:A1 I *D sky130_fd_sc_hd__o31ai_1
*I *1426:Q O *D sky130_fd_sc_hd__dfxtp_1
*CAP
1 *1539:A 0.000141066
2 *1457:A 0
3 *1192:A1 9.66762e-06
4 *1193:A 8.09305e-06
5 *1296:A 0.000137642
6 *1378:A1 4.68008e-05
7 *1426:Q 0.000169712
8 *366:43 0.000467497
9 *366:28 0.000733555
10 *366:14 0.000475533
11 *366:10 0.000275816
12 *366:8 0.000485722
13 *1193:A *1296:B 5.90675e-06
14 *1193:A *367:32 1.4345e-05
15 *1296:A *1296:B 6.87362e-05
16 *1378:A1 *1296:B 0
17 *1378:A1 *367:32 5.50106e-05
18 *1378:A1 *379:25 7.67478e-05
19 *1539:A *1540:A 5.50106e-05
20 *1539:A *383:8 0
21 *366:10 *383:8 0
22 *366:14 *377:10 0.000141869
23 *366:28 *367:32 5.75972e-05
24 *366:43 *1296:B 2.25419e-05
25 *366:43 *367:32 0.000273074
26 sticky_illegal *1539:A 1.94812e-05
27 *1192:B1 *366:28 0.000359332
28 *1296:C *1193:A 0
29 *1296:C *1296:A 4.07902e-05
30 *1297:B1 *1296:A 1.32314e-05
31 *1378:B1 *1378:A1 1.63796e-05
32 *1378:B1 *366:28 1.76557e-05
33 *1381:D *366:8 3.17963e-05
34 *80:8 *366:10 0.000125894
35 *80:8 *366:14 6.93449e-05
36 *152:23 *366:28 0.00071411
37 *294:125 *366:14 0
38 *294:129 *366:8 1.33722e-05
39 *294:138 *366:8 5.67058e-05
40 *333:21 *366:28 9.74235e-05
*RES
1 *1426:Q *366:8 40.5271 
2 *366:8 *366:10 4.01857 
3 *366:10 *366:14 17.61 
4 *366:14 *366:28 42.2007 
5 *366:28 *1378:A1 24.595 
6 *366:28 *366:43 5.42714 
7 *366:43 *1296:A 26.0243 
8 *366:43 *1193:A 23.4971 
9 *366:14 *1192:A1 23.1968 
10 *366:10 *1457:A 38 
11 *366:8 *1539:A 40.5271 
*END

*D_NET *367 0.00590504
*CONN
*I *1540:A I *D sky130_fd_sc_hd__buf_2
*I *1460:A I *D sky130_fd_sc_hd__dlygate4sd3_1
*I *1193:B I *D sky130_fd_sc_hd__nor2_1
*I *1296:B I *D sky130_fd_sc_hd__or3_2
*I *1425:Q O *D sky130_fd_sc_hd__dfxtp_1
*CAP
1 *1540:A 0.000652835
2 *1460:A 4.8358e-05
3 *1193:B 0
4 *1296:B 0.000204021
5 *1425:Q 8.73042e-05
6 *367:32 0.000486548
7 *367:20 0.000722201
8 *367:12 0.00126873
9 *367:8 0.000311886
10 *367:20 *379:12 0
11 *367:20 *379:25 4.7869e-05
12 *367:32 *379:25 6.9805e-05
13 group_error *1540:A 3.87132e-05
14 sticky_illegal *1540:A 2.65879e-05
15 sticky_tamper *1540:A 1.73399e-05
16 *1192:B1 *1460:A 9.75779e-05
17 *1192:B1 *367:20 1.32314e-05
18 *1193:A *1296:B 5.90675e-06
19 *1193:A *367:32 1.4345e-05
20 *1296:A *1296:B 6.87362e-05
21 *1296:C *1296:B 1.24376e-05
22 *1378:A1 *1296:B 0
23 *1378:A1 *367:32 5.50106e-05
24 *1378:B1 *367:32 0.000136486
25 *1539:A *1540:A 5.50106e-05
26 *68:9 *1540:A 0.000143655
27 *76:9 *367:12 0.000143655
28 *125:10 *367:20 0.000167443
29 *135:57 *367:20 3.70187e-05
30 *135:57 *367:32 0.000222123
31 *135:70 *367:20 0.000108569
32 *299:8 *367:8 0
33 *299:8 *367:20 0
34 *302:117 *367:8 0
35 *333:21 *367:20 0.000118736
36 *333:21 *367:32 0.000169683
37 *366:28 *367:32 5.75972e-05
38 *366:43 *1296:B 2.25419e-05
39 *366:43 *367:32 0.000273074
*RES
1 *1425:Q *367:8 39.5536 
2 *367:8 *367:12 18.9564 
3 *367:12 *367:20 39.3421 
4 *367:20 *367:32 38.7207 
5 *367:32 *1296:B 27.35 
6 *367:32 *1193:B 23 
7 *367:20 *1460:A 24.0979 
8 *367:12 *1540:A 35.0764 
*END

*D_NET *368 0.000729129
*CONN
*I *1541:A I *D sky130_fd_sc_hd__buf_2
*I *1438:X O *D sky130_fd_sc_hd__clkbuf_1
*CAP
1 *1541:A 0
2 *1438:X 0.000309221
3 *368:10 0.000309221
4 *1373:A *368:10 5.70419e-05
5 *124:8 *368:10 5.36457e-05
6 *294:157 *368:10 0
7 *302:117 *368:10 0
8 *344:10 *368:10 0
*RES
1 *1438:X *368:10 43.8207 
2 *368:10 *1541:A 38 
*END

*D_NET *369 0.0224734
*CONN
*I *1333:A I *D sky130_fd_sc_hd__and3_1
*I *1358:B I *D sky130_fd_sc_hd__and3b_1
*I *1355:A I *D sky130_fd_sc_hd__and3_1
*I *1366:A I *D sky130_fd_sc_hd__and2_1
*I *1364:B I *D sky130_fd_sc_hd__and3b_1
*I *1361:B I *D sky130_fd_sc_hd__and3b_1
*I *1352:C I *D sky130_fd_sc_hd__and3b_1
*I *1336:C I *D sky130_fd_sc_hd__and3b_1
*I *1339:A I *D sky130_fd_sc_hd__and3_1
*I *1321:B I *D sky130_fd_sc_hd__and2b_1
*I *1447:X O *D sky130_fd_sc_hd__clkbuf_2
*CAP
1 *1333:A 0.00032748
2 *1358:B 0.000281155
3 *1355:A 0
4 *1366:A 0.000399967
5 *1364:B 0
6 *1361:B 0
7 *1352:C 0.000185933
8 *1336:C 0
9 *1339:A 0.000478489
10 *1321:B 0.000152988
11 *1447:X 0.00030632
12 *369:116 0.000597966
13 *369:106 0.000991311
14 *369:96 0.00105264
15 *369:92 0.000297652
16 *369:90 0.00110218
17 *369:61 0.0012841
18 *369:52 7.87648e-05
19 *369:33 0.000609632
20 *369:31 0.000562705
21 *369:25 0.00205887
22 *369:23 0.00170349
23 *369:12 0.000319945
24 *369:10 0.00030632
25 *1339:A *372:16 0.00105094
26 *369:31 *372:16 0.000363379
27 *369:33 *372:16 9.77405e-05
28 *1301:A *369:96 0
29 *1301:A *369:106 0.000157299
30 *1309:C1 *369:25 0
31 *1339:C *1339:A 0.000158071
32 *1353:B *369:90 2.93431e-05
33 *1354:B *369:92 3.70094e-05
34 *1354:B *369:96 0.000168754
35 *1356:A2 *1358:B 0.00039759
36 *1357:A *1358:B 6.9805e-05
37 *1357:B *369:96 0
38 *1358:A_N *1358:B 5.50049e-05
39 *1361:C *369:116 1.39317e-05
40 *1362:B *369:116 0.000100415
41 *1363:B *369:106 8.4047e-05
42 *1363:C *369:106 1.5769e-05
43 *1363:C *369:116 0.000134652
44 *1415:CLK *1339:A 3.16936e-05
45 *1415:D *1339:A 0.000186491
46 *1422:D *369:116 2.45549e-06
47 *1447:A *369:10 0.000512719
48 *1447:A *369:25 0
49 *1520:A *369:10 0
50 *3:19 *1333:A 0.000609752
51 *108:10 *1321:B 0.000190627
52 *108:10 *369:10 0.000167443
53 *139:36 *369:25 9.63918e-05
54 *140:26 *369:25 0
55 *231:33 *369:25 0.000663994
56 *231:33 *369:31 0.000136486
57 *231:33 *369:61 0
58 *231:39 *369:61 0
59 *231:39 *369:90 0
60 *238:12 *369:25 0
61 *258:41 *369:25 0.000663453
62 *258:47 *369:25 0.000137441
63 *272:17 *369:90 0
64 *272:19 *369:90 0.000139647
65 *272:19 *369:92 2.46345e-05
66 *274:8 *369:90 0
67 *275:10 *369:90 5.56336e-05
68 *278:10 *1358:B 0.000612366
69 *279:8 *369:116 8.62783e-05
70 *292:25 *369:25 0
71 *292:105 *1321:B 5.50106e-05
72 *292:105 *369:23 0.000304808
73 *292:111 *369:25 3.47781e-05
74 *292:140 *369:25 0.000253061
75 *347:24 *369:106 0.000379403
76 *347:31 *369:96 0
77 *347:71 *369:90 0.000140287
78 *348:16 *1358:B 0.000119313
79 *348:31 *1358:B 2.93845e-05
80 *349:19 *369:106 0.000132665
81 *349:27 *369:116 8.4047e-05
82 *357:26 *369:52 0
83 *357:26 *369:61 0
84 *358:10 *1339:A 0.000402806
85 *361:12 *1352:C 5.79559e-05
86 *362:10 *369:25 0.000104245
87 *362:23 *369:25 2.65002e-05
*RES
1 *1447:X *369:10 44.8979 
2 *369:10 *369:12 15 
3 *369:12 *1321:B 26.48 
4 *369:12 *369:23 18.48 
5 *369:23 *369:25 35.0071 
6 *369:25 *369:31 20.8621 
7 *369:31 *369:33 1.09786 
8 *369:33 *1339:A 39.0536 
9 *369:33 *369:52 31.5536 
10 *369:52 *1336:C 23 
11 *369:31 *369:61 20.7793 
12 *369:61 *1352:C 40.1957 
13 *369:61 *369:90 43.63 
14 *369:90 *369:92 0.849286 
15 *369:92 *369:96 20.075 
16 *369:96 *369:106 38.7 
17 *369:106 *369:116 39.1143 
18 *369:116 *1361:B 23 
19 *369:106 *1364:B 23 
20 *369:96 *1366:A 29.815 
21 *369:92 *1355:A 38 
22 *369:90 *1358:B 48.0464 
23 *369:25 *1333:A 44.815 
*END

*D_NET *370 0.00992888
*CONN
*I *1330:C I *D sky130_fd_sc_hd__and3b_1
*I *1327:A I *D sky130_fd_sc_hd__and3_1
*I *1324:A I *D sky130_fd_sc_hd__and3_1
*I *1345:A I *D sky130_fd_sc_hd__and3_1
*I *1348:A I *D sky130_fd_sc_hd__and3_1
*I *1342:C I *D sky130_fd_sc_hd__and3b_1
*I *1448:X O *D sky130_fd_sc_hd__buf_1
*CAP
1 *1330:C 0.000175626
2 *1327:A 0
3 *1324:A 0
4 *1345:A 0.000234557
5 *1348:A 0.000229499
6 *1342:C 0.000584205
7 *1448:X 0.000418255
8 *370:63 0.000759287
9 *370:20 0.001106
10 *370:18 0.00112518
11 *370:16 0.00135761
12 *370:14 0.000208712
13 *370:12 0.000384338
14 *370:10 0.000418255
15 *1298:C *370:20 0
16 *1306:B *1348:A 4.79641e-05
17 *1306:C *1348:A 0.0002263
18 *1324:B *370:63 5.12254e-05
19 *1324:C *370:63 9.70259e-06
20 *1341:A2 *1342:C 0
21 *1345:C *1345:A 6.21121e-05
22 *1410:D *370:63 0.00013179
23 *1434:A *370:18 9.47067e-05
24 *1434:A *370:20 9.11002e-05
25 *1530:A *1348:A 0.000311554
26 *1533:A *1345:A 5.3304e-05
27 *1535:A *370:18 0
28 *116:10 *1345:A 5.67058e-05
29 *239:8 *370:20 0
30 *258:10 *370:10 0.000154147
31 *258:16 *370:10 3.70187e-05
32 *262:73 *1342:C 0
33 *292:46 *1330:C 0.000107611
34 *292:46 *370:14 0.000424647
35 *300:10 *1345:A 0.000140259
36 *334:25 *370:18 0.000230617
37 *334:25 *370:63 0.000220485
38 *345:12 *370:10 1.69668e-05
39 *354:12 *370:10 3.47776e-05
40 *354:14 *370:10 5.12254e-05
41 *355:49 *370:10 8.67444e-05
42 *356:24 *1342:C 0
43 *358:58 *370:20 8.4047e-05
44 *359:10 *1342:C 5.26101e-05
45 *359:10 *370:20 9.48381e-06
46 *359:16 *1348:A 0.000140259
47 *359:22 *370:20 0
48 *362:36 *370:18 0
49 *362:36 *370:20 0
*RES
1 *1448:X *370:10 46.3271 
2 *370:10 *370:12 15 
3 *370:12 *370:14 4.90929 
4 *370:14 *370:16 15 
5 *370:16 *370:18 13.1743 
6 *370:18 *370:20 6.13143 
7 *370:20 *1342:C 47.86 
8 *370:20 *1348:A 44.8357 
9 *370:18 *1345:A 42.9093 
10 *370:16 *370:63 31.6543 
11 *370:63 *1324:A 23 
12 *370:14 *1327:A 23 
13 *370:12 *1330:C 25.5271 
*END

*D_NET *371 0.0208795
*CONN
*I *1279:A1 I *D sky130_fd_sc_hd__a21oi_1
*I *1276:A1 I *D sky130_fd_sc_hd__a21oi_1
*I *1260:A1 I *D sky130_fd_sc_hd__a21oi_1
*I *1257:A1 I *D sky130_fd_sc_hd__a21oi_1
*I *1255:A1 I *D sky130_fd_sc_hd__a21oi_1
*I *1266:A1 I *D sky130_fd_sc_hd__a21oi_1
*I *1261:A3 I *D sky130_fd_sc_hd__a31o_1
*I *1252:A1 I *D sky130_fd_sc_hd__a21oi_1
*I *1249:A1 I *D sky130_fd_sc_hd__a21oi_1
*I *1247:A2 I *D sky130_fd_sc_hd__a21oi_1
*I *1449:X O *D sky130_fd_sc_hd__buf_2
*CAP
1 *1279:A1 0
2 *1276:A1 0
3 *1260:A1 6.04768e-05
4 *1257:A1 0
5 *1255:A1 0
6 *1266:A1 0
7 *1261:A3 0
8 *1252:A1 2.34823e-05
9 *1249:A1 0.000391418
10 *1247:A2 0.000193761
11 *1449:X 0.000216688
12 *371:95 0.000760838
13 *371:87 0.00128727
14 *371:76 0.000871008
15 *371:63 0.00113835
16 *371:44 0.000960242
17 *371:38 0.000534516
18 *371:32 0.000893024
19 *371:24 0.000851245
20 *371:22 0.00222072
21 *371:14 0.00240482
22 *371:6 0.000492395
23 *1247:A2 *1247:A1 0.000529522
24 *1247:A2 *1247:B1 9.67842e-05
25 *1247:A2 *373:79 0.000342585
26 *1249:A1 *1252:B1 0.00012359
27 *1260:A1 *1260:B1 5.50106e-05
28 *371:32 *1260:B1 1.22803e-05
29 *371:32 *373:63 0.000514665
30 *371:32 *373:69 5.25848e-05
31 *371:38 *373:69 0.00042498
32 *371:44 *1247:A1 0.000125213
33 *371:44 *373:69 1.01436e-05
34 *371:44 *373:79 0.000505571
35 *371:44 *381:8 0.000141888
36 *371:63 *373:92 0
37 *371:76 *1252:B1 0.00018884
38 *371:95 *1261:B1 9.41704e-05
39 *371:95 *373:31 3.47781e-05
40 *371:95 *373:37 0.000448057
41 *371:95 *389:8 0.000141888
42 global_timeout_count[3] *371:87 1.76557e-05
43 global_timeout_count[5] *371:87 3.71369e-05
44 *1196:B *371:32 0
45 *1208:A *371:22 7.60125e-05
46 *1209:A1 *371:22 1.76557e-05
47 *1209:A3 *371:22 0.000123934
48 *1209:B1 *371:22 0.0002263
49 *1252:A2 *371:87 0.000141954
50 *1257:A2 *371:38 5.50106e-05
51 *1261:A1 *371:95 2.9853e-05
52 *1276:A2 *371:22 0.000153155
53 *1386:CLK *371:63 0
54 *1505:A *371:95 0
55 *1526:A *1249:A1 0.000173452
56 *86:10 *371:76 0.00010018
57 *86:10 *371:87 0.000238626
58 *89:8 *371:24 2.70433e-05
59 *89:8 *371:32 6.82599e-05
60 *91:10 *371:87 2.93845e-05
61 *91:10 *371:95 0.000167443
62 *95:12 *371:14 0.000106997
63 *169:10 *371:22 5.74317e-06
64 *193:24 *371:14 0
65 *196:28 *371:32 0
66 *196:55 *371:95 0
67 *201:66 *371:6 0.000184527
68 *206:10 *371:38 1.14452e-05
69 *206:10 *371:44 0.000140958
70 *209:10 *371:32 0.000166513
71 *212:10 *371:95 0
72 *213:10 *371:95 0.000381653
73 *293:134 *371:14 3.83778e-05
74 *315:10 *371:63 0.000189173
75 *316:72 *371:22 9.29763e-05
76 *324:34 *371:76 2.93747e-05
77 *326:23 *371:38 0.000133521
78 *326:23 *371:44 0.000157216
79 *326:23 *371:63 0
80 *326:60 *371:22 0.000401106
81 *326:60 *371:24 0
82 *327:43 *371:22 1.41129e-05
83 *329:12 *371:95 0
*RES
1 *1449:X *371:6 26.0036 
2 *371:6 *371:14 34.205 
3 *371:14 *371:22 48.5364 
4 *371:22 *371:24 1.72964 
5 *371:24 *371:32 30.7946 
6 *371:32 *371:38 21.525 
7 *371:38 *371:44 25.295 
8 *371:44 *1247:A2 30.4779 
9 *371:44 *371:63 38.2443 
10 *371:63 *1249:A1 31.1407 
11 *371:63 *371:76 7.31214 
12 *371:76 *1252:A1 23.4971 
13 *371:76 *371:87 12.0764 
14 *371:87 *371:95 47.5864 
15 *371:95 *1261:A3 23 
16 *371:87 *1266:A1 23 
17 *371:38 *1255:A1 38 
18 *371:32 *1257:A1 23 
19 *371:24 *1260:A1 38.9425 
20 *371:14 *1276:A1 23 
21 *371:6 *1279:A1 23 
*END

*D_NET *372 0.0159848
*CONN
*I *1225:B I *D sky130_fd_sc_hd__or4_1
*I *398:DIODE I *D sky130_fd_sc_hd__diode_2
*I *1479:X O *D sky130_fd_sc_hd__buf_1
*CAP
1 *1225:B 0.000127646
2 *398:DIODE 0
3 *1479:X 0.000602074
4 *372:34 0.00104587
5 *372:24 0.00267141
6 *372:16 0.0036989
7 *372:10 0.00254779
8 *372:24 *391:60 0.00128317
9 *1203:C *1225:B 8.35101e-05
10 *1203:C *372:34 2.93845e-05
11 *1206:A2 *372:34 0.000315852
12 *1216:B *372:34 0
13 *1225:A *1225:B 1.89493e-05
14 *1288:A2 *372:24 1.94693e-05
15 *1291:A2 *372:24 7.57122e-05
16 *1291:B1 *372:24 7.73389e-05
17 *1339:A *372:16 0.00105094
18 *1416:D *372:10 1.64354e-05
19 *115:8 *372:10 8.62783e-05
20 *137:16 *372:34 0.000339516
21 *163:8 *372:34 0.000820888
22 *163:12 *372:34 0
23 *171:37 *372:34 0
24 *174:8 *372:34 1.01436e-05
25 *225:14 *372:24 0.000218327
26 *262:29 *372:10 6.68793e-05
27 *262:73 *372:10 0.000183097
28 *264:10 *372:10 0
29 *265:8 *372:10 1.01436e-05
30 *267:10 *372:10 4.76829e-05
31 *302:22 *372:34 7.62842e-05
32 *358:39 *372:10 0
33 *363:10 *372:10 0
34 *369:31 *372:16 0.000363379
35 *369:33 *372:16 9.77405e-05
*RES
1 *1479:X *372:10 48.3157 
2 *372:10 *372:16 43.275 
3 *372:16 *372:24 47.2314 
4 *372:24 *372:34 37.2057 
5 *372:34 *398:DIODE 23 
6 *372:34 *1225:B 26.045 
*END

*D_NET *373 0.0230213
*CONN
*I *1279:B1 I *D sky130_fd_sc_hd__a21oi_1
*I *1260:B1 I *D sky130_fd_sc_hd__a21oi_1
*I *1257:B1 I *D sky130_fd_sc_hd__a21oi_1
*I *1255:B1 I *D sky130_fd_sc_hd__a21oi_1
*I *1252:B1 I *D sky130_fd_sc_hd__a21oi_1
*I *1249:B1 I *D sky130_fd_sc_hd__a21oi_1
*I *1247:B1 I *D sky130_fd_sc_hd__a21oi_1
*I *1261:B1 I *D sky130_fd_sc_hd__a31o_1
*I *1266:B1 I *D sky130_fd_sc_hd__a21oi_1
*I *1285:A I *D sky130_fd_sc_hd__nor2_1
*I *1450:X O *D sky130_fd_sc_hd__buf_2
*CAP
1 *1279:B1 0.000168844
2 *1260:B1 0.000229416
3 *1257:B1 2.34823e-05
4 *1255:B1 2.60896e-05
5 *1252:B1 0.000399862
6 *1249:B1 7.87468e-05
7 *1247:B1 5.97262e-05
8 *1261:B1 4.34165e-05
9 *1266:B1 0
10 *1285:A 0
11 *1450:X 0
12 *373:92 0.000932787
13 *373:79 0.00113899
14 *373:69 0.000865638
15 *373:63 0.000457158
16 *373:57 0.000709717
17 *373:37 0.000387617
18 *373:31 0.000903035
19 *373:27 0.00191285
20 *373:14 0.000797055
21 *373:10 0.00270771
22 *373:4 0.000899742
23 global_timeout_count[4] *1252:B1 9.84851e-05
24 group_timeout_count[15] *1249:B1 9.84851e-05
25 *1199:C *373:14 4.78793e-05
26 *1201:A *373:27 6.17437e-06
27 *1201:B *373:14 0.000159558
28 *1247:A2 *1247:B1 9.67842e-05
29 *1247:A2 *373:79 0.000342585
30 *1249:A1 *1252:B1 0.00012359
31 *1257:A2 *373:69 9.84851e-05
32 *1259:A *373:63 5.37348e-06
33 *1260:A1 *1260:B1 5.50106e-05
34 *1261:A1 *1261:B1 4.96717e-05
35 *1272:A1 *373:27 1.39317e-05
36 *1272:A2 *373:27 0.00013961
37 *1272:B1 *373:27 8.47306e-05
38 *1386:CLK *373:79 0
39 *1386:CLK *373:92 0.000456486
40 *1388:CLK *1255:B1 5.50049e-05
41 *1388:D *1255:B1 1.24376e-05
42 *1526:A *1249:B1 0.000228903
43 *1526:A *1252:B1 5.50106e-05
44 *84:8 *373:92 4.08537e-05
45 *85:8 *373:92 0
46 *91:10 *373:37 0.000169674
47 *92:10 *373:14 0.000169674
48 *94:12 *373:14 0
49 *94:12 *373:27 0.000227407
50 *96:10 *1279:B1 6.17437e-06
51 *161:12 *373:27 0.000221566
52 *193:24 *373:10 1.76557e-05
53 *193:30 *373:10 0.000119969
54 *193:42 *373:27 7.9567e-06
55 *194:12 *373:14 0
56 *196:18 *373:69 0.000212517
57 *196:18 *373:79 8.51432e-05
58 *196:22 *373:57 0.000140259
59 *196:22 *373:63 0.000965367
60 *196:22 *373:69 0.000226306
61 *196:28 *373:63 9.48381e-06
62 *196:43 *373:27 0.000401106
63 *196:43 *373:31 0
64 *196:43 *373:57 0.000163825
65 *196:45 *373:31 0
66 *196:55 *373:31 0
67 *197:64 *373:31 0
68 *198:22 *373:10 9.91895e-05
69 *198:35 *373:10 4.21281e-05
70 *201:22 *373:14 0
71 *201:66 *1279:B1 0.000129841
72 *201:66 *373:10 9.24795e-06
73 *207:8 *373:69 3.70187e-05
74 *209:10 *1260:B1 0.00015637
75 *209:10 *373:63 1.01436e-05
76 *217:10 *373:27 0.000185434
77 *291:76 *373:79 0
78 *293:67 *373:10 2.29192e-05
79 *293:67 *373:14 9.43465e-05
80 *293:73 *373:14 0.000168873
81 *315:10 *373:79 0.000114092
82 *324:34 *1252:B1 5.67058e-05
83 *326:23 *373:69 0
84 *326:34 *1260:B1 4.33617e-05
85 *326:60 *1260:B1 0
86 *327:10 *373:31 4.96264e-05
87 *327:12 *373:31 7.91493e-05
88 *327:16 *373:31 0.000208091
89 *327:16 *373:37 0.0010737
90 *352:34 *373:92 0
91 *371:32 *1260:B1 1.22803e-05
92 *371:32 *373:63 0.000514665
93 *371:32 *373:69 5.25848e-05
94 *371:38 *373:69 0.00042498
95 *371:44 *373:69 1.01436e-05
96 *371:44 *373:79 0.000505571
97 *371:63 *373:92 0
98 *371:76 *1252:B1 0.00018884
99 *371:95 *1261:B1 9.41704e-05
100 *371:95 *373:31 3.47781e-05
101 *371:95 *373:37 0.000448057
*RES
1 *1450:X *373:4 23 
2 *373:4 *373:10 25.3986 
3 *373:10 *373:14 33.1043 
4 *373:14 *1285:A 23 
5 *373:10 *373:27 36.75 
6 *373:27 *373:31 24.3007 
7 *373:31 *373:37 29.8521 
8 *373:37 *1266:B1 23 
9 *373:31 *1261:B1 39.0979 
10 *373:27 *373:57 18.9771 
11 *373:57 *373:63 26.4757 
12 *373:63 *373:69 23.6586 
13 *373:69 *373:79 28.5679 
14 *373:79 *1247:B1 24.0979 
15 *373:79 *373:92 39.6529 
16 *373:92 *1249:B1 25.5271 
17 *373:92 *1252:B1 32.6736 
18 *373:69 *1255:B1 38.6214 
19 *373:63 *1257:B1 23.4971 
20 *373:57 *1260:B1 42.6607 
21 *373:4 *1279:B1 26.8736 
*END

*D_NET *374 0.00229768
*CONN
*I *1369:A3 I *D sky130_fd_sc_hd__a31o_1
*I *1317:B I *D sky130_fd_sc_hd__nand2b_1
*I *1542:X O *D sky130_fd_sc_hd__clkbuf_1
*CAP
1 *1369:A3 0.000327317
2 *1317:B 0.000228908
3 *1542:X 0.000451471
4 *374:8 0.0010077
5 *1441:A *1317:B 0
6 *1441:A *1369:A3 5.3304e-05
7 *126:10 *1369:A3 2.93747e-05
8 *139:24 *374:8 0
9 *237:20 *1317:B 0
10 *237:20 *374:8 0
11 *250:10 *1317:B 0
12 *250:10 *374:8 0
13 *250:23 *374:8 0
14 *292:147 *1317:B 0.000199611
*RES
1 *1542:X *374:8 45.8921 
2 *374:8 *1317:B 42.8161 
3 *374:8 *1369:A3 43.3857 
*END

*D_NET *375 0.017751
*CONN
*I *1210:B I *D sky130_fd_sc_hd__or2_1
*I *1237:B I *D sky130_fd_sc_hd__nor2_1
*I *1234:C1 I *D sky130_fd_sc_hd__a221o_1
*I *1194:A I *D sky130_fd_sc_hd__or3b_1
*I *1286:B1 I *D sky130_fd_sc_hd__a21oi_1
*I *1164:A I *D sky130_fd_sc_hd__inv_2
*I *1370:A I *D sky130_fd_sc_hd__nor2_1
*I *1318:A I *D sky130_fd_sc_hd__nor2_1
*I *1372:A I *D sky130_fd_sc_hd__nor3_1
*I *1369:B1 I *D sky130_fd_sc_hd__a31o_1
*I *1451:X O *D sky130_fd_sc_hd__buf_2
*CAP
1 *1210:B 9.25388e-05
2 *1237:B 3.15879e-05
3 *1234:C1 9.54584e-05
4 *1194:A 0
5 *1286:B1 0.000324635
6 *1164:A 0
7 *1370:A 0
8 *1318:A 2.34823e-05
9 *1372:A 0
10 *1369:B1 6.59038e-05
11 *1451:X 0.000249319
12 *375:89 0.000414457
13 *375:73 0.000765513
14 *375:54 0.0015262
15 *375:41 0.000936486
16 *375:30 0.000521953
17 *375:28 0.000649656
18 *375:26 0.00126054
19 *375:20 0.00145535
20 *375:14 0.00100378
21 *375:8 0.00073199
22 *375:14 *388:10 0.000381988
23 *375:20 *380:8 0
24 *375:26 *396:10 0
25 *1185:A *375:73 0.000301719
26 *1194:B *375:89 0.000185755
27 *1234:A2 *1234:C1 0
28 *1234:B2 *1234:C1 1.28818e-05
29 *1286:A1 *1286:B1 4.9662e-05
30 *1315:B *375:73 1.27898e-05
31 *1318:B *375:54 0.000228903
32 *1320:A *375:73 5.67058e-05
33 *1369:A1 *1369:B1 0.000140259
34 *1369:A1 *375:28 0.000790567
35 *1369:A1 *375:30 0.000614974
36 *1373:B *375:73 0
37 *1380:A2 *1286:B1 0
38 *1430:CLK *375:73 0.000441978
39 *1431:CLK *375:20 0.000227208
40 *1458:A *375:8 0
41 *1482:A *375:8 0
42 *102:8 *375:8 0.000169674
43 *106:10 *375:14 5.67058e-05
44 *106:10 *375:20 1.32314e-05
45 *129:10 *375:73 0
46 *131:8 *375:26 0
47 *138:10 *375:54 6.35704e-05
48 *138:12 *375:41 4.90994e-05
49 *138:12 *375:54 0.000170651
50 *138:16 *375:41 8.08511e-05
51 *145:27 *1286:B1 0.000196746
52 *145:36 *1286:B1 0
53 *149:16 *375:54 0.000206413
54 *152:6 *375:26 0.000114856
55 *152:23 *375:20 0
56 *152:23 *375:26 0
57 *153:23 *375:28 0.000253936
58 *188:10 *375:26 0.000114083
59 *189:10 *375:26 0.000139647
60 *251:6 *375:54 2.93845e-05
61 *251:6 *375:73 8.00676e-05
62 *252:8 *375:73 0
63 *288:12 *375:89 0.000185755
64 *290:57 *375:28 0.000484551
65 *292:183 *375:41 0.000200432
66 *292:183 *375:54 2.08324e-05
67 *294:23 *375:26 0
68 *294:73 *375:26 0
69 *294:84 *375:20 0
70 *294:84 *375:26 0
71 *294:92 *1237:B 3.91386e-05
72 *294:92 *375:14 0.000414182
73 *294:92 *375:20 0.000119969
74 *294:99 *375:20 0
75 *297:41 *375:26 0.000183733
76 *302:16 *375:26 0.000229702
77 *302:16 *375:28 0.000107466
78 *305:6 *375:20 1.14762e-05
79 *305:101 *1210:B 5.50106e-05
80 *305:101 *375:14 1.12487e-05
81 *310:12 *375:26 0.000214044
82 *310:99 *375:14 0
83 *335:10 *375:54 0
84 *336:12 *375:73 0
85 *336:27 *375:54 0
86 *336:56 *375:73 0
87 *336:64 *375:73 0.000140259
88 *337:35 *375:54 0
89 *338:10 *375:73 0
90 *340:25 *375:73 0
*RES
1 *1451:X *375:8 43.075 
2 *375:8 *375:14 24.9843 
3 *375:14 *375:20 26.9936 
4 *375:20 *375:26 31.675 
5 *375:26 *375:28 13.0086 
6 *375:28 *375:30 6.815 
7 *375:30 *1369:B1 24.5743 
8 *375:30 *375:41 20.4271 
9 *375:41 *1372:A 38 
10 *375:41 *375:54 30.5979 
11 *375:54 *1318:A 23.4971 
12 *375:54 *375:73 47.1307 
13 *375:73 *1370:A 23 
14 *375:28 *1164:A 23 
15 *375:26 *375:89 32.61 
16 *375:89 *1286:B1 29.525 
17 *375:89 *1194:A 23 
18 *375:20 *1234:C1 39.595 
19 *375:14 *1237:B 23.8493 
20 *375:8 *1210:B 39.5743 
*END

*D_NET *376 0.0012318
*CONN
*I *1297:A1 I *D sky130_fd_sc_hd__o21a_1
*I *1452:X O *D sky130_fd_sc_hd__dlygate4sd3_1
*CAP
1 *1297:A1 0
2 *1452:X 0.000479708
3 *376:10 0.000479708
4 *107:8 *376:10 0
5 *135:21 *376:10 0
6 *135:40 *376:10 0.000272383
7 *302:104 *376:10 0
*RES
1 *1452:X *376:10 45.2914 
2 *376:10 *1297:A1 38 
*END

*D_NET *377 0.000910353
*CONN
*I *1192:A2 I *D sky130_fd_sc_hd__o31a_1
*I *1458:X O *D sky130_fd_sc_hd__dlygate4sd3_1
*CAP
1 *1192:A2 0
2 *1458:X 0.000384242
3 *377:10 0.000384242
4 *366:14 *377:10 0.000141869
*RES
1 *1458:X *377:10 43.3857 
2 *377:10 *1192:A2 38 
*END

*D_NET *378 0.000996918
*CONN
*I *1161:A I *D sky130_fd_sc_hd__inv_2
*I *1459:X O *D sky130_fd_sc_hd__dlygate4sd3_1
*CAP
1 *1161:A 0
2 *1459:X 0.000415203
3 *378:10 0.000415203
4 *106:10 *378:10 0
5 *132:10 *378:10 0.000166513
6 *294:84 *378:10 0
7 *294:99 *378:10 0
8 *294:112 *378:10 0
9 *294:125 *378:10 0
10 *310:99 *378:10 0
*RES
1 *1459:X *378:10 44.6493 
2 *378:10 *1161:A 38 
*END

*D_NET *379 0.0020475
*CONN
*I *1378:A2 I *D sky130_fd_sc_hd__o31ai_1
*I *1367:A1 I *D sky130_fd_sc_hd__o21a_1
*I *1460:X O *D sky130_fd_sc_hd__dlygate4sd3_1
*CAP
1 *1378:A2 0
2 *1367:A1 0
3 *1460:X 0
4 *379:25 0.000404436
5 *379:12 0.000417121
6 *379:4 0.000821558
7 *1378:A1 *379:25 7.67478e-05
8 *1378:B1 *379:25 0.000133601
9 *135:21 *379:25 0
10 *135:57 *379:25 7.63648e-05
11 *367:20 *379:12 0
12 *367:20 *379:25 4.7869e-05
13 *367:32 *379:25 6.9805e-05
*RES
1 *1460:X *379:4 23 
2 *379:4 *379:12 35.8621 
3 *379:12 *1367:A1 23 
4 *379:4 *379:25 39.1246 
5 *379:25 *1378:A2 23 
*END

*D_NET *380 0.000281243
*CONN
*I *1431:D I *D sky130_fd_sc_hd__dfxtp_2
*I *1461:X O *D sky130_fd_sc_hd__dlygate4sd3_1
*CAP
1 *1431:D 1.5148e-05
2 *1461:X 6.56939e-05
3 *380:8 8.0842e-05
4 *1431:CLK *1431:D 3.24476e-06
5 *152:23 *380:8 0.000116314
6 *375:20 *380:8 0
*RES
1 *1461:X *380:8 39.5536 
2 *380:8 *1431:D 38.1916 
*END

*D_NET *381 0.00175348
*CONN
*I *1247:A1 I *D sky130_fd_sc_hd__a21oi_1
*I *1462:X O *D sky130_fd_sc_hd__dlygate4sd3_1
*CAP
1 *1247:A1 0.000329116
2 *1462:X 6.60517e-05
3 *381:8 0.000395167
4 *1247:A2 *1247:A1 0.000529522
5 *315:10 *381:8 0.000166522
6 *371:44 *1247:A1 0.000125213
7 *371:44 *381:8 0.000141888
*RES
1 *1462:X *381:8 40.2579 
2 *381:8 *1247:A1 45.7886 
*END

*D_NET *382 0.000660059
*CONN
*I *1281:A1 I *D sky130_fd_sc_hd__o211a_1
*I *1463:X O *D sky130_fd_sc_hd__dlygate4sd3_1
*CAP
1 *1281:A1 0
2 *1463:X 0.000228938
3 *382:6 0.000228938
4 *1281:B1 *382:6 0.000184527
5 *97:10 *382:6 1.76557e-05
*RES
1 *1463:X *382:6 27.9093 
2 *382:6 *1281:A1 23 
*END

*D_NET *383 0.000859266
*CONN
*I *1368:A2 I *D sky130_fd_sc_hd__o21a_1
*I *1480:X O *D sky130_fd_sc_hd__clkbuf_1
*CAP
1 *1368:A2 0.000170406
2 *1480:X 0.000230057
3 *383:8 0.000400463
4 *1368:A2 *1368:A1 5.83407e-05
5 *1539:A *383:8 0
6 *333:21 *383:8 0
7 *366:10 *383:8 0
*RES
1 *1480:X *383:8 42.0186 
2 *383:8 *1368:A2 40.5271 
*END

*D_NET *384 0.0021571
*CONN
*I *1163:A I *D sky130_fd_sc_hd__inv_2
*I *1464:X O *D sky130_fd_sc_hd__dlygate4sd3_1
*CAP
1 *1163:A 0
2 *1464:X 9.9598e-05
3 *384:12 0.000685695
4 *384:8 0.000785293
5 *133:23 *384:12 0
6 *133:45 *384:12 0
7 *143:10 *384:12 8.4047e-05
8 *143:12 *384:12 1.01436e-05
9 *148:10 *384:12 3.46344e-05
10 *294:16 *384:8 0.000141954
11 *305:27 *384:12 0.000315732
12 *309:40 *384:12 0
13 *310:73 *384:12 0
14 *312:8 *384:12 0
15 *314:20 *384:12 0
16 *314:33 *384:12 0
*RES
1 *1464:X *384:8 39.5743 
2 *384:8 *384:12 28.1743 
3 *384:12 *1163:A 23 
*END

*D_NET *385 0.00117328
*CONN
*I *1291:B2 I *D sky130_fd_sc_hd__o221a_1
*I *1465:X O *D sky130_fd_sc_hd__dlygate4sd3_1
*CAP
1 *1291:B2 0
2 *1465:X 0.000302736
3 *385:8 0.000302736
4 *385:8 *1465:A 0.000215131
5 *385:8 *392:10 0.000348465
6 *1291:C1 *385:8 4.21594e-06
7 *138:16 *385:8 0
8 *343:8 *385:8 0
*RES
1 *1465:X *385:8 45.54 
2 *385:8 *1291:B2 38 
*END

*D_NET *386 0.00117974
*CONN
*I *1284:B1 I *D sky130_fd_sc_hd__a21oi_1
*I *1453:X O *D sky130_fd_sc_hd__dlygate4sd3_1
*CAP
1 *1284:B1 0
2 *1453:X 0.000361878
3 *386:10 0.000361878
4 *1282:A_N *386:10 3.53115e-05
5 *1282:B *386:10 5.06148e-05
6 *1284:A2 *386:10 0.000127169
7 *1285:B *386:10 7.92994e-05
8 *99:10 *386:10 5.78198e-05
9 *200:25 *386:10 9.67842e-05
10 *223:8 *386:10 2.81406e-06
11 *322:12 *386:10 6.17437e-06
*RES
1 *1453:X *386:10 29.6079 
2 *386:10 *1284:B1 23 
*END

*D_NET *387 9.50084e-05
*CONN
*I *1162:A I *D sky130_fd_sc_hd__inv_2
*I *1454:X O *D sky130_fd_sc_hd__dlygate4sd3_1
*CAP
1 *1162:A 1.91513e-05
2 *1454:X 1.91513e-05
3 *9:15 *1162:A 5.67058e-05
*RES
1 *1454:X *1162:A 46.6214 
*END

*D_NET *388 0.00108925
*CONN
*I *1210:A I *D sky130_fd_sc_hd__or2_1
*I *1455:X O *D sky130_fd_sc_hd__dlygate4sd3_1
*CAP
1 *1210:A 0
2 *1455:X 0.000177764
3 *388:10 0.000177764
4 *294:92 *388:10 2.4754e-05
5 *305:101 *388:10 0.000326983
6 *375:14 *388:10 0.000381988
*RES
1 *1455:X *388:10 43.4686 
2 *388:10 *1210:A 38 
*END

*D_NET *389 0.000662717
*CONN
*I *1262:A1 I *D sky130_fd_sc_hd__o21ba_1
*I *1456:X O *D sky130_fd_sc_hd__dlygate4sd3_1
*CAP
1 *1262:A1 0.00018174
2 *1456:X 7.86745e-05
3 *389:8 0.000260415
4 *329:12 *389:8 0
5 *371:95 *389:8 0.000141888
*RES
1 *1456:X *389:8 39.9057 
2 *389:8 *1262:A1 40.5271 
*END

*D_NET *390 0.000179095
*CONN
*I *1368:A1 I *D sky130_fd_sc_hd__o21a_1
*I *1457:X O *D sky130_fd_sc_hd__dlygate4sd3_1
*CAP
1 *1368:A1 6.0377e-05
2 *1457:X 6.0377e-05
3 *1368:A2 *1368:A1 5.83407e-05
*RES
1 *1457:X *1368:A1 47.5743 
*END

*D_NET *391 0.00812837
*CONN
*I *1205:A1 I *D sky130_fd_sc_hd__o21ba_1
*I *1216:A I *D sky130_fd_sc_hd__or2_1
*I *1287:A2 I *D sky130_fd_sc_hd__a21boi_1
*I *1290:A1 I *D sky130_fd_sc_hd__o211a_1
*I *1289:B1 I *D sky130_fd_sc_hd__o21ai_1
*I *1288:B1 I *D sky130_fd_sc_hd__o21a_1
*I *1401:Q O *D sky130_fd_sc_hd__dfxtp_1
*CAP
1 *1205:A1 0
2 *1216:A 0
3 *1287:A2 0
4 *1290:A1 0
5 *1289:B1 0
6 *1288:B1 0
7 *1401:Q 0
8 *391:73 0.000567545
9 *391:60 0.00120648
10 *391:38 0.000100909
11 *391:30 0.000124391
12 *391:18 0.000112992
13 *391:10 0.00022195
14 *391:8 0.000648468
15 *391:4 0.00115496
16 *391:38 *392:10 5.01986e-05
17 *391:38 *392:22 8.85189e-05
18 *1216:B *391:73 0.000185428
19 *1227:A2 *391:60 3.55732e-05
20 *1290:B1 *391:18 4.23817e-05
21 *1291:C1 *391:18 2.72055e-05
22 *100:10 *391:38 0
23 *163:12 *391:73 0
24 *166:10 *391:73 0.000135547
25 *171:10 *391:8 9.24795e-06
26 *171:10 *391:10 5.45334e-05
27 *171:10 *391:18 3.22879e-05
28 *171:10 *391:38 9.5877e-05
29 *171:18 *391:60 8.78244e-05
30 *171:37 *391:60 7.01251e-05
31 *181:14 *391:60 5.3304e-05
32 *183:14 *391:60 0.000438474
33 *183:14 *391:73 0.000176763
34 *225:8 *391:60 0
35 *225:14 *391:60 0.000121856
36 *226:6 *391:10 0.000102093
37 *226:6 *391:18 2.93845e-05
38 *226:12 *391:18 0.000111852
39 *293:33 *391:8 0.000270209
40 *314:20 *391:73 0.000152553
41 *317:38 *391:10 9.67842e-05
42 *317:38 *391:38 0.000194309
43 *343:8 *391:18 1.44546e-05
44 *343:12 *391:18 3.07161e-05
45 *372:24 *391:60 0.00128317
*RES
1 *1401:Q *391:4 23 
2 *391:4 *391:8 8.61714 
3 *391:8 *391:10 3.48 
4 *391:10 *391:18 33.5836 
5 *391:18 *1288:B1 23 
6 *391:10 *1289:B1 23 
7 *391:8 *391:30 0.497143 
8 *391:30 *391:38 33.7079 
9 *391:38 *1290:A1 23 
10 *391:30 *1287:A2 23 
11 *391:4 *391:60 48.7671 
12 *391:60 *1216:A 23 
13 *391:60 *391:73 41.5171 
14 *391:73 *1205:A1 23 
*END

*D_NET *392 0.010373
*CONN
*I *1465:A I *D sky130_fd_sc_hd__dlygate4sd3_1
*I *1287:A1 I *D sky130_fd_sc_hd__a21boi_1
*I *1203:A I *D sky130_fd_sc_hd__or3_1
*I *1402:Q O *D sky130_fd_sc_hd__dfxtp_1
*CAP
1 *1465:A 0.000284199
2 *1287:A1 0
3 *1203:A 0
4 *1402:Q 0.000102669
5 *392:28 0.00185422
6 *392:22 0.00286146
7 *392:10 0.00150033
8 *392:8 0.000879967
9 *1205:A2 *392:28 0.000263652
10 *1290:B1 *392:10 0
11 *1291:C1 *392:10 0
12 *100:10 *392:10 0
13 *100:10 *392:22 0.000141954
14 *101:8 *1465:A 0
15 *101:8 *392:10 0
16 *138:16 *1465:A 0
17 *138:29 *392:10 9.63918e-05
18 *163:14 *392:28 0.000614094
19 *163:22 *392:22 0.000140259
20 *163:22 *392:28 4.5051e-05
21 *164:6 *392:28 0.000180212
22 *170:8 *392:22 9.67842e-05
23 *193:10 *392:28 7.03766e-05
24 *295:14 *392:28 7.03766e-05
25 *306:14 *392:28 9.16362e-05
26 *306:29 *392:28 0.000325416
27 *313:46 *392:28 3.58358e-05
28 *339:14 *392:28 1.5769e-05
29 *385:8 *1465:A 0.000215131
30 *385:8 *392:10 0.000348465
31 *391:38 *392:10 5.01986e-05
32 *391:38 *392:22 8.85189e-05
*RES
1 *1402:Q *392:8 39.0979 
2 *392:8 *392:10 8.59643 
3 *392:10 *392:22 30.8257 
4 *392:22 *392:28 42.7779 
5 *392:28 *1203:A 38 
6 *392:10 *1287:A1 38 
7 *392:8 *1465:A 44.1936 
*END

*D_NET *393 0.000428663
*CONN
*I *1230:B I *D sky130_fd_sc_hd__xor2_1
*I *1403:Q O *D sky130_fd_sc_hd__dfxtp_1
*CAP
1 *1230:B 0
2 *1403:Q 0.000135442
3 *393:10 0.000135442
4 *186:8 *393:10 0
5 *297:21 *393:10 0
6 *307:82 *393:10 0.000157779
*RES
1 *1403:Q *393:10 40.5271 
2 *393:10 *1230:B 38 
*END

*D_NET *394 0.000879114
*CONN
*I *1236:A2 I *D sky130_fd_sc_hd__o221a_1
*I *1235:A2_N I *D sky130_fd_sc_hd__o2bb2a_1
*I *1404:Q O *D sky130_fd_sc_hd__dfxtp_1
*CAP
1 *1236:A2 9.49477e-05
2 *1235:A2_N 0
3 *1404:Q 0
4 *394:10 0.000118486
5 *394:4 0.000213434
6 *394:10 *395:22 1.7992e-05
7 *1235:B1 *394:10 0
8 *1236:B2 *1236:A2 6.69899e-05
9 *136:10 *394:10 0
10 *190:6 *1236:A2 0.000226306
11 *191:10 *394:10 0.000140958
*RES
1 *1404:Q *394:4 23 
2 *394:4 *394:10 32.61 
3 *394:10 *1235:A2_N 23 
4 *394:4 *1236:A2 26.0243 
*END

*D_NET *395 0.00237245
*CONN
*I *1231:A2 I *D sky130_fd_sc_hd__a21o_1
*I *1236:B1 I *D sky130_fd_sc_hd__o221a_1
*I *1405:Q O *D sky130_fd_sc_hd__dfxtp_1
*CAP
1 *1231:A2 0
2 *1236:B1 0
3 *1405:Q 0.00034962
4 *395:22 0.000485493
5 *395:12 0.000485493
6 *395:10 0.00034962
7 *1293:A *395:22 2.87566e-05
8 *1405:D *395:10 9.41704e-05
9 *133:62 *395:22 0.000342273
10 *136:10 *395:22 0
11 *186:8 *395:10 4.48671e-05
12 *187:10 *395:22 2.93747e-05
13 *191:10 *395:22 6.07611e-06
14 *297:21 *395:10 0.000127272
15 *297:31 *395:10 1.14452e-05
16 *309:90 *395:22 0
17 *394:10 *395:22 1.7992e-05
*RES
1 *1405:Q *395:10 43.3857 
2 *395:10 *395:12 15 
3 *395:12 *395:22 40.7507 
4 *395:22 *1236:B1 23 
5 *395:12 *1231:A2 23 
*END

*D_NET *396 0.00133562
*CONN
*I *1233:B I *D sky130_fd_sc_hd__or2_1
*I *1232:B I *D sky130_fd_sc_hd__nand2_1
*I *1406:Q O *D sky130_fd_sc_hd__dfxtp_1
*CAP
1 *1233:B 0
2 *1232:B 0.000130242
3 *1406:Q 0.000420674
4 *396:12 0.000130242
5 *396:10 0.000420674
6 *152:23 *396:10 8.51329e-05
7 *309:23 *1232:B 5.41385e-05
8 *309:32 *1232:B 7.42621e-05
9 *309:38 *1232:B 2.02517e-05
10 *375:26 *396:10 0
*RES
1 *1406:Q *396:10 43.7379 
2 *396:10 *396:12 15 
3 *396:12 *1232:B 26.5214 
4 *396:12 *1233:B 23 
*END

*D_NET *397 0.000355689
*CONN
*I *1165:A I *D sky130_fd_sc_hd__inv_2
*I *1407:Q O *D sky130_fd_sc_hd__dfxtp_1
*CAP
1 *1165:A 0
2 *1407:Q 9.45831e-05
3 *397:8 9.45831e-05
4 *305:101 *397:8 0.000166522
5 *309:90 *397:8 0
*RES
1 *1407:Q *397:8 40.2579 
2 *397:8 *1165:A 38 
*END
