*SPEF "ieee 1481-1999"
*DESIGN "secure_boot_control_plane"
*DATE "06:45:04 Wednesday February 25, 2026"
*VENDOR "The OpenROAD Project"
*PROGRAM "OpenROAD"
*VERSION "edf00dff99f6c40d67a30c0e22a8191c5d2ed9d6"
*DESIGN_FLOW "NAME_SCOPE LOCAL" "PIN_CAP NONE"
*DIVIDER /
*DELIMITER :
*BUS_DELIMITER []
*T_UNIT 1 NS
*C_UNIT 1 PF
*R_UNIT 1 OHM
*L_UNIT 1 HENRY

*NAME_MAP
*1 clock_glitch
*2 cold_reset_req
*3 debug_enable
*4 file_denied
*5 fsm_error
*6 fw_fail
*7 fw_ok
*8 global_pin_ok
*9 group_autolock
*10 group_error
*11 group_suspended
*12 group_unlocked
*13 hdr_parse_fail
*14 illegal_in
*15 power_glitch
*16 safe_led
*17 security_breach
*18 size_mismatch
*19 tamper_in
*20 unlock_enable
*21 unlock_req
*22 user_irq
*25 warm_reset_req
*26 wb_ack_o
*27 wb_adr_i[0]
*28 wb_adr_i[10]
*29 wb_adr_i[11]
*30 wb_adr_i[12]
*31 wb_adr_i[13]
*32 wb_adr_i[14]
*33 wb_adr_i[15]
*34 wb_adr_i[16]
*35 wb_adr_i[17]
*36 wb_adr_i[18]
*37 wb_adr_i[19]
*38 wb_adr_i[1]
*39 wb_adr_i[20]
*40 wb_adr_i[21]
*41 wb_adr_i[22]
*42 wb_adr_i[23]
*43 wb_adr_i[24]
*44 wb_adr_i[25]
*45 wb_adr_i[26]
*46 wb_adr_i[27]
*47 wb_adr_i[28]
*48 wb_adr_i[29]
*49 wb_adr_i[2]
*50 wb_adr_i[30]
*51 wb_adr_i[31]
*52 wb_adr_i[3]
*53 wb_adr_i[4]
*54 wb_adr_i[5]
*55 wb_adr_i[6]
*56 wb_adr_i[7]
*57 wb_adr_i[8]
*58 wb_adr_i[9]
*59 wb_clk_i
*60 wb_cyc_i
*61 wb_dat_i[0]
*62 wb_dat_i[10]
*63 wb_dat_i[11]
*64 wb_dat_i[12]
*65 wb_dat_i[13]
*66 wb_dat_i[14]
*67 wb_dat_i[15]
*68 wb_dat_i[16]
*69 wb_dat_i[17]
*70 wb_dat_i[18]
*71 wb_dat_i[19]
*72 wb_dat_i[1]
*73 wb_dat_i[20]
*74 wb_dat_i[21]
*75 wb_dat_i[22]
*76 wb_dat_i[23]
*77 wb_dat_i[24]
*78 wb_dat_i[25]
*79 wb_dat_i[26]
*80 wb_dat_i[27]
*81 wb_dat_i[28]
*82 wb_dat_i[29]
*83 wb_dat_i[2]
*84 wb_dat_i[30]
*85 wb_dat_i[31]
*86 wb_dat_i[3]
*87 wb_dat_i[4]
*88 wb_dat_i[5]
*89 wb_dat_i[6]
*90 wb_dat_i[7]
*91 wb_dat_i[8]
*92 wb_dat_i[9]
*93 wb_dat_o[0]
*94 wb_dat_o[10]
*95 wb_dat_o[11]
*96 wb_dat_o[12]
*97 wb_dat_o[13]
*98 wb_dat_o[14]
*99 wb_dat_o[15]
*100 wb_dat_o[16]
*101 wb_dat_o[17]
*102 wb_dat_o[18]
*103 wb_dat_o[19]
*104 wb_dat_o[1]
*105 wb_dat_o[20]
*106 wb_dat_o[21]
*107 wb_dat_o[22]
*108 wb_dat_o[23]
*109 wb_dat_o[24]
*110 wb_dat_o[25]
*111 wb_dat_o[26]
*112 wb_dat_o[27]
*113 wb_dat_o[28]
*114 wb_dat_o[29]
*115 wb_dat_o[2]
*116 wb_dat_o[30]
*117 wb_dat_o[31]
*118 wb_dat_o[3]
*119 wb_dat_o[4]
*120 wb_dat_o[5]
*121 wb_dat_o[6]
*122 wb_dat_o[7]
*123 wb_dat_o[8]
*124 wb_dat_o[9]
*125 wb_rst_i
*126 wb_sel_i[0]
*127 wb_sel_i[1]
*128 wb_sel_i[2]
*129 wb_sel_i[3]
*130 wb_stb_i
*131 wb_we_i
*132 _000_
*133 _001_
*134 _002_
*135 _003_
*136 _004_
*137 _005_
*138 _006_
*139 _007_
*140 _008_
*141 _009_
*142 _010_
*143 _011_
*144 _012_
*145 _013_
*146 _014_
*147 _015_
*148 _016_
*149 _017_
*150 _018_
*151 _019_
*152 _020_
*153 _021_
*154 _022_
*155 _023_
*156 _024_
*157 _025_
*158 _026_
*159 _027_
*160 _028_
*161 _029_
*162 _030_
*163 _031_
*164 _032_
*165 _033_
*166 _034_
*167 _035_
*168 _036_
*169 _037_
*170 _038_
*171 _039_
*172 _040_
*173 _041_
*174 _042_
*175 _043_
*176 _044_
*177 _045_
*178 _046_
*179 _047_
*180 _048_
*181 _049_
*182 _050_
*183 _051_
*184 _052_
*185 _053_
*186 _054_
*187 _055_
*188 _056_
*189 _057_
*190 _058_
*191 _059_
*192 _060_
*193 _061_
*194 _062_
*195 _063_
*196 _064_
*197 _065_
*198 _066_
*199 _067_
*200 _068_
*201 _069_
*202 _070_
*203 _071_
*204 _072_
*205 _073_
*206 _074_
*207 _075_
*208 _076_
*209 _077_
*210 _078_
*211 _079_
*212 _080_
*213 _081_
*214 _082_
*215 _083_
*216 _084_
*217 _085_
*218 _086_
*219 _087_
*220 _088_
*221 _089_
*222 _090_
*223 _091_
*224 _092_
*225 _093_
*226 _094_
*227 _095_
*228 _096_
*229 _097_
*230 _098_
*231 _099_
*232 _100_
*233 _101_
*234 _102_
*235 _103_
*236 _104_
*237 _105_
*238 _106_
*239 _107_
*240 _108_
*241 _109_
*242 _110_
*243 _111_
*244 _112_
*245 _113_
*246 _114_
*247 _115_
*248 _116_
*249 _117_
*250 _118_
*251 _119_
*252 _120_
*253 _121_
*254 _122_
*255 _123_
*256 _124_
*257 _125_
*258 _126_
*259 _127_
*260 _128_
*261 _129_
*262 _130_
*263 _131_
*264 _132_
*265 _133_
*266 _134_
*267 _135_
*268 _136_
*269 _137_
*270 _138_
*271 _139_
*272 _140_
*273 _141_
*274 _142_
*275 _143_
*276 _144_
*277 _145_
*278 _146_
*279 _147_
*280 _148_
*281 _149_
*282 _150_
*283 _151_
*284 _152_
*285 _153_
*286 _154_
*287 _155_
*288 _156_
*289 _157_
*290 _158_
*291 _159_
*292 _160_
*293 _161_
*294 _162_
*295 _163_
*296 _164_
*297 _165_
*298 _166_
*299 _167_
*300 _168_
*301 _169_
*302 _170_
*303 _171_
*304 _172_
*305 _173_
*306 _174_
*307 _175_
*308 _176_
*309 _177_
*310 _178_
*311 _179_
*312 _180_
*313 _181_
*314 _182_
*315 _183_
*316 _184_
*317 _185_
*318 _186_
*319 _187_
*320 _188_
*321 _189_
*322 _190_
*323 _191_
*324 _192_
*325 _193_
*326 _194_
*327 _195_
*328 _196_
*329 _197_
*330 _198_
*331 _199_
*332 _200_
*333 _201_
*334 _202_
*335 _203_
*336 _204_
*337 _205_
*338 _206_
*339 _207_
*340 _208_
*341 _209_
*342 _210_
*343 _211_
*344 _212_
*345 _213_
*346 _214_
*347 _215_
*348 _216_
*349 _217_
*350 _218_
*351 _219_
*352 _220_
*353 _221_
*354 _222_
*355 _223_
*356 _224_
*357 _225_
*358 _226_
*359 _227_
*360 _228_
*361 _229_
*362 _230_
*363 _231_
*364 _232_
*365 _233_
*366 _234_
*367 _235_
*368 _236_
*369 _237_
*370 _238_
*371 _239_
*372 _240_
*373 _241_
*374 _242_
*375 _243_
*376 _244_
*377 _245_
*378 _246_
*379 _247_
*380 _248_
*381 _249_
*382 _250_
*383 _251_
*384 _252_
*385 _253_
*386 _254_
*387 _255_
*388 _256_
*389 _257_
*390 _258_
*391 _259_
*392 _260_
*393 _261_
*394 _262_
*395 _263_
*396 _264_
*397 _265_
*398 _266_
*399 _267_
*400 _268_
*401 _269_
*402 _270_
*403 _271_
*404 _272_
*405 _273_
*406 _274_
*407 _275_
*408 _276_
*409 _277_
*410 _278_
*411 _279_
*412 _280_
*413 _281_
*414 _282_
*415 _283_
*416 _284_
*417 _285_
*418 _286_
*419 _287_
*420 _288_
*421 _289_
*422 _290_
*423 _291_
*424 _292_
*425 _293_
*426 _294_
*427 _295_
*428 _296_
*429 _297_
*430 _298_
*431 _299_
*432 _300_
*433 _301_
*434 _302_
*435 _303_
*436 _304_
*437 _305_
*438 _306_
*439 _307_
*440 _308_
*441 _309_
*442 _310_
*443 _311_
*444 _312_
*445 _313_
*446 _314_
*447 _315_
*448 _316_
*449 _317_
*450 _318_
*451 _319_
*452 _320_
*453 _321_
*454 _322_
*455 _323_
*456 _324_
*457 _325_
*458 _326_
*459 _327_
*460 _328_
*461 _329_
*462 _330_
*463 _331_
*464 _332_
*465 clknet_0_wb_clk_i
*466 clknet_3_0__leaf_wb_clk_i
*467 clknet_3_1__leaf_wb_clk_i
*468 clknet_3_2__leaf_wb_clk_i
*469 clknet_3_3__leaf_wb_clk_i
*470 clknet_3_4__leaf_wb_clk_i
*471 clknet_3_5__leaf_wb_clk_i
*472 clknet_3_6__leaf_wb_clk_i
*473 clknet_3_7__leaf_wb_clk_i
*474 ctrl_clear_pulse\[0\]
*475 ctrl_clear_pulse\[1\]
*476 ctrl_clear_pulse\[2\]
*477 ctrl_clear_pulse\[3\]
*478 ctrl_clear_pulse\[4\]
*479 global_timeout_count\[0\]
*480 global_timeout_count\[10\]
*481 global_timeout_count\[11\]
*482 global_timeout_count\[12\]
*483 global_timeout_count\[13\]
*484 global_timeout_count\[14\]
*485 global_timeout_count\[15\]
*486 global_timeout_count\[1\]
*487 global_timeout_count\[2\]
*488 global_timeout_count\[3\]
*489 global_timeout_count\[4\]
*490 global_timeout_count\[5\]
*491 global_timeout_count\[6\]
*492 global_timeout_count\[7\]
*493 global_timeout_count\[8\]
*494 global_timeout_count\[9\]
*495 group_state_bits\[0\]
*496 group_state_bits\[1\]
*497 group_state_bits\[2\]
*498 group_state_bits\[3\]
*499 group_timeout_count\[0\]
*500 group_timeout_count\[10\]
*501 group_timeout_count\[11\]
*502 group_timeout_count\[12\]
*503 group_timeout_count\[13\]
*504 group_timeout_count\[14\]
*505 group_timeout_count\[15\]
*506 group_timeout_count\[1\]
*507 group_timeout_count\[2\]
*508 group_timeout_count\[3\]
*509 group_timeout_count\[4\]
*510 group_timeout_count\[5\]
*511 group_timeout_count\[6\]
*512 group_timeout_count\[7\]
*513 group_timeout_count\[8\]
*514 group_timeout_count\[9\]
*515 net1
*516 net10
*517 net100
*518 net101
*519 net102
*520 net103
*521 net104
*522 net105
*523 net106
*524 net107
*525 net108
*526 net109
*527 net11
*528 net110
*529 net111
*530 net112
*531 net113
*532 net114
*533 net115
*534 net116
*535 net117
*536 net118
*537 net119
*538 net12
*539 net13
*540 net14
*541 net15
*542 net16
*543 net17
*544 net18
*545 net19
*546 net2
*547 net20
*548 net21
*549 net22
*550 net23
*551 net24
*552 net25
*553 net26
*554 net27
*555 net28
*556 net29
*557 net3
*558 net30
*559 net31
*560 net32
*561 net33
*562 net34
*563 net35
*564 net36
*565 net37
*566 net38
*567 net39
*568 net4
*569 net40
*570 net41
*571 net42
*572 net43
*573 net44
*574 net45
*575 net46
*576 net47
*577 net48
*578 net49
*579 net5
*580 net50
*581 net51
*582 net52
*583 net53
*584 net54
*585 net55
*586 net56
*587 net57
*588 net58
*589 net59
*590 net6
*591 net60
*592 net61
*593 net62
*594 net63
*595 net64
*596 net65
*597 net66
*598 net67
*599 net68
*600 net69
*601 net7
*602 net70
*603 net71
*604 net72
*605 net73
*606 net74
*607 net75
*608 net76
*609 net77
*610 net78
*611 net79
*612 net8
*613 net80
*614 net81
*615 net82
*616 net83
*617 net84
*618 net85
*619 net86
*620 net87
*621 net88
*622 net89
*623 net9
*624 net90
*625 net91
*626 net92
*627 net93
*628 net94
*629 net95
*630 net96
*631 net97
*632 net98
*633 net99
*634 sticky_illegal_core
*635 sticky_tamper_core
*636 sw_sticky_breach
*637 sw_sticky_fsm_error
*638 sw_sticky_group_error
*639 sw_sticky_illegal
*640 sw_sticky_tamper
*641 u_system\.u_global\.denial_counter\[0\]
*642 u_system\.u_global\.denial_counter\[1\]
*643 u_system\.u_global\.prev_state\[0\]
*644 u_system\.u_global\.prev_state\[1\]
*645 u_system\.u_global\.prev_state\[2\]
*646 u_system\.u_global\.prev_state\[3\]
*647 u_system\.u_global\.prev_state\[4\]
*648 u_system\.u_global\.state\[0\]
*649 u_system\.u_global\.state\[1\]
*650 u_system\.u_global\.state\[2\]
*651 u_system\.u_global\.state\[3\]
*652 u_system\.u_global\.state\[4\]
*653 ANTENNA__336__Y
*654 ANTENNA__339__Y
*655 ANTENNA__353__X
*656 ANTENNA__354__A2
*657 ANTENNA__365__X
*658 ANTENNA__389__B1
*659 ANTENNA__392__B1
*660 ANTENNA__396__A2
*661 ANTENNA__405__A2
*662 ANTENNA__407__A2
*663 ANTENNA__411__C
*664 ANTENNA__412__C
*665 ANTENNA__447__B
*666 ANTENNA__478__A1
*667 ANTENNA__483__A1
*668 ANTENNA__489__B1
*669 ANTENNA__495__B1
*670 ANTENNA__497__B1
*671 ANTENNA__547__B1
*672 ANTENNA__548__B
*673 ANTENNA__549__B
*674 ANTENNA__550__B
*675 ANTENNA__551__B
*676 ANTENNA__552__B
*677 ANTENNA__554__B1
*678 ANTENNA__555__C1
*679 ANTENNA__572__D1
*680 ANTENNA__621__B1
*681 ANTENNA__627__B1
*682 ANTENNA__628__B1
*683 ANTENNA__632__A
*684 ANTENNA__637__A
*685 ANTENNA__638__A
*686 ANTENNA__639__A
*687 ANTENNA__640__A
*688 ANTENNA__641__A
*689 ANTENNA__642__A
*690 ANTENNA__643__A
*691 ANTENNA__644__A
*692 ANTENNA__646__A
*693 ANTENNA__647__A
*694 ANTENNA__650__A
*695 ANTENNA__651__A
*696 ANTENNA__653__A
*697 ANTENNA__671__RESET_B
*698 ANTENNA__766__A
*699 ANTENNA_clkbuf_0_wb_clk_i_A
*700 ANTENNA_clkbuf_0_wb_clk_i_X
*701 ANTENNA_clkbuf_3_0__f_wb_clk_i_A
*702 ANTENNA_clkbuf_3_1__f_wb_clk_i_A
*703 ANTENNA_clkbuf_3_2__f_wb_clk_i_A
*704 ANTENNA_clkbuf_3_3__f_wb_clk_i_A
*705 ANTENNA_clkbuf_3_4__f_wb_clk_i_A
*706 ANTENNA_clkbuf_3_5__f_wb_clk_i_A
*707 ANTENNA_clkbuf_3_6__f_wb_clk_i_A
*708 ANTENNA_clkbuf_3_7__f_wb_clk_i_A
*709 ANTENNA_fanout75_A
*710 ANTENNA_fanout76_A
*711 ANTENNA_fanout77_A
*712 ANTENNA_fanout79_A
*713 ANTENNA_fanout80_X
*714 ANTENNA_fanout82_A
*715 ANTENNA_fanout82_X
*716 ANTENNA_fanout84_A
*717 ANTENNA_fanout86_A
*718 ANTENNA_fanout87_A
*719 ANTENNA_fanout87_X
*720 ANTENNA_fanout88_A
*721 ANTENNA_fanout88_X
*722 ANTENNA_fanout89_X
*723 ANTENNA_input10_A
*724 ANTENNA_input11_A
*725 ANTENNA_input12_A
*726 ANTENNA_input13_A
*727 ANTENNA_input14_A
*728 ANTENNA_input15_A
*729 ANTENNA_input16_A
*730 ANTENNA_input17_A
*731 ANTENNA_input18_A
*732 ANTENNA_input19_A
*733 ANTENNA_input1_A
*734 ANTENNA_input20_A
*735 ANTENNA_input21_A
*736 ANTENNA_input22_A
*737 ANTENNA_input23_A
*738 ANTENNA_input24_A
*739 ANTENNA_input25_A
*740 ANTENNA_input26_A
*741 ANTENNA_input2_A
*742 ANTENNA_input3_A
*743 ANTENNA_input4_A
*744 ANTENNA_input5_A
*745 ANTENNA_input6_A
*746 ANTENNA_input7_A
*747 ANTENNA_input8_A
*748 ANTENNA_input9_A
*749 ANTENNA_output32_A
*750 FILLER_0_109
*751 FILLER_0_111
*752 FILLER_0_113
*753 FILLER_0_125
*754 FILLER_0_133
*755 FILLER_0_135
*756 FILLER_0_151
*757 FILLER_0_164
*758 FILLER_0_169
*759 FILLER_0_181
*760 FILLER_0_193
*761 FILLER_0_195
*762 FILLER_0_197
*763 FILLER_0_209
*764 FILLER_0_221
*765 FILLER_0_223
*766 FILLER_0_225
*767 FILLER_0_27
*768 FILLER_0_33
*769 FILLER_0_45
*770 FILLER_0_53
*771 FILLER_0_55
*772 FILLER_0_57
*773 FILLER_0_69
*774 FILLER_0_81
*775 FILLER_0_83
*776 FILLER_0_85
*777 FILLER_0_97
*778 FILLER_10_101
*779 FILLER_10_103
*780 FILLER_10_107
*781 FILLER_10_11
*782 FILLER_10_119
*783 FILLER_10_133
*784 FILLER_10_164
*785 FILLER_10_176
*786 FILLER_10_188
*787 FILLER_10_197
*788 FILLER_10_217
*789 FILLER_10_229
*790 FILLER_10_23
*791 FILLER_10_29
*792 FILLER_10_37
*793 FILLER_10_43
*794 FILLER_10_55
*795 FILLER_10_59
*796 FILLER_10_67
*797 FILLER_10_75
*798 FILLER_10_83
*799 FILLER_10_85
*800 FILLER_10_93
*801 FILLER_11_107
*802 FILLER_11_111
*803 FILLER_11_113
*804 FILLER_11_125
*805 FILLER_11_137
*806 FILLER_11_141
*807 FILLER_11_167
*808 FILLER_11_169
*809 FILLER_11_181
*810 FILLER_11_183
*811 FILLER_11_202
*812 FILLER_11_219
*813 FILLER_11_223
*814 FILLER_11_225
*815 FILLER_11_229
*816 FILLER_11_23
*817 FILLER_11_231
*818 FILLER_11_35
*819 FILLER_11_47
*820 FILLER_11_55
*821 FILLER_11_57
*822 FILLER_11_71
*823 FILLER_11_83
*824 FILLER_11_95
*825 FILLER_12_107
*826 FILLER_12_116
*827 FILLER_12_118
*828 FILLER_12_125
*829 FILLER_12_129
*830 FILLER_12_13
*831 FILLER_12_133
*832 FILLER_12_137
*833 FILLER_12_139
*834 FILLER_12_141
*835 FILLER_12_145
*836 FILLER_12_171
*837 FILLER_12_186
*838 FILLER_12_205
*839 FILLER_12_217
*840 FILLER_12_229
*841 FILLER_12_231
*842 FILLER_12_25
*843 FILLER_12_27
*844 FILLER_12_29
*845 FILLER_12_33
*846 FILLER_12_37
*847 FILLER_12_43
*848 FILLER_12_65
*849 FILLER_12_7
*850 FILLER_12_77
*851 FILLER_12_79
*852 FILLER_12_83
*853 FILLER_12_85
*854 FILLER_12_9
*855 FILLER_12_93
*856 FILLER_12_95
*857 FILLER_12_99
*858 FILLER_13_108
*859 FILLER_13_113
*860 FILLER_13_131
*861 FILLER_13_14
*862 FILLER_13_143
*863 FILLER_13_152
*864 FILLER_13_164
*865 FILLER_13_177
*866 FILLER_13_189
*867 FILLER_13_201
*868 FILLER_13_213
*869 FILLER_13_22
*870 FILLER_13_221
*871 FILLER_13_223
*872 FILLER_13_225
*873 FILLER_13_232
*874 FILLER_13_236
*875 FILLER_13_49
*876 FILLER_13_66
*877 FILLER_13_7
*878 FILLER_13_70
*879 FILLER_13_72
*880 FILLER_13_96
*881 FILLER_14_108
*882 FILLER_14_110
*883 FILLER_14_127
*884 FILLER_14_139
*885 FILLER_14_141
*886 FILLER_14_178
*887 FILLER_14_190
*888 FILLER_14_194
*889 FILLER_14_197
*890 FILLER_14_209
*891 FILLER_14_217
*892 FILLER_14_226
*893 FILLER_14_23
*894 FILLER_14_230
*895 FILLER_14_27
*896 FILLER_14_29
*897 FILLER_14_41
*898 FILLER_14_50
*899 FILLER_14_62
*900 FILLER_14_74
*901 FILLER_14_82
*902 FILLER_14_85
*903 FILLER_14_97
*904 FILLER_14_99
*905 FILLER_15_107
*906 FILLER_15_111
*907 FILLER_15_113
*908 FILLER_15_115
*909 FILLER_15_119
*910 FILLER_15_131
*911 FILLER_15_143
*912 FILLER_15_155
*913 FILLER_15_160
*914 FILLER_15_177
*915 FILLER_15_19
*916 FILLER_15_193
*917 FILLER_15_206
*918 FILLER_15_218
*919 FILLER_15_222
*920 FILLER_15_225
*921 FILLER_15_31
*922 FILLER_15_39
*923 FILLER_15_57
*924 FILLER_15_65
*925 FILLER_15_7
*926 FILLER_15_83
*927 FILLER_15_95
*928 FILLER_16_111
*929 FILLER_16_120
*930 FILLER_16_132
*931 FILLER_16_141
*932 FILLER_16_145
*933 FILLER_16_163
*934 FILLER_16_175
*935 FILLER_16_183
*936 FILLER_16_195
*937 FILLER_16_20
*938 FILLER_16_216
*939 FILLER_16_225
*940 FILLER_16_229
*941 FILLER_16_231
*942 FILLER_16_34
*943 FILLER_16_63
*944 FILLER_16_65
*945 FILLER_16_8
*946 FILLER_16_82
*947 FILLER_16_93
*948 FILLER_16_97
*949 FILLER_16_99
*950 FILLER_17_102
*951 FILLER_17_104
*952 FILLER_17_110
*953 FILLER_17_118
*954 FILLER_17_120
*955 FILLER_17_13
*956 FILLER_17_147
*957 FILLER_17_15
*958 FILLER_17_159
*959 FILLER_17_167
*960 FILLER_17_169
*961 FILLER_17_177
*962 FILLER_17_179
*963 FILLER_17_208
*964 FILLER_17_212
*965 FILLER_17_214
*966 FILLER_17_221
*967 FILLER_17_223
*968 FILLER_17_225
*969 FILLER_17_229
*970 FILLER_17_231
*971 FILLER_17_39
*972 FILLER_17_67
*973 FILLER_17_75
*974 FILLER_18_101
*975 FILLER_18_118
*976 FILLER_18_130
*977 FILLER_18_138
*978 FILLER_18_141
*979 FILLER_18_143
*980 FILLER_18_160
*981 FILLER_18_164
*982 FILLER_18_171
*983 FILLER_18_175
*984 FILLER_18_195
*985 FILLER_18_197
*986 FILLER_18_209
*987 FILLER_18_21
*988 FILLER_18_213
*989 FILLER_18_231
*990 FILLER_18_68
*991 FILLER_18_8
*992 FILLER_18_80
*993 FILLER_18_93
*994 FILLER_19_106
*995 FILLER_19_135
*996 FILLER_19_151
*997 FILLER_19_163
*998 FILLER_19_167
*999 FILLER_19_169
*1000 FILLER_19_177
*1001 FILLER_19_187
*1002 FILLER_19_199
*1003 FILLER_19_207
*1004 FILLER_19_222
*1005 FILLER_19_23
*1006 FILLER_19_27
*1007 FILLER_19_30
*1008 FILLER_19_42
*1009 FILLER_19_51
*1010 FILLER_19_55
*1011 FILLER_19_57
*1012 FILLER_19_69
*1013 FILLER_19_91
*1014 FILLER_19_99
*1015 FILLER_1_103
*1016 FILLER_1_11
*1017 FILLER_1_111
*1018 FILLER_1_113
*1019 FILLER_1_125
*1020 FILLER_1_127
*1021 FILLER_1_169
*1022 FILLER_1_196
*1023 FILLER_1_208
*1024 FILLER_1_220
*1025 FILLER_1_225
*1026 FILLER_1_36
*1027 FILLER_1_38
*1028 FILLER_1_52
*1029 FILLER_1_57
*1030 FILLER_1_61
*1031 FILLER_1_67
*1032 FILLER_1_73
*1033 FILLER_1_77
*1034 FILLER_20_104
*1035 FILLER_20_112
*1036 FILLER_20_114
*1037 FILLER_20_138
*1038 FILLER_20_144
*1039 FILLER_20_148
*1040 FILLER_20_158
*1041 FILLER_20_17
*1042 FILLER_20_175
*1043 FILLER_20_183
*1044 FILLER_20_185
*1045 FILLER_20_191
*1046 FILLER_20_195
*1047 FILLER_20_197
*1048 FILLER_20_209
*1049 FILLER_20_217
*1050 FILLER_20_25
*1051 FILLER_20_27
*1052 FILLER_20_29
*1053 FILLER_20_41
*1054 FILLER_20_53
*1055 FILLER_20_65
*1056 FILLER_20_79
*1057 FILLER_20_83
*1058 FILLER_20_92
*1059 FILLER_21_107
*1060 FILLER_21_111
*1061 FILLER_21_113
*1062 FILLER_21_125
*1063 FILLER_21_137
*1064 FILLER_21_149
*1065 FILLER_21_161
*1066 FILLER_21_165
*1067 FILLER_21_167
*1068 FILLER_21_172
*1069 FILLER_21_184
*1070 FILLER_21_186
*1071 FILLER_21_203
*1072 FILLER_21_205
*1073 FILLER_21_222
*1074 FILLER_21_225
*1075 FILLER_21_23
*1076 FILLER_21_27
*1077 FILLER_21_49
*1078 FILLER_21_53
*1079 FILLER_21_55
*1080 FILLER_21_60
*1081 FILLER_21_72
*1082 FILLER_21_76
*1083 FILLER_21_83
*1084 FILLER_21_95
*1085 FILLER_22_100
*1086 FILLER_22_118
*1087 FILLER_22_130
*1088 FILLER_22_134
*1089 FILLER_22_14
*1090 FILLER_22_141
*1091 FILLER_22_145
*1092 FILLER_22_147
*1093 FILLER_22_153
*1094 FILLER_22_157
*1095 FILLER_22_162
*1096 FILLER_22_169
*1097 FILLER_22_193
*1098 FILLER_22_195
*1099 FILLER_22_197
*1100 FILLER_22_209
*1101 FILLER_22_221
*1102 FILLER_22_229
*1103 FILLER_22_231
*1104 FILLER_22_26
*1105 FILLER_22_29
*1106 FILLER_22_44
*1107 FILLER_22_65
*1108 FILLER_22_7
*1109 FILLER_22_76
*1110 FILLER_22_96
*1111 FILLER_23_109
*1112 FILLER_23_111
*1113 FILLER_23_121
*1114 FILLER_23_125
*1115 FILLER_23_127
*1116 FILLER_23_151
*1117 FILLER_23_158
*1118 FILLER_23_182
*1119 FILLER_23_194
*1120 FILLER_23_206
*1121 FILLER_23_218
*1122 FILLER_23_222
*1123 FILLER_23_3
*1124 FILLER_23_31
*1125 FILLER_23_41
*1126 FILLER_23_45
*1127 FILLER_23_55
*1128 FILLER_23_77
*1129 FILLER_23_92
*1130 FILLER_24_113
*1131 FILLER_24_13
*1132 FILLER_24_131
*1133 FILLER_24_139
*1134 FILLER_24_141
*1135 FILLER_24_146
*1136 FILLER_24_167
*1137 FILLER_24_175
*1138 FILLER_24_183
*1139 FILLER_24_191
*1140 FILLER_24_195
*1141 FILLER_24_206
*1142 FILLER_24_208
*1143 FILLER_24_214
*1144 FILLER_24_216
*1145 FILLER_24_25
*1146 FILLER_24_27
*1147 FILLER_24_29
*1148 FILLER_24_34
*1149 FILLER_24_42
*1150 FILLER_24_44
*1151 FILLER_24_58
*1152 FILLER_24_7
*1153 FILLER_24_70
*1154 FILLER_24_78
*1155 FILLER_24_82
*1156 FILLER_24_85
*1157 FILLER_24_87
*1158 FILLER_24_90
*1159 FILLER_24_94
*1160 FILLER_25_103
*1161 FILLER_25_111
*1162 FILLER_25_113
*1163 FILLER_25_12
*1164 FILLER_25_137
*1165 FILLER_25_14
*1166 FILLER_25_149
*1167 FILLER_25_153
*1168 FILLER_25_160
*1169 FILLER_25_164
*1170 FILLER_25_189
*1171 FILLER_25_206
*1172 FILLER_25_218
*1173 FILLER_25_222
*1174 FILLER_25_230
*1175 FILLER_25_232
*1176 FILLER_25_37
*1177 FILLER_25_39
*1178 FILLER_25_48
*1179 FILLER_25_57
*1180 FILLER_25_69
*1181 FILLER_25_71
*1182 FILLER_25_79
*1183 FILLER_25_8
*1184 FILLER_25_91
*1185 FILLER_26_110
*1186 FILLER_26_122
*1187 FILLER_26_13
*1188 FILLER_26_139
*1189 FILLER_26_141
*1190 FILLER_26_153
*1191 FILLER_26_165
*1192 FILLER_26_173
*1193 FILLER_26_175
*1194 FILLER_26_181
*1195 FILLER_26_191
*1196 FILLER_26_195
*1197 FILLER_26_197
*1198 FILLER_26_20
*1199 FILLER_26_205
*1200 FILLER_26_207
*1201 FILLER_26_213
*1202 FILLER_26_235
*1203 FILLER_26_29
*1204 FILLER_26_60
*1205 FILLER_26_64
*1206 FILLER_26_66
*1207 FILLER_26_7
*1208 FILLER_26_73
*1209 FILLER_26_82
*1210 FILLER_26_90
*1211 FILLER_26_94
*1212 FILLER_26_98
*1213 FILLER_27_121
*1214 FILLER_27_129
*1215 FILLER_27_131
*1216 FILLER_27_137
*1217 FILLER_27_149
*1218 FILLER_27_160
*1219 FILLER_27_169
*1220 FILLER_27_195
*1221 FILLER_27_207
*1222 FILLER_27_219
*1223 FILLER_27_223
*1224 FILLER_27_225
*1225 FILLER_27_27
*1226 FILLER_27_31
*1227 FILLER_27_6
*1228 FILLER_27_62
*1229 FILLER_27_66
*1230 FILLER_27_83
*1231 FILLER_27_88
*1232 FILLER_28_101
*1233 FILLER_28_105
*1234 FILLER_28_120
*1235 FILLER_28_124
*1236 FILLER_28_138
*1237 FILLER_28_141
*1238 FILLER_28_17
*1239 FILLER_28_189
*1240 FILLER_28_193
*1241 FILLER_28_195
*1242 FILLER_28_197
*1243 FILLER_28_224
*1244 FILLER_28_236
*1245 FILLER_28_25
*1246 FILLER_28_27
*1247 FILLER_28_29
*1248 FILLER_28_37
*1249 FILLER_28_39
*1250 FILLER_28_5
*1251 FILLER_28_60
*1252 FILLER_28_72
*1253 FILLER_28_85
*1254 FILLER_29_111
*1255 FILLER_29_113
*1256 FILLER_29_125
*1257 FILLER_29_127
*1258 FILLER_29_13
*1259 FILLER_29_135
*1260 FILLER_29_147
*1261 FILLER_29_15
*1262 FILLER_29_151
*1263 FILLER_29_155
*1264 FILLER_29_167
*1265 FILLER_29_169
*1266 FILLER_29_181
*1267 FILLER_29_193
*1268 FILLER_29_205
*1269 FILLER_29_217
*1270 FILLER_29_221
*1271 FILLER_29_223
*1272 FILLER_29_225
*1273 FILLER_29_231
*1274 FILLER_29_39
*1275 FILLER_29_51
*1276 FILLER_29_55
*1277 FILLER_29_57
*1278 FILLER_29_69
*1279 FILLER_29_7
*1280 FILLER_29_75
*1281 FILLER_29_87
*1282 FILLER_29_99
*1283 FILLER_2_117
*1284 FILLER_2_14
*1285 FILLER_2_149
*1286 FILLER_2_151
*1287 FILLER_2_157
*1288 FILLER_2_174
*1289 FILLER_2_178
*1290 FILLER_2_180
*1291 FILLER_2_191
*1292 FILLER_2_195
*1293 FILLER_2_197
*1294 FILLER_2_209
*1295 FILLER_2_221
*1296 FILLER_2_233
*1297 FILLER_2_26
*1298 FILLER_2_29
*1299 FILLER_2_31
*1300 FILLER_2_53
*1301 FILLER_2_77
*1302 FILLER_2_81
*1303 FILLER_2_83
*1304 FILLER_2_90
*1305 FILLER_2_94
*1306 FILLER_30_101
*1307 FILLER_30_103
*1308 FILLER_30_120
*1309 FILLER_30_124
*1310 FILLER_30_126
*1311 FILLER_30_137
*1312 FILLER_30_139
*1313 FILLER_30_141
*1314 FILLER_30_15
*1315 FILLER_30_153
*1316 FILLER_30_165
*1317 FILLER_30_169
*1318 FILLER_30_184
*1319 FILLER_30_194
*1320 FILLER_30_197
*1321 FILLER_30_209
*1322 FILLER_30_213
*1323 FILLER_30_215
*1324 FILLER_30_236
*1325 FILLER_30_27
*1326 FILLER_30_29
*1327 FILLER_30_37
*1328 FILLER_30_39
*1329 FILLER_30_48
*1330 FILLER_30_85
*1331 FILLER_30_97
*1332 FILLER_31_102
*1333 FILLER_31_110
*1334 FILLER_31_113
*1335 FILLER_31_148
*1336 FILLER_31_185
*1337 FILLER_31_207
*1338 FILLER_31_219
*1339 FILLER_31_221
*1340 FILLER_31_228
*1341 FILLER_31_23
*1342 FILLER_31_35
*1343 FILLER_31_57
*1344 FILLER_31_61
*1345 FILLER_31_63
*1346 FILLER_31_79
*1347 FILLER_31_96
*1348 FILLER_32_100
*1349 FILLER_32_102
*1350 FILLER_32_117
*1351 FILLER_32_134
*1352 FILLER_32_138
*1353 FILLER_32_141
*1354 FILLER_32_169
*1355 FILLER_32_194
*1356 FILLER_32_214
*1357 FILLER_32_235
*1358 FILLER_32_32
*1359 FILLER_32_36
*1360 FILLER_32_38
*1361 FILLER_32_60
*1362 FILLER_32_68
*1363 FILLER_32_7
*1364 FILLER_32_72
*1365 FILLER_32_75
*1366 FILLER_32_83
*1367 FILLER_32_96
*1368 FILLER_33_107
*1369 FILLER_33_111
*1370 FILLER_33_113
*1371 FILLER_33_125
*1372 FILLER_33_137
*1373 FILLER_33_149
*1374 FILLER_33_15
*1375 FILLER_33_161
*1376 FILLER_33_165
*1377 FILLER_33_167
*1378 FILLER_33_169
*1379 FILLER_33_180
*1380 FILLER_33_203
*1381 FILLER_33_218
*1382 FILLER_33_222
*1383 FILLER_33_230
*1384 FILLER_33_232
*1385 FILLER_33_27
*1386 FILLER_33_3
*1387 FILLER_33_39
*1388 FILLER_33_47
*1389 FILLER_33_49
*1390 FILLER_33_54
*1391 FILLER_33_57
*1392 FILLER_33_64
*1393 FILLER_33_66
*1394 FILLER_33_71
*1395 FILLER_33_83
*1396 FILLER_33_95
*1397 FILLER_34_107
*1398 FILLER_34_115
*1399 FILLER_34_117
*1400 FILLER_34_125
*1401 FILLER_34_137
*1402 FILLER_34_139
*1403 FILLER_34_14
*1404 FILLER_34_141
*1405 FILLER_34_149
*1406 FILLER_34_161
*1407 FILLER_34_173
*1408 FILLER_34_185
*1409 FILLER_34_193
*1410 FILLER_34_195
*1411 FILLER_34_197
*1412 FILLER_34_209
*1413 FILLER_34_213
*1414 FILLER_34_235
*1415 FILLER_34_26
*1416 FILLER_34_29
*1417 FILLER_34_41
*1418 FILLER_34_53
*1419 FILLER_34_61
*1420 FILLER_34_8
*1421 FILLER_34_83
*1422 FILLER_34_85
*1423 FILLER_34_97
*1424 FILLER_35_107
*1425 FILLER_35_111
*1426 FILLER_35_113
*1427 FILLER_35_121
*1428 FILLER_35_14
*1429 FILLER_35_145
*1430 FILLER_35_163
*1431 FILLER_35_167
*1432 FILLER_35_169
*1433 FILLER_35_181
*1434 FILLER_35_185
*1435 FILLER_35_187
*1436 FILLER_35_193
*1437 FILLER_35_205
*1438 FILLER_35_209
*1439 FILLER_35_211
*1440 FILLER_35_220
*1441 FILLER_35_225
*1442 FILLER_35_41
*1443 FILLER_35_53
*1444 FILLER_35_55
*1445 FILLER_35_57
*1446 FILLER_35_6
*1447 FILLER_35_69
*1448 FILLER_35_77
*1449 FILLER_35_79
*1450 FILLER_36_114
*1451 FILLER_36_122
*1452 FILLER_36_128
*1453 FILLER_36_141
*1454 FILLER_36_153
*1455 FILLER_36_165
*1456 FILLER_36_171
*1457 FILLER_36_175
*1458 FILLER_36_195
*1459 FILLER_36_221
*1460 FILLER_36_23
*1461 FILLER_36_233
*1462 FILLER_36_27
*1463 FILLER_36_29
*1464 FILLER_36_41
*1465 FILLER_36_58
*1466 FILLER_36_70
*1467 FILLER_36_82
*1468 FILLER_36_85
*1469 FILLER_36_93
*1470 FILLER_37_103
*1471 FILLER_37_111
*1472 FILLER_37_113
*1473 FILLER_37_118
*1474 FILLER_37_12
*1475 FILLER_37_130
*1476 FILLER_37_146
*1477 FILLER_37_158
*1478 FILLER_37_160
*1479 FILLER_37_185
*1480 FILLER_37_189
*1481 FILLER_37_214
*1482 FILLER_37_222
*1483 FILLER_37_225
*1484 FILLER_37_26
*1485 FILLER_37_38
*1486 FILLER_37_6
*1487 FILLER_37_69
*1488 FILLER_37_80
*1489 FILLER_37_82
*1490 FILLER_38_169
*1491 FILLER_38_181
*1492 FILLER_38_193
*1493 FILLER_38_195
*1494 FILLER_38_205
*1495 FILLER_38_217
*1496 FILLER_38_229
*1497 FILLER_38_32
*1498 FILLER_38_44
*1499 FILLER_38_56
*1500 FILLER_38_90
*1501 FILLER_38_97
*1502 FILLER_38_99
*1503 FILLER_39_100
*1504 FILLER_39_105
*1505 FILLER_39_109
*1506 FILLER_39_111
*1507 FILLER_39_113
*1508 FILLER_39_121
*1509 FILLER_39_126
*1510 FILLER_39_128
*1511 FILLER_39_135
*1512 FILLER_39_151
*1513 FILLER_39_163
*1514 FILLER_39_169
*1515 FILLER_39_18
*1516 FILLER_39_181
*1517 FILLER_39_193
*1518 FILLER_39_195
*1519 FILLER_39_197
*1520 FILLER_39_209
*1521 FILLER_39_221
*1522 FILLER_39_223
*1523 FILLER_39_225
*1524 FILLER_39_27
*1525 FILLER_39_35
*1526 FILLER_39_47
*1527 FILLER_39_55
*1528 FILLER_39_57
*1529 FILLER_39_69
*1530 FILLER_39_83
*1531 FILLER_39_91
*1532 FILLER_39_98
*1533 FILLER_3_107
*1534 FILLER_3_111
*1535 FILLER_3_113
*1536 FILLER_3_129
*1537 FILLER_3_151
*1538 FILLER_3_163
*1539 FILLER_3_167
*1540 FILLER_3_185
*1541 FILLER_3_19
*1542 FILLER_3_202
*1543 FILLER_3_214
*1544 FILLER_3_222
*1545 FILLER_3_225
*1546 FILLER_3_31
*1547 FILLER_3_35
*1548 FILLER_3_44
*1549 FILLER_3_57
*1550 FILLER_3_61
*1551 FILLER_3_67
*1552 FILLER_3_7
*1553 FILLER_3_74
*1554 FILLER_3_86
*1555 FILLER_4_112
*1556 FILLER_4_123
*1557 FILLER_4_135
*1558 FILLER_4_139
*1559 FILLER_4_141
*1560 FILLER_4_143
*1561 FILLER_4_155
*1562 FILLER_4_181
*1563 FILLER_4_188
*1564 FILLER_4_197
*1565 FILLER_4_209
*1566 FILLER_4_221
*1567 FILLER_4_233
*1568 FILLER_4_27
*1569 FILLER_4_29
*1570 FILLER_4_3
*1571 FILLER_4_41
*1572 FILLER_4_47
*1573 FILLER_4_59
*1574 FILLER_4_63
*1575 FILLER_4_85
*1576 FILLER_4_89
*1577 FILLER_5_109
*1578 FILLER_5_111
*1579 FILLER_5_113
*1580 FILLER_5_125
*1581 FILLER_5_137
*1582 FILLER_5_141
*1583 FILLER_5_164
*1584 FILLER_5_176
*1585 FILLER_5_188
*1586 FILLER_5_19
*1587 FILLER_5_200
*1588 FILLER_5_212
*1589 FILLER_5_225
*1590 FILLER_5_31
*1591 FILLER_5_33
*1592 FILLER_5_55
*1593 FILLER_5_57
*1594 FILLER_5_7
*1595 FILLER_5_74
*1596 FILLER_5_86
*1597 FILLER_5_90
*1598 FILLER_5_92
*1599 FILLER_5_97
*1600 FILLER_6_109
*1601 FILLER_6_123
*1602 FILLER_6_136
*1603 FILLER_6_14
*1604 FILLER_6_141
*1605 FILLER_6_145
*1606 FILLER_6_147
*1607 FILLER_6_167
*1608 FILLER_6_171
*1609 FILLER_6_190
*1610 FILLER_6_194
*1611 FILLER_6_197
*1612 FILLER_6_209
*1613 FILLER_6_221
*1614 FILLER_6_233
*1615 FILLER_6_26
*1616 FILLER_6_29
*1617 FILLER_6_72
*1618 FILLER_6_85
*1619 FILLER_6_97
*1620 FILLER_7_105
*1621 FILLER_7_109
*1622 FILLER_7_111
*1623 FILLER_7_118
*1624 FILLER_7_122
*1625 FILLER_7_131
*1626 FILLER_7_143
*1627 FILLER_7_155
*1628 FILLER_7_167
*1629 FILLER_7_169
*1630 FILLER_7_173
*1631 FILLER_7_214
*1632 FILLER_7_222
*1633 FILLER_7_225
*1634 FILLER_7_23
*1635 FILLER_7_57
*1636 FILLER_7_69
*1637 FILLER_7_81
*1638 FILLER_7_93
*1639 FILLER_8_101
*1640 FILLER_8_103
*1641 FILLER_8_119
*1642 FILLER_8_123
*1643 FILLER_8_125
*1644 FILLER_8_131
*1645 FILLER_8_139
*1646 FILLER_8_141
*1647 FILLER_8_145
*1648 FILLER_8_147
*1649 FILLER_8_166
*1650 FILLER_8_178
*1651 FILLER_8_190
*1652 FILLER_8_194
*1653 FILLER_8_197
*1654 FILLER_8_209
*1655 FILLER_8_221
*1656 FILLER_8_233
*1657 FILLER_8_3
*1658 FILLER_8_32
*1659 FILLER_8_67
*1660 FILLER_8_7
*1661 FILLER_8_71
*1662 FILLER_8_73
*1663 FILLER_9_104
*1664 FILLER_9_11
*1665 FILLER_9_113
*1666 FILLER_9_120
*1667 FILLER_9_122
*1668 FILLER_9_13
*1669 FILLER_9_139
*1670 FILLER_9_146
*1671 FILLER_9_151
*1672 FILLER_9_172
*1673 FILLER_9_184
*1674 FILLER_9_196
*1675 FILLER_9_208
*1676 FILLER_9_220
*1677 FILLER_9_225
*1678 FILLER_9_34
*1679 FILLER_9_42
*1680 FILLER_9_57
*1681 FILLER_9_7
*1682 FILLER_9_79
*1683 PHY_EDGE_ROW_0_Left_40
*1684 PHY_EDGE_ROW_0_Right_0
*1685 PHY_EDGE_ROW_10_Left_50
*1686 PHY_EDGE_ROW_10_Right_10
*1687 PHY_EDGE_ROW_11_Left_51
*1688 PHY_EDGE_ROW_11_Right_11
*1689 PHY_EDGE_ROW_12_Left_52
*1690 PHY_EDGE_ROW_12_Right_12
*1691 PHY_EDGE_ROW_13_Left_53
*1692 PHY_EDGE_ROW_13_Right_13
*1693 PHY_EDGE_ROW_14_Left_54
*1694 PHY_EDGE_ROW_14_Right_14
*1695 PHY_EDGE_ROW_15_Left_55
*1696 PHY_EDGE_ROW_15_Right_15
*1697 PHY_EDGE_ROW_16_Left_56
*1698 PHY_EDGE_ROW_16_Right_16
*1699 PHY_EDGE_ROW_17_Left_57
*1700 PHY_EDGE_ROW_17_Right_17
*1701 PHY_EDGE_ROW_18_Left_58
*1702 PHY_EDGE_ROW_18_Right_18
*1703 PHY_EDGE_ROW_19_Left_59
*1704 PHY_EDGE_ROW_19_Right_19
*1705 PHY_EDGE_ROW_1_Left_41
*1706 PHY_EDGE_ROW_1_Right_1
*1707 PHY_EDGE_ROW_20_Left_60
*1708 PHY_EDGE_ROW_20_Right_20
*1709 PHY_EDGE_ROW_21_Left_61
*1710 PHY_EDGE_ROW_21_Right_21
*1711 PHY_EDGE_ROW_22_Left_62
*1712 PHY_EDGE_ROW_22_Right_22
*1713 PHY_EDGE_ROW_23_Left_63
*1714 PHY_EDGE_ROW_23_Right_23
*1715 PHY_EDGE_ROW_24_Left_64
*1716 PHY_EDGE_ROW_24_Right_24
*1717 PHY_EDGE_ROW_25_Left_65
*1718 PHY_EDGE_ROW_25_Right_25
*1719 PHY_EDGE_ROW_26_Left_66
*1720 PHY_EDGE_ROW_26_Right_26
*1721 PHY_EDGE_ROW_27_Left_67
*1722 PHY_EDGE_ROW_27_Right_27
*1723 PHY_EDGE_ROW_28_Left_68
*1724 PHY_EDGE_ROW_28_Right_28
*1725 PHY_EDGE_ROW_29_Left_69
*1726 PHY_EDGE_ROW_29_Right_29
*1727 PHY_EDGE_ROW_2_Left_42
*1728 PHY_EDGE_ROW_2_Right_2
*1729 PHY_EDGE_ROW_30_Left_70
*1730 PHY_EDGE_ROW_30_Right_30
*1731 PHY_EDGE_ROW_31_Left_71
*1732 PHY_EDGE_ROW_31_Right_31
*1733 PHY_EDGE_ROW_32_Left_72
*1734 PHY_EDGE_ROW_32_Right_32
*1735 PHY_EDGE_ROW_33_Left_73
*1736 PHY_EDGE_ROW_33_Right_33
*1737 PHY_EDGE_ROW_34_Left_74
*1738 PHY_EDGE_ROW_34_Right_34
*1739 PHY_EDGE_ROW_35_Left_75
*1740 PHY_EDGE_ROW_35_Right_35
*1741 PHY_EDGE_ROW_36_Left_76
*1742 PHY_EDGE_ROW_36_Right_36
*1743 PHY_EDGE_ROW_37_Left_77
*1744 PHY_EDGE_ROW_37_Right_37
*1745 PHY_EDGE_ROW_38_Left_78
*1746 PHY_EDGE_ROW_38_Right_38
*1747 PHY_EDGE_ROW_39_Left_79
*1748 PHY_EDGE_ROW_39_Right_39
*1749 PHY_EDGE_ROW_3_Left_43
*1750 PHY_EDGE_ROW_3_Right_3
*1751 PHY_EDGE_ROW_4_Left_44
*1752 PHY_EDGE_ROW_4_Right_4
*1753 PHY_EDGE_ROW_5_Left_45
*1754 PHY_EDGE_ROW_5_Right_5
*1755 PHY_EDGE_ROW_6_Left_46
*1756 PHY_EDGE_ROW_6_Right_6
*1757 PHY_EDGE_ROW_7_Left_47
*1758 PHY_EDGE_ROW_7_Right_7
*1759 PHY_EDGE_ROW_8_Left_48
*1760 PHY_EDGE_ROW_8_Right_8
*1761 PHY_EDGE_ROW_9_Left_49
*1762 PHY_EDGE_ROW_9_Right_9
*1763 TAP_TAPCELL_ROW_0_80
*1764 TAP_TAPCELL_ROW_0_81
*1765 TAP_TAPCELL_ROW_0_82
*1766 TAP_TAPCELL_ROW_0_83
*1767 TAP_TAPCELL_ROW_0_84
*1768 TAP_TAPCELL_ROW_0_85
*1769 TAP_TAPCELL_ROW_0_86
*1770 TAP_TAPCELL_ROW_0_87
*1771 TAP_TAPCELL_ROW_10_124
*1772 TAP_TAPCELL_ROW_10_125
*1773 TAP_TAPCELL_ROW_10_126
*1774 TAP_TAPCELL_ROW_10_127
*1775 TAP_TAPCELL_ROW_11_128
*1776 TAP_TAPCELL_ROW_11_129
*1777 TAP_TAPCELL_ROW_11_130
*1778 TAP_TAPCELL_ROW_11_131
*1779 TAP_TAPCELL_ROW_12_132
*1780 TAP_TAPCELL_ROW_12_133
*1781 TAP_TAPCELL_ROW_12_134
*1782 TAP_TAPCELL_ROW_12_135
*1783 TAP_TAPCELL_ROW_13_136
*1784 TAP_TAPCELL_ROW_13_137
*1785 TAP_TAPCELL_ROW_13_138
*1786 TAP_TAPCELL_ROW_13_139
*1787 TAP_TAPCELL_ROW_14_140
*1788 TAP_TAPCELL_ROW_14_141
*1789 TAP_TAPCELL_ROW_14_142
*1790 TAP_TAPCELL_ROW_14_143
*1791 TAP_TAPCELL_ROW_15_144
*1792 TAP_TAPCELL_ROW_15_145
*1793 TAP_TAPCELL_ROW_15_146
*1794 TAP_TAPCELL_ROW_15_147
*1795 TAP_TAPCELL_ROW_16_148
*1796 TAP_TAPCELL_ROW_16_149
*1797 TAP_TAPCELL_ROW_16_150
*1798 TAP_TAPCELL_ROW_16_151
*1799 TAP_TAPCELL_ROW_17_152
*1800 TAP_TAPCELL_ROW_17_153
*1801 TAP_TAPCELL_ROW_17_154
*1802 TAP_TAPCELL_ROW_17_155
*1803 TAP_TAPCELL_ROW_18_156
*1804 TAP_TAPCELL_ROW_18_157
*1805 TAP_TAPCELL_ROW_18_158
*1806 TAP_TAPCELL_ROW_18_159
*1807 TAP_TAPCELL_ROW_19_160
*1808 TAP_TAPCELL_ROW_19_161
*1809 TAP_TAPCELL_ROW_19_162
*1810 TAP_TAPCELL_ROW_19_163
*1811 TAP_TAPCELL_ROW_1_88
*1812 TAP_TAPCELL_ROW_1_89
*1813 TAP_TAPCELL_ROW_1_90
*1814 TAP_TAPCELL_ROW_1_91
*1815 TAP_TAPCELL_ROW_20_164
*1816 TAP_TAPCELL_ROW_20_165
*1817 TAP_TAPCELL_ROW_20_166
*1818 TAP_TAPCELL_ROW_20_167
*1819 TAP_TAPCELL_ROW_21_168
*1820 TAP_TAPCELL_ROW_21_169
*1821 TAP_TAPCELL_ROW_21_170
*1822 TAP_TAPCELL_ROW_21_171
*1823 TAP_TAPCELL_ROW_22_172
*1824 TAP_TAPCELL_ROW_22_173
*1825 TAP_TAPCELL_ROW_22_174
*1826 TAP_TAPCELL_ROW_22_175
*1827 TAP_TAPCELL_ROW_23_176
*1828 TAP_TAPCELL_ROW_23_177
*1829 TAP_TAPCELL_ROW_23_178
*1830 TAP_TAPCELL_ROW_23_179
*1831 TAP_TAPCELL_ROW_24_180
*1832 TAP_TAPCELL_ROW_24_181
*1833 TAP_TAPCELL_ROW_24_182
*1834 TAP_TAPCELL_ROW_24_183
*1835 TAP_TAPCELL_ROW_25_184
*1836 TAP_TAPCELL_ROW_25_185
*1837 TAP_TAPCELL_ROW_25_186
*1838 TAP_TAPCELL_ROW_25_187
*1839 TAP_TAPCELL_ROW_26_188
*1840 TAP_TAPCELL_ROW_26_189
*1841 TAP_TAPCELL_ROW_26_190
*1842 TAP_TAPCELL_ROW_26_191
*1843 TAP_TAPCELL_ROW_27_192
*1844 TAP_TAPCELL_ROW_27_193
*1845 TAP_TAPCELL_ROW_27_194
*1846 TAP_TAPCELL_ROW_27_195
*1847 TAP_TAPCELL_ROW_28_196
*1848 TAP_TAPCELL_ROW_28_197
*1849 TAP_TAPCELL_ROW_28_198
*1850 TAP_TAPCELL_ROW_28_199
*1851 TAP_TAPCELL_ROW_29_200
*1852 TAP_TAPCELL_ROW_29_201
*1853 TAP_TAPCELL_ROW_29_202
*1854 TAP_TAPCELL_ROW_29_203
*1855 TAP_TAPCELL_ROW_2_92
*1856 TAP_TAPCELL_ROW_2_93
*1857 TAP_TAPCELL_ROW_2_94
*1858 TAP_TAPCELL_ROW_2_95
*1859 TAP_TAPCELL_ROW_30_204
*1860 TAP_TAPCELL_ROW_30_205
*1861 TAP_TAPCELL_ROW_30_206
*1862 TAP_TAPCELL_ROW_30_207
*1863 TAP_TAPCELL_ROW_31_208
*1864 TAP_TAPCELL_ROW_31_209
*1865 TAP_TAPCELL_ROW_31_210
*1866 TAP_TAPCELL_ROW_31_211
*1867 TAP_TAPCELL_ROW_32_212
*1868 TAP_TAPCELL_ROW_32_213
*1869 TAP_TAPCELL_ROW_32_214
*1870 TAP_TAPCELL_ROW_32_215
*1871 TAP_TAPCELL_ROW_33_216
*1872 TAP_TAPCELL_ROW_33_217
*1873 TAP_TAPCELL_ROW_33_218
*1874 TAP_TAPCELL_ROW_33_219
*1875 TAP_TAPCELL_ROW_34_220
*1876 TAP_TAPCELL_ROW_34_221
*1877 TAP_TAPCELL_ROW_34_222
*1878 TAP_TAPCELL_ROW_34_223
*1879 TAP_TAPCELL_ROW_35_224
*1880 TAP_TAPCELL_ROW_35_225
*1881 TAP_TAPCELL_ROW_35_226
*1882 TAP_TAPCELL_ROW_35_227
*1883 TAP_TAPCELL_ROW_36_228
*1884 TAP_TAPCELL_ROW_36_229
*1885 TAP_TAPCELL_ROW_36_230
*1886 TAP_TAPCELL_ROW_36_231
*1887 TAP_TAPCELL_ROW_37_232
*1888 TAP_TAPCELL_ROW_37_233
*1889 TAP_TAPCELL_ROW_37_234
*1890 TAP_TAPCELL_ROW_37_235
*1891 TAP_TAPCELL_ROW_38_236
*1892 TAP_TAPCELL_ROW_38_237
*1893 TAP_TAPCELL_ROW_38_238
*1894 TAP_TAPCELL_ROW_38_239
*1895 TAP_TAPCELL_ROW_39_240
*1896 TAP_TAPCELL_ROW_39_241
*1897 TAP_TAPCELL_ROW_39_242
*1898 TAP_TAPCELL_ROW_39_243
*1899 TAP_TAPCELL_ROW_39_244
*1900 TAP_TAPCELL_ROW_39_245
*1901 TAP_TAPCELL_ROW_39_246
*1902 TAP_TAPCELL_ROW_39_247
*1903 TAP_TAPCELL_ROW_3_96
*1904 TAP_TAPCELL_ROW_3_97
*1905 TAP_TAPCELL_ROW_3_98
*1906 TAP_TAPCELL_ROW_3_99
*1907 TAP_TAPCELL_ROW_4_100
*1908 TAP_TAPCELL_ROW_4_101
*1909 TAP_TAPCELL_ROW_4_102
*1910 TAP_TAPCELL_ROW_4_103
*1911 TAP_TAPCELL_ROW_5_104
*1912 TAP_TAPCELL_ROW_5_105
*1913 TAP_TAPCELL_ROW_5_106
*1914 TAP_TAPCELL_ROW_5_107
*1915 TAP_TAPCELL_ROW_6_108
*1916 TAP_TAPCELL_ROW_6_109
*1917 TAP_TAPCELL_ROW_6_110
*1918 TAP_TAPCELL_ROW_6_111
*1919 TAP_TAPCELL_ROW_7_112
*1920 TAP_TAPCELL_ROW_7_113
*1921 TAP_TAPCELL_ROW_7_114
*1922 TAP_TAPCELL_ROW_7_115
*1923 TAP_TAPCELL_ROW_8_116
*1924 TAP_TAPCELL_ROW_8_117
*1925 TAP_TAPCELL_ROW_8_118
*1926 TAP_TAPCELL_ROW_8_119
*1927 TAP_TAPCELL_ROW_9_120
*1928 TAP_TAPCELL_ROW_9_121
*1929 TAP_TAPCELL_ROW_9_122
*1930 TAP_TAPCELL_ROW_9_123
*1931 _333_
*1932 _334_
*1933 _335_
*1934 _336_
*1935 _337_
*1936 _338_
*1937 _339_
*1938 _340_
*1939 _341_
*1940 _342_
*1941 _343_
*1942 _344_
*1943 _345_
*1944 _346_
*1945 _347_
*1946 _348_
*1947 _349_
*1948 _350_
*1949 _351_
*1950 _352_
*1951 _353_
*1952 _354_
*1953 _355_
*1954 _356_
*1955 _357_
*1956 _358_
*1957 _359_
*1958 _360_
*1959 _361_
*1960 _362_
*1961 _363_
*1962 _364_
*1963 _365_
*1964 _366_
*1965 _367_
*1966 _368_
*1967 _369_
*1968 _370_
*1969 _371_
*1970 _372_
*1971 _373_
*1972 _374_
*1973 _375_
*1974 _376_
*1975 _377_
*1976 _378_
*1977 _379_
*1978 _380_
*1979 _381_
*1980 _382_
*1981 _383_
*1982 _384_
*1983 _385_
*1984 _386_
*1985 _387_
*1986 _388_
*1987 _389_
*1988 _390_
*1989 _391_
*1990 _392_
*1991 _393_
*1992 _394_
*1993 _395_
*1994 _396_
*1995 _397_
*1996 _398_
*1997 _399_
*1998 _400_
*1999 _401_
*2000 _402_
*2001 _403_
*2002 _404_
*2003 _405_
*2004 _406_
*2005 _407_
*2006 _408_
*2007 _409_
*2008 _410_
*2009 _411_
*2010 _412_
*2011 _413_
*2012 _414_
*2013 _415_
*2014 _416_
*2015 _417_
*2016 _418_
*2017 _419_
*2018 _420_
*2019 _421_
*2020 _422_
*2021 _423_
*2022 _424_
*2023 _425_
*2024 _426_
*2025 _427_
*2026 _428_
*2027 _429_
*2028 _430_
*2029 _431_
*2030 _432_
*2031 _433_
*2032 _434_
*2033 _435_
*2034 _436_
*2035 _437_
*2036 _438_
*2037 _439_
*2038 _440_
*2039 _441_
*2040 _442_
*2041 _443_
*2042 _444_
*2043 _445_
*2044 _446_
*2045 _447_
*2046 _448_
*2047 _449_
*2048 _450_
*2049 _451_
*2050 _452_
*2051 _453_
*2052 _454_
*2053 _455_
*2054 _456_
*2055 _457_
*2056 _458_
*2057 _459_
*2058 _460_
*2059 _461_
*2060 _462_
*2061 _463_
*2062 _464_
*2063 _465_
*2064 _466_
*2065 _467_
*2066 _468_
*2067 _469_
*2068 _470_
*2069 _471_
*2070 _472_
*2071 _473_
*2072 _474_
*2073 _475_
*2074 _476_
*2075 _477_
*2076 _478_
*2077 _479_
*2078 _480_
*2079 _481_
*2080 _482_
*2081 _483_
*2082 _484_
*2083 _485_
*2084 _486_
*2085 _487_
*2086 _488_
*2087 _489_
*2088 _490_
*2089 _491_
*2090 _492_
*2091 _493_
*2092 _494_
*2093 _495_
*2094 _496_
*2095 _497_
*2096 _498_
*2097 _499_
*2098 _500_
*2099 _501_
*2100 _502_
*2101 _503_
*2102 _504_
*2103 _505_
*2104 _506_
*2105 _507_
*2106 _508_
*2107 _509_
*2108 _510_
*2109 _511_
*2110 _512_
*2111 _513_
*2112 _514_
*2113 _515_
*2114 _516_
*2115 _517_
*2116 _518_
*2117 _519_
*2118 _520_
*2119 _521_
*2120 _522_
*2121 _523_
*2122 _524_
*2123 _525_
*2124 _526_
*2125 _527_
*2126 _528_
*2127 _529_
*2128 _530_
*2129 _531_
*2130 _532_
*2131 _533_
*2132 _534_
*2133 _535_
*2134 _536_
*2135 _537_
*2136 _538_
*2137 _539_
*2138 _540_
*2139 _541_
*2140 _542_
*2141 _543_
*2142 _544_
*2143 _545_
*2144 _546_
*2145 _547_
*2146 _548_
*2147 _549_
*2148 _550_
*2149 _551_
*2150 _552_
*2151 _553_
*2152 _554_
*2153 _555_
*2154 _556_
*2155 _557_
*2156 _558_
*2157 _559_
*2158 _560_
*2159 _561_
*2160 _562_
*2161 _563_
*2162 _564_
*2163 _565_
*2164 _566_
*2165 _567_
*2166 _568_
*2167 _569_
*2168 _570_
*2169 _571_
*2170 _572_
*2171 _573_
*2172 _574_
*2173 _575_
*2174 _576_
*2175 _577_
*2176 _578_
*2177 _579_
*2178 _580_
*2179 _581_
*2180 _582_
*2181 _583_
*2182 _584_
*2183 _585_
*2184 _586_
*2185 _587_
*2186 _588_
*2187 _589_
*2188 _590_
*2189 _591_
*2190 _592_
*2191 _593_
*2192 _594_
*2193 _595_
*2194 _596_
*2195 _597_
*2196 _598_
*2197 _599_
*2198 _600_
*2199 _601_
*2200 _602_
*2201 _603_
*2202 _604_
*2203 _605_
*2204 _606_
*2205 _607_
*2206 _608_
*2207 _609_
*2208 _610_
*2209 _611_
*2210 _612_
*2211 _613_
*2212 _614_
*2213 _615_
*2214 _616_
*2215 _617_
*2216 _618_
*2217 _619_
*2218 _620_
*2219 _621_
*2220 _622_
*2221 _623_
*2222 _624_
*2223 _625_
*2224 _626_
*2225 _627_
*2226 _628_
*2227 _629_
*2228 _630_
*2229 _631_
*2230 _632_
*2231 _633_
*2232 _634_
*2233 _635_
*2234 _636_
*2235 _637_
*2236 _638_
*2237 _639_
*2238 _640_
*2239 _641_
*2240 _642_
*2241 _643_
*2242 _644_
*2243 _645_
*2244 _646_
*2245 _647_
*2246 _648_
*2247 _649_
*2248 _650_
*2249 _651_
*2250 _652_
*2251 _653_
*2252 _654_
*2253 _655_
*2254 _656_
*2255 _657_
*2256 _658_
*2257 _659_
*2258 _660_
*2259 _661_
*2260 _662_
*2261 _663_
*2262 _664_
*2263 _665_
*2264 _666_
*2265 _667_
*2266 _668_
*2267 _669_
*2268 _670_
*2269 _671_
*2270 _672_
*2271 _673_
*2272 _674_
*2273 _675_
*2274 _676_
*2275 _677_
*2276 _678_
*2277 _679_
*2278 _680_
*2279 _681_
*2280 _682_
*2281 _683_
*2282 _684_
*2283 _685_
*2284 _686_
*2285 _687_
*2286 _688_
*2287 _689_
*2288 _690_
*2289 _691_
*2290 _692_
*2291 _693_
*2292 _694_
*2293 _695_
*2294 _696_
*2295 _697_
*2296 _698_
*2297 _699_
*2298 _700_
*2299 _701_
*2300 _702_
*2301 _703_
*2302 _704_
*2303 _705_
*2304 _706_
*2305 _707_
*2306 _708_
*2307 _709_
*2308 _710_
*2309 _711_
*2310 _712_
*2311 _713_
*2312 _714_
*2313 _715_
*2314 _716_
*2315 _717_
*2316 _718_
*2317 _719_
*2318 _720_
*2319 _721_
*2320 _722_
*2321 _723_
*2322 _724_
*2323 _725_
*2324 _726_
*2325 _727_
*2326 _728_
*2327 _729_
*2328 _730_
*2329 _731_
*2330 _732_
*2331 _733_
*2332 _734_
*2333 _735_
*2334 _736_
*2335 _737_
*2336 _738_
*2337 _739_
*2338 _740_
*2339 _741_
*2340 _742_
*2341 _743_
*2342 _744_
*2343 _745_
*2344 _746_
*2345 _747_
*2346 _748_
*2347 _749_
*2348 _750_
*2349 _751_
*2350 _752_
*2351 _753_
*2352 _754_
*2353 _755_
*2354 _756_
*2355 _757_
*2356 _758_
*2357 _759_
*2358 _760_
*2359 _761_
*2360 _762_
*2361 _763_
*2362 _764_
*2363 _765_
*2364 _766_
*2365 _767_
*2366 clkbuf_0_wb_clk_i
*2367 clkbuf_3_0__f_wb_clk_i
*2368 clkbuf_3_1__f_wb_clk_i
*2369 clkbuf_3_2__f_wb_clk_i
*2370 clkbuf_3_3__f_wb_clk_i
*2371 clkbuf_3_4__f_wb_clk_i
*2372 clkbuf_3_5__f_wb_clk_i
*2373 clkbuf_3_6__f_wb_clk_i
*2374 clkbuf_3_7__f_wb_clk_i
*2375 clkload0
*2376 clkload1
*2377 clkload2
*2378 clkload3
*2379 clkload4
*2380 clkload5
*2381 clkload6
*2382 fanout69
*2383 fanout70
*2384 fanout71
*2385 fanout72
*2386 fanout73
*2387 fanout74
*2388 fanout75
*2389 fanout76
*2390 fanout77
*2391 fanout78
*2392 fanout79
*2393 fanout80
*2394 fanout81
*2395 fanout82
*2396 fanout83
*2397 fanout84
*2398 fanout85
*2399 fanout86
*2400 fanout87
*2401 fanout88
*2402 fanout89
*2403 hold1
*2404 hold10
*2405 hold11
*2406 hold12
*2407 hold13
*2408 hold14
*2409 hold15
*2410 hold16
*2411 hold17
*2412 hold18
*2413 hold19
*2414 hold2
*2415 hold20
*2416 hold21
*2417 hold22
*2418 hold23
*2419 hold24
*2420 hold25
*2421 hold26
*2422 hold27
*2423 hold28
*2424 hold29
*2425 hold3
*2426 hold30
*2427 hold4
*2428 hold5
*2429 hold6
*2430 hold7
*2431 hold8
*2432 hold9
*2433 input1
*2434 input10
*2435 input11
*2436 input12
*2437 input13
*2438 input14
*2439 input15
*2440 input16
*2441 input17
*2442 input18
*2443 input19
*2444 input2
*2445 input20
*2446 input21
*2447 input22
*2448 input23
*2449 input24
*2450 input25
*2451 input26
*2452 input3
*2453 input4
*2454 input5
*2455 input6
*2456 input7
*2457 input8
*2458 input9
*2459 output27
*2460 output28
*2461 output29
*2462 output30
*2463 output31
*2464 output32
*2465 output33
*2466 output34
*2467 output35
*2468 output36
*2469 output37
*2470 output38
*2471 output39
*2472 output40
*2473 output41
*2474 output42
*2475 output43
*2476 output44
*2477 output45
*2478 output46
*2479 output47
*2480 output48
*2481 output49
*2482 output50
*2483 output51
*2484 output52
*2485 output53
*2486 output54
*2487 output55
*2488 output56
*2489 output57
*2490 output58
*2491 output59
*2492 output60
*2493 output61
*2494 output62
*2495 output63
*2496 output64
*2497 output65
*2498 output66
*2499 output67
*2500 output68

*PORTS
clock_glitch I
cold_reset_req I
debug_enable O
file_denied I
fsm_error O
fw_fail I
fw_ok I
global_pin_ok I
group_autolock I
group_error O
group_suspended O
group_unlocked O
hdr_parse_fail I
illegal_in I
power_glitch I
safe_led O
security_breach O
size_mismatch I
tamper_in I
unlock_enable O
unlock_req I
user_irq O
warm_reset_req I
wb_ack_o O
wb_adr_i[0] I
wb_adr_i[10] I
wb_adr_i[11] I
wb_adr_i[12] I
wb_adr_i[13] I
wb_adr_i[14] I
wb_adr_i[15] I
wb_adr_i[16] I
wb_adr_i[17] I
wb_adr_i[18] I
wb_adr_i[19] I
wb_adr_i[1] I
wb_adr_i[20] I
wb_adr_i[21] I
wb_adr_i[22] I
wb_adr_i[23] I
wb_adr_i[24] I
wb_adr_i[25] I
wb_adr_i[26] I
wb_adr_i[27] I
wb_adr_i[28] I
wb_adr_i[29] I
wb_adr_i[2] I
wb_adr_i[30] I
wb_adr_i[31] I
wb_adr_i[3] I
wb_adr_i[4] I
wb_adr_i[5] I
wb_adr_i[6] I
wb_adr_i[7] I
wb_adr_i[8] I
wb_adr_i[9] I
wb_clk_i I
wb_cyc_i I
wb_dat_i[0] I
wb_dat_i[10] I
wb_dat_i[11] I
wb_dat_i[12] I
wb_dat_i[13] I
wb_dat_i[14] I
wb_dat_i[15] I
wb_dat_i[16] I
wb_dat_i[17] I
wb_dat_i[18] I
wb_dat_i[19] I
wb_dat_i[1] I
wb_dat_i[20] I
wb_dat_i[21] I
wb_dat_i[22] I
wb_dat_i[23] I
wb_dat_i[24] I
wb_dat_i[25] I
wb_dat_i[26] I
wb_dat_i[27] I
wb_dat_i[28] I
wb_dat_i[29] I
wb_dat_i[2] I
wb_dat_i[30] I
wb_dat_i[31] I
wb_dat_i[3] I
wb_dat_i[4] I
wb_dat_i[5] I
wb_dat_i[6] I
wb_dat_i[7] I
wb_dat_i[8] I
wb_dat_i[9] I
wb_dat_o[0] O
wb_dat_o[10] O
wb_dat_o[11] O
wb_dat_o[12] O
wb_dat_o[13] O
wb_dat_o[14] O
wb_dat_o[15] O
wb_dat_o[16] O
wb_dat_o[17] O
wb_dat_o[18] O
wb_dat_o[19] O
wb_dat_o[1] O
wb_dat_o[20] O
wb_dat_o[21] O
wb_dat_o[22] O
wb_dat_o[23] O
wb_dat_o[24] O
wb_dat_o[25] O
wb_dat_o[26] O
wb_dat_o[27] O
wb_dat_o[28] O
wb_dat_o[29] O
wb_dat_o[2] O
wb_dat_o[30] O
wb_dat_o[31] O
wb_dat_o[3] O
wb_dat_o[4] O
wb_dat_o[5] O
wb_dat_o[6] O
wb_dat_o[7] O
wb_dat_o[8] O
wb_dat_o[9] O
wb_rst_i I
wb_sel_i[0] I
wb_sel_i[1] I
wb_sel_i[2] I
wb_sel_i[3] I
wb_stb_i I
wb_we_i I

*D_NET *1 0.000683441
*CONN
*P clock_glitch I
*I *2433:A I *D sky130_fd_sc_hd__clkbuf_1
*I *733:DIODE I *D sky130_fd_sc_hd__diode_2
*CAP
1 clock_glitch 0.000222233
2 *2433:A 0
3 *733:DIODE 6.60822e-05
4 *1:11 0.000288315
5 *733:DIODE *2067:A 3.00381e-05
6 *1:11 *8:11 7.67731e-05
*RES
1 clock_glitch *1:11 4.01177 
2 *1:11 *733:DIODE 2.74 
3 *1:11 *2433:A 1.6 
*END

*D_NET *2 0.000954442
*CONN
*P cold_reset_req I
*I *2444:A I *D sky130_fd_sc_hd__buf_1
*I *741:DIODE I *D sky130_fd_sc_hd__diode_2
*CAP
1 cold_reset_req 0.000168215
2 *2444:A 0
3 *741:DIODE 5.79356e-05
4 *2:11 0.000226151
5 *741:DIODE *727:DIODE 2.8185e-05
6 *741:DIODE *546:23 0.000124895
7 *741:DIODE *601:18 0.000124895
8 *2:11 *9:7 8.53361e-05
9 *2:11 *25:7 8.53361e-05
10 *2:11 *601:18 5.34943e-05
*RES
1 cold_reset_req *2:11 4.26677 
2 *2:11 *741:DIODE 3.43 
3 *2:11 *2444:A 1.6 
*END

*D_NET *3 0.000487402
*CONN
*P debug_enable O
*I *2459:X O *D sky130_fd_sc_hd__buf_2
*CAP
1 debug_enable 0.000154759
2 *2459:X 0.000154759
3 debug_enable unlock_enable 9.50048e-05
4 debug_enable *2279:RESET_B 0
5 debug_enable *7:11 8.28789e-05
*RES
1 *2459:X debug_enable 5.16003 
*END

*D_NET *4 0.00121044
*CONN
*P file_denied I
*I *742:DIODE I *D sky130_fd_sc_hd__diode_2
*I *2452:A I *D sky130_fd_sc_hd__buf_1
*CAP
1 file_denied 0.000397505
2 *742:DIODE 5.4351e-05
3 *2452:A 1.90984e-05
4 *4:9 0.000470955
5 *742:DIODE *2245:A 5.30673e-05
6 *742:DIODE *621:66 2.30292e-05
7 *2452:A *2245:A 4.00541e-06
8 *4:9 group_unlocked 0
9 *4:9 *2245:A 7.60965e-05
10 *4:9 *557:10 9.88723e-05
11 *4:9 *582:14 1.34594e-05
*RES
1 file_denied *4:9 9.53 
2 *4:9 *2452:A 1.96 
3 *4:9 *742:DIODE 2.74 
*END

*D_NET *5 0.000593661
*CONN
*P fsm_error O
*I *2460:X O *D sky130_fd_sc_hd__buf_2
*CAP
1 fsm_error 0.000271332
2 *2460:X 0.000271332
3 fsm_error user_irq 2.85068e-05
4 fsm_error wb_dat_o[7] 2.24901e-05
5 fsm_error *59:19 0
*RES
1 *2460:X fsm_error 7.1793 
*END

*D_NET *6 0.000613768
*CONN
*P fw_fail I
*I *2453:A I *D sky130_fd_sc_hd__clkbuf_1
*I *743:DIODE I *D sky130_fd_sc_hd__diode_2
*CAP
1 fw_fail 0.000148343
2 *2453:A 0
3 *743:DIODE 6.81615e-05
4 *6:11 0.000216504
5 *743:DIODE *2088:B 2.11084e-05
6 *6:11 *2155:A2 0
7 *6:11 *9:7 8.28789e-05
8 *6:11 *13:11 7.67731e-05
*RES
1 fw_fail *6:11 3.50177 
2 *6:11 *743:DIODE 2.74 
3 *6:11 *2453:A 1.6 
*END

*D_NET *7 0.000617583
*CONN
*P fw_ok I
*I *2454:A I *D sky130_fd_sc_hd__buf_1
*I *744:DIODE I *D sky130_fd_sc_hd__diode_2
*CAP
1 fw_ok 0.000139331
2 *2454:A 0
3 *744:DIODE 6.50255e-05
4 *7:11 0.000204356
5 *744:DIODE *579:16 4.99619e-05
6 *7:11 *25:7 7.60294e-05
7 debug_enable *7:11 8.28789e-05
*RES
1 fw_ok *7:11 3.24677 
2 *7:11 *744:DIODE 2.74 
3 *7:11 *2454:A 1.6 
*END

*D_NET *8 0.000591955
*CONN
*P global_pin_ok I
*I *2455:A I *D sky130_fd_sc_hd__clkbuf_1
*I *745:DIODE I *D sky130_fd_sc_hd__diode_2
*CAP
1 global_pin_ok 0.000133711
2 *2455:A 0
3 *745:DIODE 6.74217e-05
4 *8:11 0.000201133
5 *745:DIODE *2077:A 3.00381e-05
6 *8:11 *2067:A 0
7 *8:11 *15:11 8.28789e-05
8 *1:11 *8:11 7.67731e-05
*RES
1 global_pin_ok *8:11 3.24677 
2 *8:11 *745:DIODE 2.74 
3 *8:11 *2455:A 1.6 
*END

*D_NET *9 0.000630626
*CONN
*P group_autolock I
*I *746:DIODE I *D sky130_fd_sc_hd__diode_2
*I *2456:A I *D sky130_fd_sc_hd__buf_1
*CAP
1 group_autolock 0.000105125
2 *746:DIODE 0
3 *2456:A 0.000123988
4 *9:7 0.000229112
5 *2456:A *1944:A 4.18603e-06
6 *2456:A *540:21 0
7 *2456:A *540:27 0
8 *2:11 *9:7 8.53361e-05
9 *6:11 *9:7 8.28789e-05
*RES
1 group_autolock *9:7 1.01427 
2 *9:7 *2456:A 5.6175 
3 *9:7 *746:DIODE 3.6 
*END

*D_NET *10 0.000589661
*CONN
*P group_error O
*I *2461:X O *D sky130_fd_sc_hd__buf_2
*CAP
1 group_error 0.000198885
2 *2461:X 0.000198885
3 group_error *2306:CLK 4.05569e-05
4 group_error *86:13 7.56675e-05
5 group_error *87:9 7.56675e-05
*RES
1 *2461:X group_error 5.92503 
*END

*D_NET *11 0.000663437
*CONN
*P group_suspended O
*I *2462:X O *D sky130_fd_sc_hd__buf_2
*CAP
1 group_suspended 0.000263743
2 *2462:X 0.000263743
3 group_suspended security_breach 0
4 group_suspended *2468:A 4.05569e-05
5 group_suspended *59:19 1.75305e-05
6 group_suspended *72:11 7.78642e-05
7 group_suspended *125:9 0
*RES
1 *2462:X group_suspended 5.92503 
*END

*D_NET *12 0.000864128
*CONN
*P group_unlocked O
*I *2463:X O *D sky130_fd_sc_hd__buf_2
*CAP
1 group_unlocked 0.000388766
2 *2463:X 0.000388766
3 group_unlocked *581:14 8.65961e-05
4 *4:9 group_unlocked 0
*RES
1 *2463:X group_unlocked 10.185 
*END

*D_NET *13 0.000644732
*CONN
*P hdr_parse_fail I
*I *2457:A I *D sky130_fd_sc_hd__clkbuf_1
*I *747:DIODE I *D sky130_fd_sc_hd__diode_2
*CAP
1 hdr_parse_fail 0.000160074
2 *2457:A 0
3 *747:DIODE 6.62183e-05
4 *13:11 0.000226292
5 *747:DIODE *2088:C 3.00381e-05
6 *13:11 *2088:B 0
7 *13:11 *18:11 8.53361e-05
8 *6:11 *13:11 7.67731e-05
*RES
1 hdr_parse_fail *13:11 3.75677 
2 *13:11 *747:DIODE 2.74 
3 *13:11 *2457:A 1.6 
*END

*D_NET *14 0.000626841
*CONN
*P illegal_in I
*I *748:DIODE I *D sky130_fd_sc_hd__diode_2
*I *2458:A I *D sky130_fd_sc_hd__clkbuf_1
*CAP
1 illegal_in 0.000176691
2 *748:DIODE 6.17776e-05
3 *2458:A 0
4 *14:13 0.000238469
5 *748:DIODE *2225:A2 3.00381e-05
6 *14:13 wb_dat_o[6] 4.66616e-05
7 *14:13 wb_dat_o[7] 0
8 *14:13 *2029:B 0
9 *14:13 *61:13 7.32038e-05
*RES
1 illegal_in *14:13 3.8935 
2 *14:13 *2458:A 1.6 
3 *14:13 *748:DIODE 2.74 
*END

*D_NET *15 0.000792297
*CONN
*P power_glitch I
*I *2434:A I *D sky130_fd_sc_hd__clkbuf_1
*I *723:DIODE I *D sky130_fd_sc_hd__diode_2
*CAP
1 power_glitch 0.0002048
2 *2434:A 0
3 *723:DIODE 8.24166e-05
4 *15:11 0.000287217
5 *15:11 *2067:B 5.21046e-05
6 *15:11 *18:11 8.28789e-05
7 *8:11 *15:11 8.28789e-05
*RES
1 power_glitch *15:11 4.77677 
2 *15:11 *723:DIODE 2.74 
3 *15:11 *2434:A 1.6 
*END

*D_NET *16 0.000915461
*CONN
*P safe_led O
*I *2464:X O *D sky130_fd_sc_hd__buf_2
*CAP
1 safe_led 0.000457731
2 *2464:X 0.000457731
3 safe_led wb_dat_o[4] 0
4 safe_led wb_dat_o[8] 0
*RES
1 *2464:X safe_led 11.715 
*END

*D_NET *17 0.00129993
*CONN
*P security_breach O
*I *2465:X O *D sky130_fd_sc_hd__buf_2
*CAP
1 security_breach 0.000417722
2 *2465:X 0.000417722
3 security_breach wb_ack_o 0.000358687
4 security_breach *2462:A 8.8266e-05
5 security_breach *59:19 1.75305e-05
6 security_breach *131:11 0
7 group_suspended security_breach 0
*RES
1 *2465:X security_breach 9.5135 
*END

*D_NET *18 0.000780157
*CONN
*P size_mismatch I
*I *2435:A I *D sky130_fd_sc_hd__clkbuf_1
*I *724:DIODE I *D sky130_fd_sc_hd__diode_2
*CAP
1 size_mismatch 0.000212877
2 *2435:A 0
3 *724:DIODE 6.81135e-05
4 *18:11 0.00028099
5 *724:DIODE *2088:A 4.99619e-05
6 *18:11 *2088:B 0
7 *18:11 *2088:C 0
8 *13:11 *18:11 8.53361e-05
9 *15:11 *18:11 8.28789e-05
*RES
1 size_mismatch *18:11 4.52177 
2 *18:11 *724:DIODE 2.74 
3 *18:11 *2435:A 1.6 
*END

*D_NET *19 0.000655639
*CONN
*P tamper_in I
*I *725:DIODE I *D sky130_fd_sc_hd__diode_2
*I *2436:A I *D sky130_fd_sc_hd__clkbuf_1
*CAP
1 tamper_in 0.000194913
2 *725:DIODE 6.74149e-05
3 *2436:A 0
4 *19:11 0.000262328
5 *725:DIODE *2226:A2 3.00381e-05
6 *19:11 wb_dat_o[26] 3.14094e-05
7 *19:11 *61:13 6.95349e-05
*RES
1 tamper_in *19:11 3.75677 
2 *19:11 *2436:A 1.6 
3 *19:11 *725:DIODE 2.74 
*END

*D_NET *20 0.000555127
*CONN
*P unlock_enable O
*I *2466:X O *D sky130_fd_sc_hd__buf_2
*CAP
1 unlock_enable 0.000153714
2 *2466:X 0.000153714
3 unlock_enable wb_dat_o[10] 9.20289e-05
4 unlock_enable *2466:A 0
5 unlock_enable *2470:A 6.06649e-05
6 debug_enable unlock_enable 9.50048e-05
*RES
1 *2466:X unlock_enable 5.41503 
*END

*D_NET *21 0.00258002
*CONN
*P unlock_req I
*I *726:DIODE I *D sky130_fd_sc_hd__diode_2
*I *2437:A I *D sky130_fd_sc_hd__clkbuf_1
*CAP
1 unlock_req 0.000181333
2 *726:DIODE 0.000708105
3 *2437:A 0
4 *21:11 0.000889438
5 *726:DIODE *730:DIODE 5.75645e-05
6 *726:DIODE *732:DIODE 0.000272984
7 *726:DIODE *1963:A_N 4.80285e-05
8 *726:DIODE *1963:B 0.000159103
9 *726:DIODE *2030:A 2.0514e-05
10 *726:DIODE *2301:D 1.52184e-05
11 *726:DIODE *291:17 1.0124e-05
12 *726:DIODE *618:24 0
13 *21:11 *730:DIODE 3.97211e-05
14 *21:11 *1934:A 9.58678e-06
15 *21:11 *1962:A_N 0
16 *21:11 *59:19 4.88301e-05
17 *21:11 *60:9 5.07137e-05
18 *21:11 *72:11 6.87602e-05
19 *21:11 *130:11 0
*RES
1 unlock_req *21:11 3.75677 
2 *21:11 *2437:A 1.6 
3 *21:11 *726:DIODE 15.05 
*END

*D_NET *22 0.000593179
*CONN
*P user_irq O
*I *2467:X O *D sky130_fd_sc_hd__buf_2
*CAP
1 user_irq 0.000244502
2 *2467:X 0.000244502
3 user_irq wb_dat_o[7] 0
4 user_irq *2029:B 0
5 user_irq *83:13 7.56675e-05
6 fsm_error user_irq 2.85068e-05
*RES
1 *2467:X user_irq 5.92503 
*END

*D_NET *25 0.000817897
*CONN
*P warm_reset_req I
*I *2438:A I *D sky130_fd_sc_hd__dlymetal6s2s_1
*I *727:DIODE I *D sky130_fd_sc_hd__diode_2
*CAP
1 warm_reset_req 0.00011374
2 *2438:A 4.19808e-05
3 *727:DIODE 0.000144695
4 *25:7 0.000300416
5 *727:DIODE *540:10 0
6 *727:DIODE *601:18 2.75145e-05
7 *2438:A *540:10 0
8 *741:DIODE *727:DIODE 2.8185e-05
9 *2:11 *25:7 8.53361e-05
10 *7:11 *25:7 7.60294e-05
*RES
1 warm_reset_req *25:7 1.01427 
2 *25:7 *727:DIODE 5.4825 
3 *25:7 *2438:A 4.3425 
*END

*D_NET *26 0.00226244
*CONN
*P wb_ack_o O
*I *2468:X O *D sky130_fd_sc_hd__buf_2
*CAP
1 wb_ack_o 0.000524597
2 *2468:X 0.000524597
3 wb_ack_o *2462:A 2.59835e-05
4 wb_ack_o *2465:A 0
5 wb_ack_o *2468:A 0.000160641
6 wb_ack_o *125:9 0.000617977
7 wb_ack_o *131:11 4.99619e-05
8 security_breach wb_ack_o 0.000358687
*RES
1 *2468:X wb_ack_o 15.0952 
*END

*D_NET *49 0.00109736
*CONN
*P wb_adr_i[2] I
*I *2439:A I *D sky130_fd_sc_hd__clkbuf_2
*I *728:DIODE I *D sky130_fd_sc_hd__diode_2
*CAP
1 wb_adr_i[2] 0.000442423
2 *2439:A 5.36289e-05
3 *728:DIODE 3.39831e-05
4 *49:9 0.000530035
5 *728:DIODE *541:10 2.11084e-05
6 *2439:A *541:10 1.61831e-05
7 *49:9 wb_dat_o[3] 0
8 *49:9 wb_dat_o[5] 0
*RES
1 wb_adr_i[2] *49:9 9.77 
2 *49:9 *728:DIODE 2.05 
3 *49:9 *2439:A 2.41 
*END

*D_NET *52 0.00113992
*CONN
*P wb_adr_i[3] I
*I *729:DIODE I *D sky130_fd_sc_hd__diode_2
*I *2440:A I *D sky130_fd_sc_hd__buf_2
*CAP
1 wb_adr_i[3] 0.000441511
2 *729:DIODE 0
3 *2440:A 6.14526e-05
4 *52:9 0.000502964
5 *2440:A *2462:A 8.57024e-05
6 *2440:A *619:51 4.82919e-05
7 *52:9 *126:9 0
*RES
1 wb_adr_i[3] *52:9 9.77 
2 *52:9 *2440:A 3.01 
3 *52:9 *729:DIODE 1.6 
*END

*D_NET *59 0.013728
*CONN
*P wb_clk_i I
*I *2366:A I *D sky130_fd_sc_hd__clkbuf_16
*I *699:DIODE I *D sky130_fd_sc_hd__diode_2
*CAP
1 wb_clk_i 0.00265481
2 *2366:A 0.000104408
3 *699:DIODE 0
4 *59:21 0.00368543
5 *59:19 0.00623583
6 *2366:A *2058:A 3.99879e-05
7 *59:19 wb_dat_o[1] 0
8 *59:19 wb_dat_o[6] 0
9 *59:19 *60:9 4.05873e-05
10 *59:21 wb_dat_o[6] 0
11 *59:21 *1986:B 6.52349e-05
12 *59:21 *1988:A1 8.49205e-05
13 *59:21 *1991:A1 4.82863e-05
14 *59:21 *2058:A 4.60836e-05
15 *59:21 *2275:RESET_B 0.000190541
16 *59:21 *2425:A 7.96553e-05
17 *59:21 *2497:A 1.83756e-05
18 *59:21 *295:49 6.40489e-05
19 *59:21 *334:8 3.45588e-05
20 *59:21 *467:108 0.00010856
21 *59:21 *634:48 2.05056e-05
22 *59:21 *634:63 0.000122331
23 fsm_error *59:19 0
24 group_suspended *59:19 1.75305e-05
25 security_breach *59:19 1.75305e-05
26 *21:11 *59:19 4.88301e-05
*RES
1 wb_clk_i *59:19 37.9753 
2 *59:19 *59:21 41.85 
3 *59:21 *699:DIODE 1.6 
4 *59:21 *2366:A 3.1 
*END

*D_NET *60 0.00113845
*CONN
*P wb_cyc_i I
*I *730:DIODE I *D sky130_fd_sc_hd__diode_2
*I *2441:A I *D sky130_fd_sc_hd__clkbuf_1
*CAP
1 wb_cyc_i 0.000167098
2 *730:DIODE 0.000178212
3 *2441:A 3.37454e-05
4 *60:9 0.000379056
5 *730:DIODE *1934:A 3.66753e-05
6 *730:DIODE *2030:A 3.00381e-05
7 *60:9 *1934:A 4.93664e-05
8 *60:9 *130:11 7.56675e-05
9 *726:DIODE *730:DIODE 5.75645e-05
10 *21:11 *730:DIODE 3.97211e-05
11 *21:11 *60:9 5.07137e-05
12 *59:19 *60:9 4.05873e-05
*RES
1 wb_cyc_i *60:9 2.4635 
2 *60:9 *2441:A 4.05 
3 *60:9 *730:DIODE 6.72 
*END

*D_NET *61 0.000631276
*CONN
*P wb_dat_i[0] I
*I *731:DIODE I *D sky130_fd_sc_hd__diode_2
*I *2442:A I *D sky130_fd_sc_hd__clkbuf_1
*CAP
1 wb_dat_i[0] 0.000167191
2 *731:DIODE 6.20584e-05
3 *2442:A 0
4 *61:13 0.000229249
5 *731:DIODE *2029:A 3.00381e-05
6 *14:13 *61:13 7.32038e-05
7 *19:11 *61:13 6.95349e-05
*RES
1 wb_dat_i[0] *61:13 3.8935 
2 *61:13 *2442:A 1.6 
3 *61:13 *731:DIODE 2.74 
*END

*D_NET *72 0.00159505
*CONN
*P wb_dat_i[1] I
*I *732:DIODE I *D sky130_fd_sc_hd__diode_2
*I *2443:A I *D sky130_fd_sc_hd__clkbuf_1
*CAP
1 wb_dat_i[1] 0.000163003
2 *732:DIODE 0.000192553
3 *2443:A 0
4 *72:11 0.000355557
5 *732:DIODE *737:DIODE 0.000123225
6 *732:DIODE *1962:A_N 0.000160651
7 *732:DIODE *2030:A 0.000180448
8 group_suspended *72:11 7.78642e-05
9 *726:DIODE *732:DIODE 0.000272984
10 *21:11 *72:11 6.87602e-05
*RES
1 wb_dat_i[1] *72:11 3.50177 
2 *72:11 *2443:A 1.6 
3 *72:11 *732:DIODE 11.15 
*END

*D_NET *83 0.000749715
*CONN
*P wb_dat_i[2] I
*I *734:DIODE I *D sky130_fd_sc_hd__diode_2
*I *2445:A I *D sky130_fd_sc_hd__clkbuf_1
*CAP
1 wb_dat_i[2] 0.000212499
2 *734:DIODE 7.271e-05
3 *2445:A 0
4 *83:13 0.000285209
5 *734:DIODE *2469:A 7.00889e-06
6 *83:13 wb_dat_o[0] 7.56675e-05
7 *83:13 *2031:A 2.09527e-05
8 *83:13 *324:24 0
9 user_irq *83:13 7.56675e-05
*RES
1 wb_dat_i[2] *83:13 4.9135 
2 *83:13 *2445:A 1.6 
3 *83:13 *734:DIODE 2.74 
*END

*D_NET *86 0.0011549
*CONN
*P wb_dat_i[3] I
*I *735:DIODE I *D sky130_fd_sc_hd__diode_2
*I *2446:A I *D sky130_fd_sc_hd__clkbuf_1
*CAP
1 wb_dat_i[3] 0.000282082
2 *735:DIODE 0.000155448
3 *2446:A 2.08101e-05
4 *86:13 0.00045834
5 *735:DIODE *2228:A 4.82919e-05
6 *86:13 wb_dat_o[2] 0.000114261
7 *86:13 *2032:A 0
8 *86:13 *324:16 0
9 group_error *86:13 7.56675e-05
*RES
1 wb_dat_i[3] *86:13 5.7835 
2 *86:13 *2446:A 1.96 
3 *86:13 *735:DIODE 3.775 
*END

*D_NET *87 0.000746394
*CONN
*P wb_dat_i[4] I
*I *736:DIODE I *D sky130_fd_sc_hd__diode_2
*I *2447:A I *D sky130_fd_sc_hd__clkbuf_1
*CAP
1 wb_dat_i[4] 0.000133299
2 *736:DIODE 0.000135939
3 *2447:A 3.17314e-05
4 *87:9 0.000300969
5 *736:DIODE *2306:CLK 0
6 *87:9 wb_dat_o[0] 6.87892e-05
7 *87:9 *324:22 0
8 group_error *87:9 7.56675e-05
*RES
1 wb_dat_i[4] *87:9 1.4435 
2 *87:9 *2447:A 4.05 
3 *87:9 *736:DIODE 5.43 
*END

*D_NET *93 0.00053568
*CONN
*P wb_dat_o[0] O
*I *2469:X O *D sky130_fd_sc_hd__buf_2
*CAP
1 wb_dat_o[0] 0.000195612
2 *2469:X 0.000195612
3 *83:13 wb_dat_o[0] 7.56675e-05
4 *87:9 wb_dat_o[0] 6.87892e-05
*RES
1 *2469:X wb_dat_o[0] 5.5835 
*END

*D_NET *94 0.000828799
*CONN
*P wb_dat_o[10] O
*I *2470:X O *D sky130_fd_sc_hd__buf_2
*CAP
1 wb_dat_o[10] 0.000249681
2 *2470:X 0.000249681
3 wb_dat_o[10] wb_dat_o[11] 9.0321e-05
4 wb_dat_o[10] *2089:B 0
5 wb_dat_o[10] *2280:RESET_B 0
6 wb_dat_o[10] *2470:A 0.000108425
7 wb_dat_o[10] *2471:A 3.86607e-05
8 unlock_enable wb_dat_o[10] 9.20289e-05
*RES
1 *2470:X wb_dat_o[10] 7.0033 
*END

*D_NET *95 0.00077827
*CONN
*P wb_dat_o[11] O
*I *2471:X O *D sky130_fd_sc_hd__buf_2
*CAP
1 wb_dat_o[11] 0.000292913
2 *2471:X 0.000292913
3 wb_dat_o[11] wb_dat_o[15] 9.20289e-05
4 wb_dat_o[11] *2471:A 1.00941e-05
5 wb_dat_o[11] *620:84 0
6 wb_dat_o[10] wb_dat_o[11] 9.0321e-05
*RES
1 *2471:X wb_dat_o[11] 5.19637 
*END

*D_NET *96 0.0010966
*CONN
*P wb_dat_o[12] O
*I *2472:X O *D sky130_fd_sc_hd__buf_2
*CAP
1 wb_dat_o[12] 0.000289334
2 *2472:X 0.000289334
3 wb_dat_o[12] wb_dat_o[13] 9.25475e-05
4 wb_dat_o[12] wb_dat_o[15] 9.50048e-05
5 wb_dat_o[12] *2472:A 0.000304278
6 wb_dat_o[12] *2475:A 2.60986e-05
*RES
1 *2472:X wb_dat_o[12] 8.73003 
*END

*D_NET *97 0.000916138
*CONN
*P wb_dat_o[13] O
*I *2473:X O *D sky130_fd_sc_hd__buf_2
*CAP
1 wb_dat_o[13] 0.000335214
2 *2473:X 0.000335214
3 wb_dat_o[13] wb_dat_o[14] 8.36237e-05
4 wb_dat_o[13] *2284:RESET_B 0
5 wb_dat_o[13] *2473:A 4.92063e-05
6 wb_dat_o[13] *2475:A 2.03321e-05
7 wb_dat_o[13] *620:122 0
8 wb_dat_o[12] wb_dat_o[13] 9.25475e-05
*RES
1 *2473:X wb_dat_o[13] 6.47137 
*END

*D_NET *98 0.000646802
*CONN
*P wb_dat_o[14] O
*I *2474:X O *D sky130_fd_sc_hd__buf_2
*CAP
1 wb_dat_o[14] 0.000281589
2 *2474:X 0.000281589
3 wb_dat_o[13] wb_dat_o[14] 8.36237e-05
*RES
1 *2474:X wb_dat_o[14] 6.43503 
*END

*D_NET *99 0.000638248
*CONN
*P wb_dat_o[15] O
*I *2475:X O *D sky130_fd_sc_hd__buf_2
*CAP
1 wb_dat_o[15] 0.000171284
2 *2475:X 0.000171284
3 wb_dat_o[15] *2472:A 0.000108647
4 wb_dat_o[11] wb_dat_o[15] 9.20289e-05
5 wb_dat_o[12] wb_dat_o[15] 9.50048e-05
*RES
1 *2475:X wb_dat_o[15] 5.92503 
*END

*D_NET *100 0.000569385
*CONN
*P wb_dat_o[16] O
*I *2476:X O *D sky130_fd_sc_hd__buf_2
*CAP
1 wb_dat_o[16] 0.000256092
2 *2476:X 0.000256092
3 wb_dat_o[16] wb_dat_o[18] 3.47107e-05
4 wb_dat_o[16] wb_dat_o[25] 2.24901e-05
5 wb_dat_o[16] wb_dat_o[30] 0
6 wb_dat_o[16] wb_dat_o[31] 0
*RES
1 *2476:X wb_dat_o[16] 6.9537 
*END

*D_NET *101 0.000960106
*CONN
*P wb_dat_o[17] O
*I *2477:X O *D sky130_fd_sc_hd__buf_2
*CAP
1 wb_dat_o[17] 0.000354678
2 *2477:X 0.000354678
3 wb_dat_o[17] wb_dat_o[19] 0.000198964
4 wb_dat_o[17] wb_dat_o[23] 0
5 wb_dat_o[17] wb_dat_o[31] 4.2283e-05
6 wb_dat_o[17] *2300:RESET_B 0
7 wb_dat_o[17] *2478:A 9.50342e-06
*RES
1 *2477:X wb_dat_o[17] 7.6881 
*END

*D_NET *102 0.000593229
*CONN
*P wb_dat_o[18] O
*I *2478:X O *D sky130_fd_sc_hd__buf_2
*CAP
1 wb_dat_o[18] 0.000267318
2 *2478:X 0.000267318
3 wb_dat_o[18] wb_dat_o[31] 2.38817e-05
4 wb_dat_o[16] wb_dat_o[18] 3.47107e-05
*RES
1 *2478:X wb_dat_o[18] 7.1793 
*END

*D_NET *103 0.00162853
*CONN
*P wb_dat_o[19] O
*I *2479:X O *D sky130_fd_sc_hd__buf_2
*CAP
1 wb_dat_o[19] 0.000596821
2 *2479:X 0.000596821
3 wb_dat_o[19] wb_dat_o[23] 0.000104673
4 wb_dat_o[19] *2478:A 5.30673e-05
5 wb_dat_o[19] *2493:A 7.81876e-05
6 wb_dat_o[17] wb_dat_o[19] 0.000198964
*RES
1 *2479:X wb_dat_o[19] 13.2433 
*END

*D_NET *104 0.000586817
*CONN
*P wb_dat_o[1] O
*I *2480:X O *D sky130_fd_sc_hd__buf_2
*CAP
1 wb_dat_o[1] 0.000266459
2 *2480:X 0.000266459
3 wb_dat_o[1] wb_dat_o[2] 2.24901e-05
4 wb_dat_o[1] *130:11 3.14094e-05
5 *59:19 wb_dat_o[1] 0
*RES
1 *2480:X wb_dat_o[1] 7.1793 
*END

*D_NET *105 0.000781261
*CONN
*P wb_dat_o[20] O
*I *2481:X O *D sky130_fd_sc_hd__buf_2
*CAP
1 wb_dat_o[20] 0.00026939
2 *2481:X 0.00026939
3 wb_dat_o[20] wb_dat_o[24] 0
4 wb_dat_o[20] wb_dat_o[28] 2.24901e-05
5 wb_dat_o[20] wb_dat_o[29] 0.000161
6 wb_dat_o[20] *2481:A 5.89925e-05
*RES
1 *2481:X wb_dat_o[20] 6.4385 
*END

*D_NET *106 0.000756851
*CONN
*P wb_dat_o[21] O
*I *2482:X O *D sky130_fd_sc_hd__buf_2
*CAP
1 wb_dat_o[21] 0.000296357
2 *2482:X 0.000296357
3 wb_dat_o[21] wb_dat_o[24] 6.35352e-05
4 wb_dat_o[21] wb_dat_o[30] 6.19406e-05
5 wb_dat_o[21] *2482:A 3.86607e-05
*RES
1 *2482:X wb_dat_o[21] 7.23523 
*END

*D_NET *107 0.00248763
*CONN
*P wb_dat_o[22] O
*I *2483:X O *D sky130_fd_sc_hd__buf_2
*CAP
1 wb_dat_o[22] 0.000839967
2 *2483:X 0.000839967
3 wb_dat_o[22] wb_dat_o[23] 0.000807693
*RES
1 *2483:X wb_dat_o[22] 14.2304 
*END

*D_NET *108 0.00268799
*CONN
*P wb_dat_o[23] O
*I *2484:X O *D sky130_fd_sc_hd__buf_2
*CAP
1 wb_dat_o[23] 0.000800203
2 *2484:X 0.000800203
3 wb_dat_o[23] *2300:CLK 1.03423e-05
4 wb_dat_o[23] *581:14 0.000164874
5 wb_dat_o[17] wb_dat_o[23] 0
6 wb_dat_o[19] wb_dat_o[23] 0.000104673
7 wb_dat_o[22] wb_dat_o[23] 0.000807693
*RES
1 *2484:X wb_dat_o[23] 13.5686 
*END

*D_NET *109 0.000595229
*CONN
*P wb_dat_o[24] O
*I *2485:X O *D sky130_fd_sc_hd__buf_2
*CAP
1 wb_dat_o[24] 0.00024735
2 *2485:X 0.00024735
3 wb_dat_o[24] wb_dat_o[29] 3.6993e-05
4 wb_dat_o[24] *2485:A 0
5 wb_dat_o[20] wb_dat_o[24] 0
6 wb_dat_o[21] wb_dat_o[24] 6.35352e-05
*RES
1 *2485:X wb_dat_o[24] 5.92503 
*END

*D_NET *110 0.000660097
*CONN
*P wb_dat_o[25] O
*I *2486:X O *D sky130_fd_sc_hd__buf_2
*CAP
1 wb_dat_o[25] 0.00030455
2 *2486:X 0.00030455
3 wb_dat_o[25] wb_dat_o[30] 2.85068e-05
4 wb_dat_o[16] wb_dat_o[25] 2.24901e-05
*RES
1 *2486:X wb_dat_o[25] 7.1793 
*END

*D_NET *111 0.000731036
*CONN
*P wb_dat_o[26] O
*I *2487:X O *D sky130_fd_sc_hd__buf_2
*CAP
1 wb_dat_o[26] 0.000338568
2 *2487:X 0.000338568
3 wb_dat_o[26] wb_dat_o[27] 2.24901e-05
4 *19:11 wb_dat_o[26] 3.14094e-05
*RES
1 *2487:X wb_dat_o[26] 7.5243 
*END

*D_NET *112 0.000604286
*CONN
*P wb_dat_o[27] O
*I *2488:X O *D sky130_fd_sc_hd__buf_2
*CAP
1 wb_dat_o[27] 0.000266661
2 *2488:X 0.000266661
3 wb_dat_o[27] wb_dat_o[28] 4.8475e-05
4 wb_dat_o[26] wb_dat_o[27] 2.24901e-05
*RES
1 *2488:X wb_dat_o[27] 7.1793 
*END

*D_NET *113 0.000597321
*CONN
*P wb_dat_o[28] O
*I *2489:X O *D sky130_fd_sc_hd__buf_2
*CAP
1 wb_dat_o[28] 0.000263178
2 *2489:X 0.000263178
3 wb_dat_o[20] wb_dat_o[28] 2.24901e-05
4 wb_dat_o[27] wb_dat_o[28] 4.8475e-05
*RES
1 *2489:X wb_dat_o[28] 7.1793 
*END

*D_NET *114 0.000922464
*CONN
*P wb_dat_o[29] O
*I *2490:X O *D sky130_fd_sc_hd__buf_2
*CAP
1 wb_dat_o[29] 0.000362236
2 *2490:X 0.000362236
3 wb_dat_o[29] *2481:A 0
4 wb_dat_o[20] wb_dat_o[29] 0.000161
5 wb_dat_o[24] wb_dat_o[29] 3.6993e-05
*RES
1 *2490:X wb_dat_o[29] 9.64043 
*END

*D_NET *115 0.000711758
*CONN
*P wb_dat_o[2] O
*I *2491:X O *D sky130_fd_sc_hd__buf_2
*CAP
1 wb_dat_o[2] 0.000258007
2 *2491:X 0.000258007
3 wb_dat_o[2] *2491:A 5.89925e-05
4 wb_dat_o[2] *130:11 0
5 wb_dat_o[1] wb_dat_o[2] 2.24901e-05
6 *86:13 wb_dat_o[2] 0.000114261
*RES
1 *2491:X wb_dat_o[2] 6.4385 
*END

*D_NET *116 0.000769389
*CONN
*P wb_dat_o[30] O
*I *2492:X O *D sky130_fd_sc_hd__buf_2
*CAP
1 wb_dat_o[30] 0.000334678
2 *2492:X 0.000334678
3 wb_dat_o[30] *2492:A 9.58678e-06
4 wb_dat_o[16] wb_dat_o[30] 0
5 wb_dat_o[21] wb_dat_o[30] 6.19406e-05
6 wb_dat_o[25] wb_dat_o[30] 2.85068e-05
*RES
1 *2492:X wb_dat_o[30] 5.19637 
*END

*D_NET *117 0.000695306
*CONN
*P wb_dat_o[31] O
*I *2493:X O *D sky130_fd_sc_hd__buf_2
*CAP
1 wb_dat_o[31] 0.000314571
2 *2493:X 0.000314571
3 wb_dat_o[16] wb_dat_o[31] 0
4 wb_dat_o[17] wb_dat_o[31] 4.2283e-05
5 wb_dat_o[18] wb_dat_o[31] 2.38817e-05
*RES
1 *2493:X wb_dat_o[31] 6.98377 
*END

*D_NET *118 0.000953467
*CONN
*P wb_dat_o[3] O
*I *2494:X O *D sky130_fd_sc_hd__buf_2
*CAP
1 wb_dat_o[3] 0.000476734
2 *2494:X 0.000476734
3 wb_dat_o[3] *126:9 0
4 *49:9 wb_dat_o[3] 0
*RES
1 *2494:X wb_dat_o[3] 12.06 
*END

*D_NET *119 0.000912233
*CONN
*P wb_dat_o[4] O
*I *2495:X O *D sky130_fd_sc_hd__buf_2
*CAP
1 wb_dat_o[4] 0.000456117
2 *2495:X 0.000456117
3 safe_led wb_dat_o[4] 0
*RES
1 *2495:X wb_dat_o[4] 11.715 
*END

*D_NET *120 0.000915461
*CONN
*P wb_dat_o[5] O
*I *2496:X O *D sky130_fd_sc_hd__buf_2
*CAP
1 wb_dat_o[5] 0.000457731
2 *2496:X 0.000457731
3 *49:9 wb_dat_o[5] 0
*RES
1 *2496:X wb_dat_o[5] 11.715 
*END

*D_NET *121 0.00104005
*CONN
*P wb_dat_o[6] O
*I *2497:X O *D sky130_fd_sc_hd__buf_2
*CAP
1 wb_dat_o[6] 0.000374571
2 *2497:X 0.000374571
3 wb_dat_o[6] wb_dat_o[7] 0.000170668
4 wb_dat_o[6] *2497:A 7.35813e-05
5 wb_dat_o[6] *2498:A 0
6 *14:13 wb_dat_o[6] 4.66616e-05
7 *59:19 wb_dat_o[6] 0
8 *59:21 wb_dat_o[6] 0
*RES
1 *2497:X wb_dat_o[6] 9.6987 
*END

*D_NET *122 0.000781624
*CONN
*P wb_dat_o[7] O
*I *2498:X O *D sky130_fd_sc_hd__buf_2
*CAP
1 wb_dat_o[7] 0.000264737
2 *2498:X 0.000264737
3 wb_dat_o[7] *2498:A 5.89925e-05
4 fsm_error wb_dat_o[7] 2.24901e-05
5 user_irq wb_dat_o[7] 0
6 wb_dat_o[6] wb_dat_o[7] 0.000170668
7 *14:13 wb_dat_o[7] 0
*RES
1 *2498:X wb_dat_o[7] 6.4385 
*END

*D_NET *123 0.0010343
*CONN
*P wb_dat_o[8] O
*I *2499:X O *D sky130_fd_sc_hd__buf_2
*CAP
1 wb_dat_o[8] 0.000500318
2 *2499:X 0.000500318
3 wb_dat_o[8] *2499:A 7.00889e-06
4 wb_dat_o[8] *622:121 2.66586e-05
5 safe_led wb_dat_o[8] 0
*RES
1 *2499:X wb_dat_o[8] 12.165 
*END

*D_NET *124 0.000950239
*CONN
*P wb_dat_o[9] O
*I *2500:X O *D sky130_fd_sc_hd__buf_2
*CAP
1 wb_dat_o[9] 0.00047512
2 *2500:X 0.00047512
*RES
1 *2500:X wb_dat_o[9] 12.06 
*END

*D_NET *125 0.00427606
*CONN
*P wb_rst_i I
*I *2448:A I *D sky130_fd_sc_hd__clkbuf_1
*I *737:DIODE I *D sky130_fd_sc_hd__diode_2
*CAP
1 wb_rst_i 0.000601308
2 *2448:A 7.95201e-05
3 *737:DIODE 0.000596304
4 *125:9 0.00127713
5 *737:DIODE *698:DIODE 0.00012657
6 *737:DIODE *1962:A_N 0
7 *737:DIODE *2028:C 0.000311223
8 *737:DIODE *2398:A 3.18219e-05
9 *737:DIODE *2465:A 4.99619e-05
10 *737:DIODE *2468:A 0
11 *737:DIODE *560:76 0.000461013
12 *737:DIODE *618:24 0
13 *125:9 *2468:A 0
14 group_suspended *125:9 0
15 wb_ack_o *125:9 0.000617977
16 *732:DIODE *737:DIODE 0.000123225
*RES
1 wb_rst_i *125:9 11.527 
2 *125:9 *737:DIODE 20.365 
3 *125:9 *2448:A 4.74 
*END

*D_NET *126 0.0013648
*CONN
*P wb_sel_i[0] I
*I *738:DIODE I *D sky130_fd_sc_hd__diode_2
*I *2449:A I *D sky130_fd_sc_hd__clkbuf_1
*CAP
1 wb_sel_i[0] 0.000475965
2 *738:DIODE 3.70332e-05
3 *2449:A 0
4 *126:9 0.000512998
5 *738:DIODE *2027:C 2.16833e-05
6 *738:DIODE *2494:A 8.49205e-05
7 *738:DIODE *619:64 0.000199833
8 *738:DIODE *622:121 3.23663e-05
9 wb_dat_o[3] *126:9 0
10 *52:9 *126:9 0
*RES
1 wb_sel_i[0] *126:9 10.28 
2 *126:9 *2449:A 1.6 
3 *126:9 *738:DIODE 3.43 
*END

*D_NET *130 0.000794587
*CONN
*P wb_stb_i I
*I *739:DIODE I *D sky130_fd_sc_hd__diode_2
*I *2450:A I *D sky130_fd_sc_hd__clkbuf_1
*CAP
1 wb_stb_i 0.000250674
2 *739:DIODE 6.81005e-05
3 *2450:A 0
4 *130:11 0.000318774
5 *739:DIODE *1934:A 4.99619e-05
6 *130:11 *324:16 0
7 wb_dat_o[1] *130:11 3.14094e-05
8 wb_dat_o[2] *130:11 0
9 *21:11 *130:11 0
10 *60:9 *130:11 7.56675e-05
*RES
1 wb_stb_i *130:11 4.77677 
2 *130:11 *2450:A 1.6 
3 *130:11 *739:DIODE 2.74 
*END

*D_NET *131 0.00234747
*CONN
*P wb_we_i I
*I *740:DIODE I *D sky130_fd_sc_hd__diode_2
*I *2451:A I *D sky130_fd_sc_hd__clkbuf_1
*CAP
1 wb_we_i 0.000585811
2 *740:DIODE 0.000101976
3 *2451:A 2.08101e-05
4 *131:11 0.000708597
5 *740:DIODE *2402:A 0.0001249
6 *740:DIODE *2462:A 0.000202047
7 *740:DIODE *619:6 8.65905e-05
8 *740:DIODE *619:19 0.000239813
9 *740:DIODE *622:8 3.96737e-05
10 *2451:A *2468:A 0
11 *131:11 *2399:A 0
12 *131:11 *2462:A 0.00011964
13 *131:11 *2465:A 1.71013e-05
14 *131:11 *553:10 5.05437e-05
15 security_breach *131:11 0
16 wb_ack_o *131:11 4.99619e-05
*RES
1 wb_we_i *131:11 13.055 
2 *131:11 *2451:A 1.96 
3 *131:11 *740:DIODE 5.845 
*END

*D_NET *132 0.000422292
*CONN
*I *2302:D I *D sky130_fd_sc_hd__dfrtp_1
*I *2029:X O *D sky130_fd_sc_hd__and2_1
*CAP
1 *2302:D 0.000129413
2 *2029:X 0.000129413
3 *2302:D *2302:CLK 3.94592e-05
4 *2302:D *617:20 0.000124007
*RES
1 *2029:X *2302:D 5.72 
*END

*D_NET *133 0.000707617
*CONN
*I *2303:D I *D sky130_fd_sc_hd__dfrtp_1
*I *2030:X O *D sky130_fd_sc_hd__and2_1
*CAP
1 *2303:D 0.000230782
2 *2030:X 0.000230782
3 *2303:D *1962:C 9.50342e-06
4 *2303:D *2301:CLK 0
5 *2303:D *137:12 0.000117053
6 *2303:D *324:16 4.84393e-05
7 *2303:D *471:63 7.10578e-05
*RES
1 *2030:X *2303:D 11.535 
*END

*D_NET *134 0.000379292
*CONN
*I *2304:D I *D sky130_fd_sc_hd__dfrtp_1
*I *2031:X O *D sky130_fd_sc_hd__and2_1
*CAP
1 *2304:D 0.000123407
2 *2031:X 0.000123407
3 *2304:D *2467:A 8.49205e-05
4 *2304:D *273:22 4.75576e-05
5 *2304:D *622:14 0
*RES
1 *2031:X *2304:D 9.12 
*END

*D_NET *135 0.000401064
*CONN
*I *2305:D I *D sky130_fd_sc_hd__dfrtp_1
*I *2032:X O *D sky130_fd_sc_hd__and2_1
*CAP
1 *2305:D 0.00014857
2 *2032:X 0.00014857
3 *2305:D *2306:CLK 6.69341e-05
4 *2305:D *2461:A 3.69909e-05
*RES
1 *2032:X *2305:D 5.72 
*END

*D_NET *136 0.000412262
*CONN
*I *2306:D I *D sky130_fd_sc_hd__dfrtp_1
*I *2033:X O *D sky130_fd_sc_hd__and2_1
*CAP
1 *2306:D 0.000127544
2 *2033:X 0.000127544
3 *2306:D *2033:A 3.86529e-05
4 *2306:D *324:22 0.00011852
*RES
1 *2033:X *2306:D 9.375 
*END

*D_NET *137 0.0021858
*CONN
*I *2301:D I *D sky130_fd_sc_hd__dfrtp_1
*I *1963:B I *D sky130_fd_sc_hd__and2b_1
*I *2028:B I *D sky130_fd_sc_hd__and3_1
*I *1962:X O *D sky130_fd_sc_hd__and3b_1
*CAP
1 *2301:D 0.000107521
2 *1963:B 8.38714e-05
3 *2028:B 0
4 *1962:X 0.000193557
5 *137:21 0.000395634
6 *137:12 0.000397799
7 *1963:B *291:6 2.61299e-05
8 *1963:B *291:17 4.05674e-06
9 *1963:B *622:14 9.14049e-05
10 *2301:D *2398:A 0.000133164
11 *2301:D *622:14 0.000191525
12 *137:12 *1963:A_N 6.10014e-05
13 *137:12 *2301:CLK 5.21458e-05
14 *137:12 *324:10 0
15 *137:12 *324:16 0
16 *137:21 *560:76 0.000156619
17 *726:DIODE *1963:B 0.000159103
18 *726:DIODE *2301:D 1.52184e-05
19 *2303:D *137:12 0.000117053
*RES
1 *1962:X *137:12 9.305 
2 *137:12 *2028:B 1.6 
3 *137:12 *137:21 4.52 
4 *137:21 *1963:B 5.865 
5 *137:21 *2301:D 6 
*END

*D_NET *138 0.00307139
*CONN
*I *2269:D I *D sky130_fd_sc_hd__dfrtp_1
*I *1970:X O *D sky130_fd_sc_hd__o21a_1
*CAP
1 *2269:D 0.00107308
2 *1970:X 0.00107308
3 *2269:D *697:DIODE 0.000121536
4 *2269:D *1970:B1 1.83847e-05
5 *2269:D *1981:A1 4.37226e-05
6 *2269:D *2267:A 2.49909e-05
7 *2269:D *2269:CLK 4.6368e-06
8 *2269:D *470:18 1.05631e-05
9 *2269:D *470:22 4.67481e-05
10 *2269:D *618:66 0.00015518
11 *2269:D *618:122 0.000499457
*RES
1 *1970:X *2269:D 22.23 
*END

*D_NET *139 0.000380677
*CONN
*I *2279:D I *D sky130_fd_sc_hd__dfrtp_1
*I *2004:X O *D sky130_fd_sc_hd__and2_1
*CAP
1 *2279:D 0.000163944
2 *2004:X 0.000163944
3 *2279:D *2279:CLK 2.66586e-05
4 *2279:D *472:114 2.61299e-05
*RES
1 *2004:X *2279:D 5.72 
*END

*D_NET *140 0.000340327
*CONN
*I *2280:D I *D sky130_fd_sc_hd__dfrtp_1
*I *2006:X O *D sky130_fd_sc_hd__and2_1
*CAP
1 *2280:D 9.95018e-05
2 *2006:X 9.95018e-05
3 *2280:D *2089:B 0.000141323
*RES
1 *2006:X *2280:D 5.375 
*END

*D_NET *141 0.00191401
*CONN
*I *2281:D I *D sky130_fd_sc_hd__dfrtp_1
*I *2007:X O *D sky130_fd_sc_hd__o221a_1
*CAP
1 *2281:D 0.000442727
2 *2007:X 0.000442727
3 *2281:D *2008:A1 4.99619e-05
4 *2281:D *2071:A 0.000469632
5 *2281:D *2079:A1 8.82557e-05
6 *2281:D *2079:A4 4.99619e-05
7 *2281:D *2080:A3 3.75943e-05
8 *2281:D *2281:CLK 7.60965e-05
9 *2281:D *2282:D 0.000208767
10 *2281:D *357:10 4.82863e-05
*RES
1 *2007:X *2281:D 13.34 
*END

*D_NET *142 0.00440247
*CONN
*I *2282:D I *D sky130_fd_sc_hd__dfrtp_1
*I *2008:X O *D sky130_fd_sc_hd__o221a_1
*CAP
1 *2282:D 0.00152023
2 *2008:X 0.00152023
3 *2282:D *2008:A1 0.000387891
4 *2282:D *2071:A 0.00019639
5 *2282:D *2281:CLK 0.000361361
6 *2282:D *2281:RESET_B 5.33172e-05
7 *2282:D *620:100 7.89689e-05
8 *2282:D *620:122 7.53115e-05
9 *2281:D *2282:D 0.000208767
*RES
1 *2008:X *2282:D 28.755 
*END

*D_NET *143 0.000397231
*CONN
*I *2283:D I *D sky130_fd_sc_hd__dfrtp_1
*I *2009:X O *D sky130_fd_sc_hd__and3_1
*CAP
1 *2283:D 0.000156035
2 *2009:X 0.000156035
3 *2283:D *663:DIODE 4.82919e-05
4 *2283:D *2283:CLK 3.68682e-05
5 *2283:D *2283:RESET_B 0
*RES
1 *2009:X *2283:D 9.465 
*END

*D_NET *144 0.000716808
*CONN
*I *2284:D I *D sky130_fd_sc_hd__dfrtp_1
*I *2010:X O *D sky130_fd_sc_hd__and3_1
*CAP
1 *2284:D 0.000200001
2 *2010:X 0.000200001
3 *2284:D *2283:CLK 0
4 *2284:D *473:119 0.000201503
5 *2284:D *480:10 5.05521e-05
6 *2284:D *609:53 6.47516e-05
*RES
1 *2010:X *2284:D 11.445 
*END

*D_NET *145 0.00067047
*CONN
*I *2285:D I *D sky130_fd_sc_hd__dfrtp_1
*I *2011:X O *D sky130_fd_sc_hd__and3_1
*CAP
1 *2285:D 0.000119812
2 *2011:X 0.000119812
3 *2285:D *2012:A 0.000117825
4 *2285:D *2013:B 4.60584e-05
5 *2285:D *2103:B 9.50342e-06
6 *2285:D *2144:A 3.99039e-05
7 *2285:D *606:31 0.000111909
8 *2285:D *610:34 0.000105645
*RES
1 *2011:X *2285:D 11.1 
*END

*D_NET *146 0.00258616
*CONN
*I *2286:D I *D sky130_fd_sc_hd__dfrtp_1
*I *2012:X O *D sky130_fd_sc_hd__and3_1
*CAP
1 *2286:D 0.000218843
2 *2012:X 0.000218843
3 *2286:D *2026:A 9.99916e-05
4 *2286:D *2144:A 0.000600143
5 *2286:D *2144:B 8.69583e-05
6 *2286:D *2243:A 8.64421e-05
7 *2286:D *2286:RESET_B 8.78982e-05
8 *2286:D *2478:A 0.00106047
9 *2286:D *576:24 0.00012657
*RES
1 *2012:X *2286:D 15.155 
*END

*D_NET *147 0.000564211
*CONN
*I *2287:D I *D sky130_fd_sc_hd__dfrtp_1
*I *2013:X O *D sky130_fd_sc_hd__and3_1
*CAP
1 *2287:D 0.000205337
2 *2013:X 0.000205337
3 *2287:D *2013:A 0.000119631
4 *2287:D *2287:CLK 3.39064e-05
*RES
1 *2013:X *2287:D 10.155 
*END

*D_NET *148 0.00079488
*CONN
*I *2288:D I *D sky130_fd_sc_hd__dfrtp_1
*I *2014:X O *D sky130_fd_sc_hd__and3_1
*CAP
1 *2288:D 0.000377143
2 *2014:X 0.000377143
3 *2288:D *2288:CLK 4.00541e-06
4 *2288:D *468:33 9.72742e-06
5 *2288:D *557:10 0
6 *2288:D *581:14 2.68622e-05
*RES
1 *2014:X *2288:D 11.64 
*END

*D_NET *149 0.00321413
*CONN
*I *2270:D I *D sky130_fd_sc_hd__dfrtp_1
*I *1973:X O *D sky130_fd_sc_hd__o21a_1
*CAP
1 *2270:D 0.00091854
2 *1973:X 0.00091854
3 *2270:D *1954:B1_N 0
4 *2270:D *2184:B1 5.83121e-06
5 *2270:D *2186:A1 0.0004262
6 *2270:D *2270:CLK 0.00024195
7 *2270:D *2270:RESET_B 0.000241483
8 *2270:D *2345:CLK 4.66108e-05
9 *2270:D *2345:D 0.000235575
10 *2270:D *291:63 4.41871e-05
11 *2270:D *560:76 0.00013521
*RES
1 *1973:X *2270:D 23.31 
*END

*D_NET *150 0.00612619
*CONN
*I *2289:D I *D sky130_fd_sc_hd__dfrtp_1
*I *2015:X O *D sky130_fd_sc_hd__and3_1
*CAP
1 *2289:D 0.00193583
2 *2015:X 0.00193583
3 *2289:D *2021:C 0.000125691
4 *2289:D *2022:A 3.09179e-05
5 *2289:D *2022:B 0.000122325
6 *2289:D *2023:A 0.00018294
7 *2289:D *2040:B 0
8 *2289:D *2059:A2 2.88519e-05
9 *2289:D *2406:A 0.000311282
10 *2289:D *2418:A 0.000237238
11 *2289:D *328:10 0
12 *2289:D *337:8 0
13 *2289:D *500:70 9.37731e-05
14 *2289:D *501:31 0.00103226
15 *2289:D *610:95 8.92483e-05
*RES
1 *2015:X *2289:D 44.055 
*END

*D_NET *151 0.00731289
*CONN
*I *2290:D I *D sky130_fd_sc_hd__dfrtp_1
*I *2016:X O *D sky130_fd_sc_hd__and3_1
*CAP
1 *2290:D 0.00077807
2 *2016:X 0.00077807
3 *2290:D *2039:A 7.57202e-05
4 *2290:D *2048:A1 0
5 *2290:D *2140:B 0.000237243
6 *2290:D *2290:CLK 0.000687806
7 *2290:D *329:20 0.000476281
8 *2290:D *408:12 8.52883e-05
9 *2290:D *408:21 0.000456673
10 *2290:D *410:14 1.46828e-05
11 *2290:D *466:44 0.000227816
12 *2290:D *466:46 4.30228e-05
13 *2290:D *504:36 4.66108e-05
14 *2290:D *610:18 0.00015711
15 *2290:D *610:22 0.000811811
16 *2290:D *611:26 0.00243669
*RES
1 *2016:X *2290:D 36.095 
*END

*D_NET *152 0.00110663
*CONN
*I *2291:D I *D sky130_fd_sc_hd__dfrtp_1
*I *2017:X O *D sky130_fd_sc_hd__and3_1
*CAP
1 *2291:D 0.000237247
2 *2017:X 0.000237247
3 *2291:D *2017:A 0
4 *2291:D *2018:A 0
5 *2291:D *2018:B 0.000378802
6 *2291:D *2018:C 0.000136671
7 *2291:D *2292:D 0
8 *2291:D *607:70 8.8266e-05
9 *2291:D *611:83 2.83972e-05
*RES
1 *2017:X *2291:D 13.59 
*END

*D_NET *153 0.000241953
*CONN
*I *2292:D I *D sky130_fd_sc_hd__dfrtp_1
*I *2018:X O *D sky130_fd_sc_hd__and3_1
*CAP
1 *2292:D 0.000120976
2 *2018:X 0.000120976
3 *2291:D *2292:D 0
*RES
1 *2018:X *2292:D 8.775 
*END

*D_NET *154 0.00583938
*CONN
*I *2293:D I *D sky130_fd_sc_hd__dfrtp_1
*I *2019:X O *D sky130_fd_sc_hd__and3_1
*CAP
1 *2293:D 0.00199202
2 *2019:X 0.00199202
3 *2293:D *2039:C 8.49205e-05
4 *2293:D *2039:D 0.000399111
5 *2293:D *2130:B 4.99619e-05
6 *2293:D *2134:B 0.000117649
7 *2293:D *2137:B 2.96467e-05
8 *2293:D *2250:A 3.5292e-05
9 *2293:D *2293:CLK 0.000251332
10 *2293:D *2327:CLK 6.54766e-05
11 *2293:D *2327:D 9.61635e-05
12 *2293:D *2330:D 1.70636e-05
13 *2293:D *2392:A 3.07153e-05
14 *2293:D *406:10 6.36594e-05
15 *2293:D *466:128 1.34503e-05
16 *2293:D *500:16 0.000274602
17 *2293:D *502:12 0.000272978
18 *2293:D *613:57 5.33172e-05
*RES
1 *2019:X *2293:D 32.4575 
*END

*D_NET *155 0.00183908
*CONN
*I *2294:D I *D sky130_fd_sc_hd__dfrtp_1
*I *2020:X O *D sky130_fd_sc_hd__and3_1
*CAP
1 *2294:D 0.000600488
2 *2020:X 0.000600488
3 *2294:D *2020:A 8.65961e-05
4 *2294:D *2038:C1 1.60203e-05
5 *2294:D *2047:D 0.000347023
6 *2294:D *2294:RESET_B 0
7 *2294:D *2463:A 0
8 *2294:D *465:135 0
9 *2294:D *468:10 9.23971e-05
10 *2294:D *468:12 9.16315e-05
11 *2294:D *509:36 4.43871e-06
12 *2294:D *621:52 0
13 *2294:D *621:54 0
14 *2294:D *621:56 0
15 *2294:D *621:64 0
*RES
1 *2020:X *2294:D 17.16 
*END

*D_NET *156 0.00229155
*CONN
*I *2295:D I *D sky130_fd_sc_hd__dfrtp_1
*I *2021:X O *D sky130_fd_sc_hd__and3_1
*CAP
1 *2295:D 0.000957471
2 *2021:X 0.000957471
3 *2295:D *2226:A2 0.000177297
4 *2295:D *2226:B1 0.000199309
5 *2295:D *465:33 0
*RES
1 *2021:X *2295:D 21.54 
*END

*D_NET *157 0.0005525
*CONN
*I *2296:D I *D sky130_fd_sc_hd__dfrtp_1
*I *2022:X O *D sky130_fd_sc_hd__and3_1
*CAP
1 *2296:D 0.000125802
2 *2022:X 0.000125802
3 *2296:D *2296:CLK 6.97202e-05
4 *2296:D *465:33 3.39064e-05
5 *2296:D *617:54 0.000197269
6 *2296:D *622:32 0
*RES
1 *2022:X *2296:D 10.155 
*END

*D_NET *158 0.000318688
*CONN
*I *2297:D I *D sky130_fd_sc_hd__dfrtp_1
*I *2023:X O *D sky130_fd_sc_hd__and3_1
*CAP
1 *2297:D 8.93471e-05
2 *2023:X 8.93471e-05
3 *2297:D *2253:A 5.83121e-06
4 *2297:D *467:36 1.56428e-05
5 *2297:D *617:33 4.44927e-05
6 *2297:D *617:37 7.4027e-05
*RES
1 *2023:X *2297:D 9.03 
*END

*D_NET *159 0.000677681
*CONN
*I *2298:D I *D sky130_fd_sc_hd__dfrtp_1
*I *2024:X O *D sky130_fd_sc_hd__and3_1
*CAP
1 *2298:D 0.00033884
2 *2024:X 0.00033884
3 *2298:D *2298:RESET_B 0
*RES
1 *2024:X *2298:D 11.19 
*END

*D_NET *160 0.00447367
*CONN
*I *2271:D I *D sky130_fd_sc_hd__dfrtp_1
*I *1976:X O *D sky130_fd_sc_hd__o21a_1
*CAP
1 *2271:D 0.0014716
2 *1976:X 0.0014716
3 *2271:D *1974:A 6.61995e-05
4 *2271:D *2228:A 3.64998e-06
5 *2271:D *2428:A 4.24744e-05
6 *2271:D *470:6 0.000694329
7 *2271:D *470:10 0.000419675
8 *2271:D *470:115 4.91189e-05
9 *2271:D *618:30 0.000189485
10 *2271:D *622:14 6.55328e-05
*RES
1 *1976:X *2271:D 27.315 
*END

*D_NET *161 0.00120008
*CONN
*I *2299:D I *D sky130_fd_sc_hd__dfrtp_1
*I *2025:X O *D sky130_fd_sc_hd__and3_1
*CAP
1 *2299:D 0.000454808
2 *2025:X 0.000454808
3 *2299:D *2025:B 4.86604e-05
4 *2299:D *2486:A 0.000194775
5 *2299:D *616:45 4.70256e-05
*RES
1 *2025:X *2299:D 13.515 
*END

*D_NET *162 0.00139498
*CONN
*I *2300:D I *D sky130_fd_sc_hd__dfrtp_1
*I *2026:X O *D sky130_fd_sc_hd__and3_1
*CAP
1 *2300:D 0.000554832
2 *2026:X 0.000554832
3 *2300:D *2026:C 4.82863e-05
4 *2300:D *2243:A 2.66935e-05
5 *2300:D *2257:A 7.10578e-05
6 *2300:D *2300:RESET_B 0
7 *2300:D *2479:A 0.000139275
*RES
1 *2026:X *2300:D 15.21 
*END

*D_NET *163 0.00449911
*CONN
*I *2272:D I *D sky130_fd_sc_hd__dfrtp_1
*I *1979:X O *D sky130_fd_sc_hd__o21a_1
*CAP
1 *2272:D 0.000880892
2 *1979:X 0.000880892
3 *2272:D *1964:B 0
4 *2272:D *1966:A 0.000127424
5 *2272:D *1966:B 0.00012657
6 *2272:D *1971:C 0
7 *2272:D *1973:A2 0.000740486
8 *2272:D *2028:C 4.66108e-05
9 *2272:D *2181:A2 0.000142708
10 *2272:D *2181:B1 0.000135413
11 *2272:D *2189:A2 0.00011379
12 *2272:D *2194:A1 1.98675e-05
13 *2272:D *2346:D 4.76581e-05
14 *2272:D *2389:A 0
15 *2272:D *291:99 0
16 *2272:D *432:12 4.13443e-05
17 *2272:D *479:40 0.000158297
18 *2272:D *603:83 0.000142863
19 *2272:D *603:96 9.6761e-05
20 *2272:D *604:67 0.00045293
21 *2272:D *604:78 0.000219699
22 *2272:D *608:65 0.0001249
23 *2272:D *614:50 0
24 *2272:D *614:79 0
*RES
1 *1979:X *2272:D 31.635 
*END

*D_NET *164 0.00372753
*CONN
*I *2273:D I *D sky130_fd_sc_hd__dfrtp_1
*I *1982:X O *D sky130_fd_sc_hd__o211a_1
*CAP
1 *2273:D 0.00152426
2 *1982:X 0.00152426
3 *2273:D *1993:A1 0
4 *2273:D *1993:B1 0
5 *2273:D *1993:C1 5.13029e-05
6 *2273:D *1999:A1 0
7 *2273:D *2202:A2 0.000296081
8 *2273:D *2205:A1 6.10352e-05
9 *2273:D *2205:A2 0.000113423
10 *2273:D *2350:CLK 0
11 *2273:D *2350:D 0
12 *2273:D *2351:D 7.37195e-05
13 *2273:D *280:51 0
14 *2273:D *471:123 0
15 *2273:D *471:125 0
16 *2273:D *493:23 0
17 *2273:D *493:25 0
18 *2273:D *493:33 0
19 *2273:D *494:20 0
20 *2273:D *560:20 0
21 *2273:D *560:100 0
22 *2273:D *604:12 8.34505e-05
23 *2273:D *620:18 0
*RES
1 *1982:X *2273:D 33.045 
*END

*D_NET *165 0.00340003
*CONN
*I *2274:D I *D sky130_fd_sc_hd__dfrtp_1
*I *1985:X O *D sky130_fd_sc_hd__o21a_1
*CAP
1 *2274:D 0.000468371
2 *1985:X 0.000468371
3 *2274:D *2195:A 0.000116165
4 *2274:D *541:12 0.00079546
5 *2274:D *542:12 0.00111398
6 *2274:D *542:14 7.23602e-05
7 *2274:D *542:16 0.00036532
*RES
1 *1985:X *2274:D 24.9 
*END

*D_NET *166 0.00408994
*CONN
*I *2275:D I *D sky130_fd_sc_hd__dfrtp_1
*I *1988:X O *D sky130_fd_sc_hd__o21a_1
*CAP
1 *2275:D 0.00169441
2 *1988:X 0.00169441
3 *2275:D *2275:RESET_B 7.73272e-05
4 *2275:D *2313:D 5.62464e-06
5 *2275:D *2396:A 7.55313e-05
6 *2275:D *616:12 0.000128039
7 *2275:D *635:40 0.000414601
*RES
1 *1988:X *2275:D 28.365 
*END

*D_NET *167 0.00368085
*CONN
*I *2276:D I *D sky130_fd_sc_hd__dfrtp_1
*I *1991:X O *D sky130_fd_sc_hd__o21a_1
*CAP
1 *2276:D 0.00147747
2 *1991:X 0.00147747
3 *2276:D *1953:A2 4.05897e-05
4 *2276:D *1991:B1 4.47209e-05
5 *2276:D *2265:A 0.000253484
6 *2276:D *2312:RESET_B 1.7386e-05
7 *2276:D *2313:CLK 0.000161837
8 *2276:D *608:71 0.000207887
*RES
1 *1991:X *2276:D 23.7125 
*END

*D_NET *168 0.00307438
*CONN
*I *2277:D I *D sky130_fd_sc_hd__dfrtp_1
*I *1994:X O *D sky130_fd_sc_hd__o21a_1
*CAP
1 *2277:D 0.000932388
2 *1994:X 0.000932388
3 *2277:D *1980:A 0.000103067
4 *2277:D *1990:B2 9.24049e-05
5 *2277:D *1995:A 9.50342e-06
6 *2277:D *2193:B 7.18817e-05
7 *2277:D *2194:A2 0
8 *2277:D *2197:A 9.86611e-05
9 *2277:D *2201:B 0.000175782
10 *2277:D *2203:A2 0.000200063
11 *2277:D *2277:RESET_B 0
12 *2277:D *2496:A 5.02217e-05
13 *2277:D *448:8 3.68862e-05
14 *2277:D *465:81 0
15 *2277:D *471:115 6.97118e-05
16 *2277:D *490:10 4.28396e-05
17 *2277:D *490:14 2.09942e-05
18 *2277:D *490:55 4.1977e-05
19 *2277:D *492:8 5.21046e-05
20 *2277:D *492:45 0.000143501
21 *2277:D *603:39 0
*RES
1 *1994:X *2277:D 27.825 
*END

*D_NET *169 0.00432411
*CONN
*I *2278:D I *D sky130_fd_sc_hd__dfrtp_1
*I *2000:X O *D sky130_fd_sc_hd__o211a_1
*CAP
1 *2278:D 0.000570994
2 *2000:X 0.000570994
3 *2278:D *1995:A 0.000198939
4 *2278:D *2190:B 0
5 *2278:D *2191:A2 4.5783e-05
6 *2278:D *2278:CLK 4.7043e-05
7 *2278:D *280:85 0.000200615
8 *2278:D *430:10 2.97291e-05
9 *2278:D *473:44 0.000146288
10 *2278:D *489:14 0
11 *2278:D *490:55 0.000604756
12 *2278:D *490:65 0.000384392
13 *2278:D *621:36 0.00152457
*RES
1 *2000:X *2278:D 28.77 
*END

*D_NET *170 0.0148842
*CONN
*I *714:DIODE I *D sky130_fd_sc_hd__diode_2
*I *2153:C1 I *D sky130_fd_sc_hd__o211a_1
*I *678:DIODE I *D sky130_fd_sc_hd__diode_2
*I *2219:B1 I *D sky130_fd_sc_hd__o21a_1
*I *680:DIODE I *D sky130_fd_sc_hd__diode_2
*I *2395:A I *D sky130_fd_sc_hd__clkbuf_4
*I *654:DIODE I *D sky130_fd_sc_hd__diode_2
*I *1937:Y O *D sky130_fd_sc_hd__inv_2
*CAP
1 *714:DIODE 0
2 *2153:C1 4.01006e-05
3 *678:DIODE 0
4 *2219:B1 0.000166587
5 *680:DIODE 0
6 *2395:A 4.05133e-05
7 *654:DIODE 2.30016e-05
8 *1937:Y 2.09808e-05
9 *170:70 0.00075979
10 *170:48 0.000974772
11 *170:42 0.00411474
12 *170:32 0.00266263
13 *170:21 0.000486299
14 *170:6 0.000413999
15 *654:DIODE *1937:A 4.99619e-05
16 *654:DIODE *2226:A2 8.65905e-05
17 *2153:C1 *2153:A2 0
18 *2153:C1 *379:10 4.49657e-05
19 *2219:B1 *2219:A2 8.40269e-05
20 *2219:B1 *554:59 4.60584e-05
21 *2395:A *1955:A2 0.000198934
22 *2395:A *2264:A 0.000115762
23 *170:21 *2226:A2 1.08758e-05
24 *170:21 *2264:A 0
25 *170:21 *2376:A 9.10368e-05
26 *170:21 *465:18 0.000136877
27 *170:21 *465:20 5.16418e-05
28 *170:21 *467:6 2.01565e-05
29 *170:21 *467:148 0.000840408
30 *170:21 *622:30 0.000713926
31 *170:21 *622:32 0
32 *170:32 *1955:A2 4.82919e-05
33 *170:32 *2264:A 6.77501e-05
34 *170:42 *1955:A2 1.17036e-05
35 *170:42 *2264:A 1.88602e-05
36 *170:42 *2307:D 0.000100733
37 *170:42 *289:27 0
38 *170:42 *465:16 0.00100501
39 *170:48 *1938:A 7.73272e-05
40 *170:48 *2093:A2 0.00020655
41 *170:48 *2093:B1 4.85494e-05
42 *170:48 *2166:B 0
43 *170:48 *276:12 0.000371664
44 *170:48 *469:76 0
45 *170:48 *621:158 1.7635e-05
46 *170:70 *2166:B 0
47 *170:70 *2167:B1 2.3528e-05
48 *170:70 *2168:A2 1.97442e-05
49 *170:70 *276:12 0.000117599
50 *170:70 *285:12 8.53244e-05
51 *170:70 *286:12 0
52 *170:70 *286:46 6.02609e-05
53 *170:70 *335:16 7.69494e-05
54 *170:70 *379:10 1.56428e-06
55 *170:70 *465:171 0
56 *170:70 *621:158 5.8678e-05
57 *170:70 *648:40 0
58 *170:70 *649:45 0
59 *170:70 *650:10 0.000155952
60 *170:70 *650:42 0.000115888
*RES
1 *1937:Y *170:6 1.96 
2 *170:6 *654:DIODE 2.395 
3 *170:6 *170:21 16.945 
4 *170:21 *2395:A 3.43 
5 *170:21 *170:32 1.755 
6 *170:32 *170:42 8.6893 
7 *170:42 *170:48 16.4075 
8 *170:48 *680:DIODE 1.6 
9 *170:48 *2219:B1 4.66 
10 *170:42 *170:70 15.4325 
11 *170:70 *678:DIODE 1.6 
12 *170:70 *2153:C1 2.62 
13 *170:32 *714:DIODE 1.6 
*END

*D_NET *171 0.000847766
*CONN
*I *2270:RESET_B I *D sky130_fd_sc_hd__dfrtp_1
*I *2227:Y O *D sky130_fd_sc_hd__inv_2
*CAP
1 *2270:RESET_B 0.000303142
2 *2227:Y 0.000303142
3 *2270:D *2270:RESET_B 0.000241483
*RES
1 *2227:Y *2270:RESET_B 5.9125 
*END

*D_NET *172 0.00040072
*CONN
*I *2271:RESET_B I *D sky130_fd_sc_hd__dfrtp_1
*I *2228:Y O *D sky130_fd_sc_hd__inv_2
*CAP
1 *2271:RESET_B 3.40143e-05
2 *2228:Y 3.40143e-05
3 *2271:RESET_B *273:22 0.000166346
4 *2271:RESET_B *324:16 0.000166346
*RES
1 *2228:Y *2271:RESET_B 7.49 
*END

*D_NET *173 0.000316824
*CONN
*I *2272:RESET_B I *D sky130_fd_sc_hd__dfrtp_1
*I *2229:Y O *D sky130_fd_sc_hd__inv_2
*CAP
1 *2272:RESET_B 7.52392e-05
2 *2229:Y 7.52392e-05
3 *2272:RESET_B *2181:B1 0
4 *2272:RESET_B *2462:A 0.000166346
*RES
1 *2229:Y *2272:RESET_B 7.49 
*END

*D_NET *174 0.000439052
*CONN
*I *2273:RESET_B I *D sky130_fd_sc_hd__dfrtp_1
*I *2230:Y O *D sky130_fd_sc_hd__inv_2
*CAP
1 *2273:RESET_B 0.000119609
2 *2230:Y 0.000119609
3 *2273:RESET_B *620:188 0.000199833
*RES
1 *2230:Y *2273:RESET_B 3.7225 
*END

*D_NET *175 0.000254688
*CONN
*I *2274:RESET_B I *D sky130_fd_sc_hd__dfrtp_1
*I *2231:Y O *D sky130_fd_sc_hd__inv_2
*CAP
1 *2274:RESET_B 9.00753e-05
2 *2231:Y 9.00753e-05
3 *2274:RESET_B *2231:A 5.83121e-06
4 *2274:RESET_B *2234:A 5.39718e-05
5 *2274:RESET_B *2496:A 0
6 *2274:RESET_B *471:108 1.47347e-05
*RES
1 *2231:Y *2274:RESET_B 7.175 
*END

*D_NET *176 0.000721844
*CONN
*I *2275:RESET_B I *D sky130_fd_sc_hd__dfrtp_1
*I *2232:Y O *D sky130_fd_sc_hd__inv_2
*CAP
1 *2275:RESET_B 0.000121266
2 *2232:Y 0.000121266
3 *2275:RESET_B *2396:A 4.49328e-05
4 *2275:RESET_B *616:12 0.000162325
5 *2275:RESET_B *617:20 4.18603e-06
6 *2275:D *2275:RESET_B 7.73272e-05
7 *59:21 *2275:RESET_B 0.000190541
*RES
1 *2232:Y *2275:RESET_B 9.2675 
*END

*D_NET *177 0.000157282
*CONN
*I *2276:RESET_B I *D sky130_fd_sc_hd__dfrtp_1
*I *2233:Y O *D sky130_fd_sc_hd__inv_2
*CAP
1 *2276:RESET_B 5.16549e-05
2 *2233:Y 5.16549e-05
3 *2276:RESET_B *2029:B 5.39718e-05
4 *2276:RESET_B *622:14 0
*RES
1 *2233:Y *2276:RESET_B 6.725 
*END

*D_NET *178 0.000261946
*CONN
*I *2277:RESET_B I *D sky130_fd_sc_hd__dfrtp_1
*I *2234:Y O *D sky130_fd_sc_hd__inv_2
*CAP
1 *2277:RESET_B 0.00012851
2 *2234:Y 0.00012851
3 *2277:RESET_B *2234:A 4.9253e-06
4 *2277:RESET_B *471:123 0
5 *2277:D *2277:RESET_B 0
*RES
1 *2234:Y *2277:RESET_B 7.43 
*END

*D_NET *179 0.00030205
*CONN
*I *2278:RESET_B I *D sky130_fd_sc_hd__dfrtp_1
*I *2235:Y O *D sky130_fd_sc_hd__inv_2
*CAP
1 *2278:RESET_B 9.16998e-05
2 *2235:Y 9.16998e-05
3 *2278:RESET_B *620:199 0.000118651
*RES
1 *2235:Y *2278:RESET_B 3.3775 
*END

*D_NET *180 0.000157282
*CONN
*I *2279:RESET_B I *D sky130_fd_sc_hd__dfrtp_1
*I *2236:Y O *D sky130_fd_sc_hd__inv_2
*CAP
1 *2279:RESET_B 5.16549e-05
2 *2236:Y 5.16549e-05
3 *2279:RESET_B *2466:A 5.39718e-05
4 debug_enable *2279:RESET_B 0
*RES
1 *2236:Y *2279:RESET_B 6.725 
*END

*D_NET *181 0.000157282
*CONN
*I *2280:RESET_B I *D sky130_fd_sc_hd__dfrtp_1
*I *2237:Y O *D sky130_fd_sc_hd__inv_2
*CAP
1 *2280:RESET_B 5.16549e-05
2 *2237:Y 5.16549e-05
3 *2280:RESET_B *2089:B 5.39718e-05
4 *2280:RESET_B *2470:A 0
5 wb_dat_o[10] *2280:RESET_B 0
*RES
1 *2237:Y *2280:RESET_B 6.725 
*END

*D_NET *182 0.000294717
*CONN
*I *2281:RESET_B I *D sky130_fd_sc_hd__dfrtp_1
*I *2238:Y O *D sky130_fd_sc_hd__inv_2
*CAP
1 *2281:RESET_B 7.48145e-05
2 *2238:Y 7.48145e-05
3 *2281:RESET_B *2281:CLK 3.50445e-06
4 *2281:RESET_B *2472:A 8.8266e-05
5 *2282:D *2281:RESET_B 5.33172e-05
*RES
1 *2238:Y *2281:RESET_B 3.3775 
*END

*D_NET *183 0.000142198
*CONN
*I *2282:RESET_B I *D sky130_fd_sc_hd__dfrtp_1
*I *2239:Y O *D sky130_fd_sc_hd__inv_2
*CAP
1 *2282:RESET_B 7.1099e-05
2 *2239:Y 7.1099e-05
3 *2282:RESET_B *2475:A 0
4 *2282:RESET_B *620:122 0
*RES
1 *2239:Y *2282:RESET_B 6.725 
*END

*D_NET *184 0.000145426
*CONN
*I *2283:RESET_B I *D sky130_fd_sc_hd__dfrtp_1
*I *2240:Y O *D sky130_fd_sc_hd__inv_2
*CAP
1 *2283:RESET_B 7.2713e-05
2 *2240:Y 7.2713e-05
3 *2283:RESET_B *2474:A 0
4 *2283:D *2283:RESET_B 0
*RES
1 *2240:Y *2283:RESET_B 6.725 
*END

*D_NET *185 0.000142198
*CONN
*I *2284:RESET_B I *D sky130_fd_sc_hd__dfrtp_1
*I *2241:Y O *D sky130_fd_sc_hd__inv_2
*CAP
1 *2284:RESET_B 7.1099e-05
2 *2241:Y 7.1099e-05
3 *2284:RESET_B *2475:A 0
4 *2284:RESET_B *620:122 0
5 wb_dat_o[13] *2284:RESET_B 0
*RES
1 *2241:Y *2284:RESET_B 6.725 
*END

*D_NET *186 0.000306465
*CONN
*I *2285:RESET_B I *D sky130_fd_sc_hd__dfrtp_1
*I *2242:Y O *D sky130_fd_sc_hd__inv_2
*CAP
1 *2285:RESET_B 7.49362e-05
2 *2242:Y 7.49362e-05
3 *2285:RESET_B *2012:A 3.59997e-05
4 *2285:RESET_B *2144:A 0.000120593
*RES
1 *2242:Y *2285:RESET_B 7.175 
*END

*D_NET *187 0.000721957
*CONN
*I *2286:RESET_B I *D sky130_fd_sc_hd__dfrtp_1
*I *2243:Y O *D sky130_fd_sc_hd__inv_2
*CAP
1 *2286:RESET_B 6.77563e-05
2 *2243:Y 6.77563e-05
3 *2286:RESET_B *2243:A 0.000433928
4 *2286:RESET_B *2478:A 6.46181e-05
5 *2286:D *2286:RESET_B 8.78982e-05
*RES
1 *2243:Y *2286:RESET_B 5.1025 
*END

*D_NET *188 0.000737379
*CONN
*I *2287:RESET_B I *D sky130_fd_sc_hd__dfrtp_1
*I *2244:Y O *D sky130_fd_sc_hd__inv_2
*CAP
1 *2287:RESET_B 0.000264749
2 *2244:Y 0.000264749
3 *2287:RESET_B *576:24 0.000207881
*RES
1 *2244:Y *2287:RESET_B 5.5675 
*END

*D_NET *189 0.00076095
*CONN
*I *2288:RESET_B I *D sky130_fd_sc_hd__dfrtp_1
*I *2245:Y O *D sky130_fd_sc_hd__inv_2
*CAP
1 *2288:RESET_B 0.000219685
2 *2245:Y 0.000219685
3 *2288:RESET_B *557:10 5.37442e-05
4 *2288:RESET_B *581:14 7.23602e-05
5 *2288:RESET_B *582:14 0.000195476
*RES
1 *2245:Y *2288:RESET_B 9.32 
*END

*D_NET *190 0.000142198
*CONN
*I *2289:RESET_B I *D sky130_fd_sc_hd__dfrtp_1
*I *2246:Y O *D sky130_fd_sc_hd__inv_2
*CAP
1 *2289:RESET_B 7.1099e-05
2 *2246:Y 7.1099e-05
*RES
1 *2246:Y *2289:RESET_B 6.725 
*END

*D_NET *191 0.0002297
*CONN
*I *2290:RESET_B I *D sky130_fd_sc_hd__dfrtp_1
*I *2247:Y O *D sky130_fd_sc_hd__inv_2
*CAP
1 *2290:RESET_B 0.00011485
2 *2247:Y 0.00011485
3 *2290:RESET_B *2482:A 0
*RES
1 *2247:Y *2290:RESET_B 7.49 
*END

*D_NET *192 0.00115975
*CONN
*I *2291:RESET_B I *D sky130_fd_sc_hd__dfrtp_1
*I *2248:Y O *D sky130_fd_sc_hd__inv_2
*CAP
1 *2291:RESET_B 0.000310893
2 *2248:Y 0.000310893
3 *2291:RESET_B *582:14 0.000394699
4 *2291:RESET_B *621:64 0.000143266
*RES
1 *2248:Y *2291:RESET_B 10.79 
*END

*D_NET *193 0.000262973
*CONN
*I *2292:RESET_B I *D sky130_fd_sc_hd__dfrtp_1
*I *2249:Y O *D sky130_fd_sc_hd__inv_2
*CAP
1 *2292:RESET_B 0.000131486
2 *2249:Y 0.000131486
*RES
1 *2249:Y *2292:RESET_B 3.3775 
*END

*D_NET *194 0.00085634
*CONN
*I *2293:RESET_B I *D sky130_fd_sc_hd__dfrtp_1
*I *2250:Y O *D sky130_fd_sc_hd__inv_2
*CAP
1 *2293:RESET_B 0.000307429
2 *2250:Y 0.000307429
3 *2293:RESET_B *2250:A 0.000241483
*RES
1 *2250:Y *2293:RESET_B 5.9125 
*END

*D_NET *195 0.000683324
*CONN
*I *2294:RESET_B I *D sky130_fd_sc_hd__dfrtp_1
*I *2251:Y O *D sky130_fd_sc_hd__inv_2
*CAP
1 *2294:RESET_B 0.000260081
2 *2251:Y 0.000260081
3 *2294:RESET_B *2294:CLK 6.77162e-05
4 *2294:RESET_B *621:56 8.69157e-05
5 *2294:RESET_B *621:64 8.53113e-06
6 *2294:D *2294:RESET_B 0
*RES
1 *2251:Y *2294:RESET_B 9.8825 
*END

*D_NET *196 0.000170289
*CONN
*I *2295:RESET_B I *D sky130_fd_sc_hd__dfrtp_1
*I *2252:Y O *D sky130_fd_sc_hd__inv_2
*CAP
1 *2295:RESET_B 8.51447e-05
2 *2252:Y 8.51447e-05
3 *2295:RESET_B *616:20 0
*RES
1 *2252:Y *2295:RESET_B 6.98 
*END

*D_NET *197 0.000251045
*CONN
*I *2296:RESET_B I *D sky130_fd_sc_hd__dfrtp_1
*I *2253:Y O *D sky130_fd_sc_hd__inv_2
*CAP
1 *2296:RESET_B 0.000125523
2 *2253:Y 0.000125523
3 *2296:RESET_B *2021:C 0
4 *2296:RESET_B *2024:B 0
5 *2296:RESET_B *607:8 0
*RES
1 *2253:Y *2296:RESET_B 7.49 
*END

*D_NET *198 0.000524175
*CONN
*I *2297:RESET_B I *D sky130_fd_sc_hd__dfrtp_1
*I *2254:Y O *D sky130_fd_sc_hd__inv_2
*CAP
1 *2297:RESET_B 0.00020011
2 *2254:Y 0.00020011
3 *2297:RESET_B *2289:CLK 0
4 *2297:RESET_B *2488:A 0.000123955
*RES
1 *2254:Y *2297:RESET_B 8.63 
*END

*D_NET *199 0.000294584
*CONN
*I *2298:RESET_B I *D sky130_fd_sc_hd__dfrtp_1
*I *2255:Y O *D sky130_fd_sc_hd__inv_2
*CAP
1 *2298:RESET_B 8.4977e-05
2 *2255:Y 8.4977e-05
3 *2298:RESET_B *2255:A 2.75229e-05
4 *2298:RESET_B *616:39 9.71067e-05
5 *2298:D *2298:RESET_B 0
*RES
1 *2255:Y *2298:RESET_B 7.175 
*END

*D_NET *200 0.000706368
*CONN
*I *2299:RESET_B I *D sky130_fd_sc_hd__dfrtp_1
*I *2256:Y O *D sky130_fd_sc_hd__inv_2
*CAP
1 *2299:RESET_B 0.000327908
2 *2256:Y 0.000327908
3 *2299:RESET_B *2256:A 5.05521e-05
*RES
1 *2256:Y *2299:RESET_B 5.5675 
*END

*D_NET *201 0.000518088
*CONN
*I *2300:RESET_B I *D sky130_fd_sc_hd__dfrtp_1
*I *2257:Y O *D sky130_fd_sc_hd__inv_2
*CAP
1 *2300:RESET_B 0.000220273
2 *2257:Y 0.000220273
3 *2300:RESET_B *2478:A 7.75412e-05
4 wb_dat_o[17] *2300:RESET_B 0
5 *2300:D *2300:RESET_B 0
*RES
1 *2257:Y *2300:RESET_B 9.53 
*END

*D_NET *202 0.000978229
*CONN
*I *2301:RESET_B I *D sky130_fd_sc_hd__dfrtp_1
*I *2258:Y O *D sky130_fd_sc_hd__inv_2
*CAP
1 *2301:RESET_B 0.000341048
2 *2258:Y 0.000341048
3 *2301:RESET_B *2301:CLK 0.000123854
4 *2301:RESET_B *2402:A 7.40482e-06
5 *2301:RESET_B *618:20 0.000164874
*RES
1 *2258:Y *2301:RESET_B 7.0675 
*END

*D_NET *203 0.000400143
*CONN
*I *2302:RESET_B I *D sky130_fd_sc_hd__dfrtp_1
*I *2259:Y O *D sky130_fd_sc_hd__inv_2
*CAP
1 *2302:RESET_B 4.51968e-05
2 *2259:Y 4.51968e-05
3 *2302:RESET_B *2425:A 8.64421e-05
4 *2302:RESET_B *467:76 2.09305e-05
5 *2302:RESET_B *617:20 0.000202377
*RES
1 *2259:Y *2302:RESET_B 3.3775 
*END

*D_NET *204 0.000308858
*CONN
*I *2303:RESET_B I *D sky130_fd_sc_hd__dfrtp_1
*I *2260:Y O *D sky130_fd_sc_hd__inv_2
*CAP
1 *2303:RESET_B 9.81633e-05
2 *2260:Y 9.81633e-05
3 *2303:RESET_B *471:63 0.000112532
*RES
1 *2260:Y *2303:RESET_B 3.3775 
*END

*D_NET *205 0.000569488
*CONN
*I *2304:RESET_B I *D sky130_fd_sc_hd__dfrtp_1
*I *2261:Y O *D sky130_fd_sc_hd__inv_2
*CAP
1 *2304:RESET_B 0.000101073
2 *2261:Y 0.000101073
3 *2304:RESET_B *2304:CLK 0.00019311
4 *2304:RESET_B *2403:A 5.05437e-05
5 *2304:RESET_B *273:22 3.33741e-05
6 *2304:RESET_B *615:60 0
7 *2304:RESET_B *618:72 9.03138e-05
*RES
1 *2261:Y *2304:RESET_B 8.5025 
*END

*D_NET *206 0.000268312
*CONN
*I *2305:RESET_B I *D sky130_fd_sc_hd__dfrtp_1
*I *2262:Y O *D sky130_fd_sc_hd__inv_2
*CAP
1 *2305:RESET_B 0.000105921
2 *2262:Y 0.000105921
3 *2305:RESET_B *2461:A 5.64699e-05
*RES
1 *2262:Y *2305:RESET_B 3.3775 
*END

*D_NET *207 0.000456764
*CONN
*I *2306:RESET_B I *D sky130_fd_sc_hd__dfrtp_1
*I *2263:Y O *D sky130_fd_sc_hd__inv_2
*CAP
1 *2306:RESET_B 0.000118311
2 *2263:Y 0.000118311
3 *2306:RESET_B *273:22 0
4 *2306:RESET_B *618:43 0.000210846
5 *2306:RESET_B *622:14 9.29751e-06
*RES
1 *2263:Y *2306:RESET_B 8.255 
*END

*D_NET *208 0.00034625
*CONN
*I *2311:RESET_B I *D sky130_fd_sc_hd__dfrtp_1
*I *2264:Y O *D sky130_fd_sc_hd__inv_2
*CAP
1 *2311:RESET_B 7.24324e-05
2 *2264:Y 7.24324e-05
3 *2311:RESET_B *634:21 0.000114789
4 *2311:RESET_B *640:25 8.65961e-05
*RES
1 *2264:Y *2311:RESET_B 3.3775 
*END

*D_NET *209 0.000248731
*CONN
*I *2312:RESET_B I *D sky130_fd_sc_hd__dfrtp_1
*I *2265:Y O *D sky130_fd_sc_hd__inv_2
*CAP
1 *2312:RESET_B 9.87151e-05
2 *2265:Y 9.87151e-05
3 *2312:RESET_B *465:64 3.39151e-05
4 *2312:RESET_B *637:29 0
5 *2276:D *2312:RESET_B 1.7386e-05
*RES
1 *2265:Y *2312:RESET_B 7.175 
*END

*D_NET *210 0.000418211
*CONN
*I *2313:RESET_B I *D sky130_fd_sc_hd__dfrtp_1
*I *2266:Y O *D sky130_fd_sc_hd__inv_2
*CAP
1 *2313:RESET_B 0.000120149
2 *2266:Y 0.000120149
3 *2313:RESET_B *2414:A 9.30717e-05
4 *2313:RESET_B *2460:A 1.08758e-05
5 *2313:RESET_B *555:20 7.39651e-05
*RES
1 *2266:Y *2313:RESET_B 7.52 
*END

*D_NET *211 0.000341814
*CONN
*I *2314:RESET_B I *D sky130_fd_sc_hd__dfrtp_1
*I *2267:Y O *D sky130_fd_sc_hd__inv_2
*CAP
1 *2314:RESET_B 8.79054e-05
2 *2267:Y 8.79054e-05
3 *2314:RESET_B *465:64 0
4 *2314:RESET_B *560:36 4.70393e-05
5 *2314:RESET_B *560:40 0
6 *2314:RESET_B *636:10 0.000118964
*RES
1 *2267:Y *2314:RESET_B 7.4675 
*END

*D_NET *212 0.00034502
*CONN
*I *2363:RESET_B I *D sky130_fd_sc_hd__dfrtp_1
*I *2268:Y O *D sky130_fd_sc_hd__inv_2
*CAP
1 *2363:RESET_B 7.31018e-05
2 *2268:Y 7.31018e-05
3 *2363:RESET_B *1981:A1 8.40269e-05
4 *2363:RESET_B *2267:A 2.16917e-05
5 *2363:RESET_B *618:122 9.30977e-05
*RES
1 *2268:Y *2363:RESET_B 3.3775 
*END

*D_NET *213 0.00290098
*CONN
*I *2307:D I *D sky130_fd_sc_hd__dfxtp_1
*I *2046:X O *D sky130_fd_sc_hd__a31o_1
*CAP
1 *2307:D 0.000795025
2 *2046:X 0.000795025
3 *2307:D *2057:C 1.79536e-05
4 *2307:D *2066:A2 2.0851e-06
5 *2307:D *289:27 0.000380043
6 *2307:D *326:8 0.000174568
7 *2307:D *335:16 9.58678e-06
8 *2307:D *338:21 1.93834e-05
9 *2307:D *615:102 0.000586622
10 *2307:D *622:30 1.99587e-05
11 *170:42 *2307:D 0.000100733
*RES
1 *2046:X *2307:D 21.0459 
*END

*D_NET *214 0.000625496
*CONN
*I *2308:D I *D sky130_fd_sc_hd__dfxtp_1
*I *2060:Y O *D sky130_fd_sc_hd__nor2_1
*CAP
1 *2308:D 0.000190971
2 *2060:Y 0.000190971
3 *2308:D *2098:B 0
4 *2308:D *496:8 0
5 *2308:D *607:53 0.000243554
*RES
1 *2060:Y *2308:D 11.0437 
*END

*D_NET *215 0.00308102
*CONN
*I *2309:D I *D sky130_fd_sc_hd__dfxtp_1
*I *2064:Y O *D sky130_fd_sc_hd__a211oi_1
*CAP
1 *2309:D 0.000860697
2 *2064:Y 0.000860697
3 *2309:D *2043:A 0.00015896
4 *2309:D *326:16 0.000347911
5 *2309:D *335:22 0.000139238
6 *2309:D *338:31 0.000574279
7 *2309:D *347:10 0.000139238
*RES
1 *2064:Y *2309:D 24.4988 
*END

*D_NET *216 0.000341567
*CONN
*I *2310:D I *D sky130_fd_sc_hd__dfxtp_1
*I *2066:Y O *D sky130_fd_sc_hd__a31oi_1
*CAP
1 *2310:D 7.2119e-05
2 *2066:Y 7.2119e-05
3 *2310:D *2058:B 5.20335e-05
4 *2310:D *2310:CLK 5.20335e-05
5 *2310:D *334:10 9.02924e-05
6 *2310:D *613:57 0
7 *2310:D *634:48 2.97004e-06
*RES
1 *2066:Y *2310:D 8.80875 
*END

*D_NET *217 0.000582216
*CONN
*I *2427:A I *D sky130_fd_sc_hd__dlygate4sd3_1
*I *1955:X O *D sky130_fd_sc_hd__o21ba_1
*CAP
1 *2427:A 4.61047e-05
2 *1955:X 4.61047e-05
3 *2427:A *1955:A2 9.21168e-05
4 *2427:A *1955:B1_N 0.000122337
5 *2427:A *2264:A 0.000275553
*RES
1 *1955:X *2427:A 5.72 
*END

*D_NET *218 0.000425318
*CONN
*I *2405:A I *D sky130_fd_sc_hd__dlygate4sd3_1
*I *1954:X O *D sky130_fd_sc_hd__o21ba_1
*CAP
1 *2405:A 0.000115824
2 *1954:X 0.000115824
3 *2405:A *1954:A2 2.66935e-05
4 *2405:A *2467:A 8.49205e-05
5 *2405:A *470:37 3.45117e-05
6 *2405:A *470:39 2.85764e-05
7 *2405:A *637:29 1.89685e-05
*RES
1 *1954:X *2405:A 9.375 
*END

*D_NET *219 0.00119158
*CONN
*I *2414:A I *D sky130_fd_sc_hd__dlygate4sd3_1
*I *1953:X O *D sky130_fd_sc_hd__o21ba_1
*CAP
1 *2414:A 0.000286502
2 *1953:X 0.000286502
3 *2414:A *2265:A 0
4 *2414:A *2460:A 0.000231787
5 *2414:A *291:33 0.000293712
6 *2414:A *635:40 0
7 *2313:RESET_B *2414:A 9.30717e-05
*RES
1 *1953:X *2414:A 12.795 
*END

*D_NET *220 0.000703833
*CONN
*I *2429:A I *D sky130_fd_sc_hd__dlygate4sd3_1
*I *1952:X O *D sky130_fd_sc_hd__o21ba_1
*CAP
1 *2429:A 0.0001179
2 *1952:X 0.0001179
3 *2429:A *1952:B1_N 0.000298442
4 *2429:A *1954:B1_N 0.000169591
*RES
1 *1952:X *2429:A 11.07 
*END

*D_NET *221 0.000456134
*CONN
*I *2315:D I *D sky130_fd_sc_hd__dfxtp_2
*I *2093:X O *D sky130_fd_sc_hd__a21o_1
*CAP
1 *2315:D 0.000228067
2 *2093:X 0.000228067
3 *2315:D *1938:A 0
4 *2315:D *2416:A 0
5 *2315:D *648:19 0
*RES
1 *2093:X *2315:D 10.6987 
*END

*D_NET *222 0.000381378
*CONN
*I *2316:D I *D sky130_fd_sc_hd__dfxtp_1
*I *2095:Y O *D sky130_fd_sc_hd__a21oi_1
*CAP
1 *2316:D 9.148e-05
2 *2095:Y 9.148e-05
3 *2316:D *1978:B2 1.43717e-05
4 *2316:D *1999:A1 5.51158e-05
5 *2316:D *2152:A3 4.99619e-05
6 *2316:D *2316:CLK 7.89689e-05
*RES
1 *2095:Y *2316:D 9.42375 
*END

*D_NET *223 0.000327502
*CONN
*I *2317:D I *D sky130_fd_sc_hd__dfxtp_1
*I *2100:X O *D sky130_fd_sc_hd__and2b_1
*CAP
1 *2317:D 0.000106465
2 *2100:X 0.000106465
3 *2317:D *468:53 9.83884e-05
4 *2317:D *468:57 1.61831e-05
*RES
1 *2100:X *2317:D 5.03375 
*END

*D_NET *224 0.000626428
*CONN
*I *2318:D I *D sky130_fd_sc_hd__dfxtp_1
*I *2103:X O *D sky130_fd_sc_hd__and3_1
*CAP
1 *2318:D 0.000116694
2 *2103:X 0.000116694
3 *2318:D *2103:C 9.14049e-05
4 *2318:D *2285:CLK 5.01066e-05
5 *2318:D *506:12 5.01066e-05
6 *2318:D *600:32 1.83847e-05
7 *2318:D *606:23 0.000183036
*RES
1 *2103:X *2318:D 10.2788 
*END

*D_NET *225 0.000335165
*CONN
*I *2319:D I *D sky130_fd_sc_hd__dfxtp_1
*I *2106:X O *D sky130_fd_sc_hd__and3_1
*CAP
1 *2319:D 0.000110838
2 *2106:X 0.000110838
3 *2319:D *2105:B1 1.43717e-05
4 *2319:D *468:72 3.47837e-05
5 *2319:D *506:69 1.43717e-05
6 *2319:D *600:65 4.99619e-05
*RES
1 *2106:X *2319:D 8.91375 
*END

*D_NET *226 0.000304421
*CONN
*I *2320:D I *D sky130_fd_sc_hd__dfxtp_1
*I *2109:X O *D sky130_fd_sc_hd__and3b_1
*CAP
1 *2320:D 0.000113239
2 *2109:X 0.000113239
3 *2320:D *468:49 1.43717e-05
4 *2320:D *499:10 2.96553e-05
5 *2320:D *499:92 3.39151e-05
*RES
1 *2109:X *2320:D 9.22875 
*END

*D_NET *227 0.000972982
*CONN
*I *2321:D I *D sky130_fd_sc_hd__dfxtp_1
*I *2112:X O *D sky130_fd_sc_hd__and3b_1
*CAP
1 *2321:D 0.000236246
2 *2112:X 0.000236246
3 *2321:D *468:148 0.000465688
4 *2321:D *509:10 1.56428e-05
5 *2321:D *602:33 1.91597e-05
*RES
1 *2112:X *2321:D 8.43875 
*END

*D_NET *228 0.00112271
*CONN
*I *2322:D I *D sky130_fd_sc_hd__dfxtp_1
*I *2115:X O *D sky130_fd_sc_hd__and3b_1
*CAP
1 *2322:D 0.000537813
2 *2115:X 0.000537813
3 *2322:D *2115:B 1.54061e-06
4 *2322:D *510:8 4.55458e-05
*RES
1 *2115:X *2322:D 14.385 
*END

*D_NET *229 0.000785809
*CONN
*I *2323:D I *D sky130_fd_sc_hd__dfxtp_1
*I *2118:X O *D sky130_fd_sc_hd__and3_1
*CAP
1 *2323:D 0.000385719
2 *2118:X 0.000385719
3 *2323:D *2323:CLK 1.43717e-05
4 *2323:D *621:106 0
*RES
1 *2118:X *2323:D 11.8387 
*END

*D_NET *230 0.000681346
*CONN
*I *2324:D I *D sky130_fd_sc_hd__dfxtp_1
*I *2121:X O *D sky130_fd_sc_hd__and3b_1
*CAP
1 *2324:D 0.000103625
2 *2121:X 0.000103625
3 *2324:D *2119:B1 4.35648e-05
4 *2324:D *2121:C 8.41011e-05
5 *2324:D *468:130 0.000111988
6 *2324:D *468:138 8.53113e-06
7 *2324:D *511:35 7.81876e-05
8 *2324:D *512:12 0.000147723
*RES
1 *2121:X *2324:D 10.5638 
*END

*D_NET *231 0.000531606
*CONN
*I *2325:D I *D sky130_fd_sc_hd__dfxtp_1
*I *2124:X O *D sky130_fd_sc_hd__and3_1
*CAP
1 *2325:D 0.000108975
2 *2124:X 0.000108975
3 *2325:D *2122:A 6.85173e-05
4 *2325:D *2124:B 7.81876e-05
5 *2325:D *2325:CLK 0.000166951
*RES
1 *2124:X *2325:D 10.3538 
*END

*D_NET *232 0.000421241
*CONN
*I *2326:D I *D sky130_fd_sc_hd__dfxtp_1
*I *2127:X O *D sky130_fd_sc_hd__and3b_1
*CAP
1 *2326:D 7.19503e-05
2 *2127:X 7.19503e-05
3 *2326:D *2127:C 0.000151158
4 *2326:D *2326:CLK 0.000112853
5 *2326:D *514:10 1.33293e-05
*RES
1 *2127:X *2326:D 5.43875 
*END

*D_NET *233 0.00102651
*CONN
*I *2327:D I *D sky130_fd_sc_hd__dfxtp_1
*I *2130:X O *D sky130_fd_sc_hd__and3_1
*CAP
1 *2327:D 0.000337373
2 *2130:X 0.000337373
3 *2327:D *2134:B 0.000200615
4 *2327:D *2327:CLK 5.49875e-05
5 *2327:D *500:22 0
6 *2293:D *2327:D 9.61635e-05
*RES
1 *2130:X *2327:D 9.45875 
*END

*D_NET *234 0.000803493
*CONN
*I *2328:D I *D sky130_fd_sc_hd__dfxtp_1
*I *2133:X O *D sky130_fd_sc_hd__and3b_1
*CAP
1 *2328:D 0.000294116
2 *2133:X 0.000294116
3 *2328:D *606:118 0.000215262
*RES
1 *2133:X *2328:D 8.18375 
*END

*D_NET *235 0.000453473
*CONN
*I *2329:D I *D sky130_fd_sc_hd__dfxtp_1
*I *2136:X O *D sky130_fd_sc_hd__and3b_1
*CAP
1 *2329:D 0.000202175
2 *2136:X 0.000202175
3 *2329:D *2329:CLK 1.22464e-05
4 *2329:D *465:33 3.68769e-05
5 *2329:D *622:32 0
*RES
1 *2136:X *2329:D 10.1888 
*END

*D_NET *236 0.000968377
*CONN
*I *2330:D I *D sky130_fd_sc_hd__dfxtp_1
*I *2139:X O *D sky130_fd_sc_hd__and3b_1
*CAP
1 *2330:D 0.000258084
2 *2139:X 0.000258084
3 *2330:D *2137:B 0.000184913
4 *2330:D *2290:CLK 8.52055e-05
5 *2330:D *2293:CLK 4.25177e-05
6 *2330:D *408:12 2.47705e-05
7 *2330:D *466:46 4.77757e-05
8 *2330:D *466:128 4.99619e-05
9 *2293:D *2330:D 1.70636e-05
*RES
1 *2139:X *2330:D 11.8687 
*END

*D_NET *237 0.000728075
*CONN
*I *2331:D I *D sky130_fd_sc_hd__dfxtp_1
*I *2142:X O *D sky130_fd_sc_hd__and3_1
*CAP
1 *2331:D 0.000213037
2 *2142:X 0.000213037
3 *2331:D *2025:A 0.000195309
4 *2331:D *2141:B 1.01155e-05
5 *2331:D *2367:A 4.60922e-05
6 *2331:D *584:22 3.97557e-05
7 *2331:D *600:93 1.07285e-05
*RES
1 *2142:X *2331:D 10.9838 
*END

*D_NET *238 0.00035294
*CONN
*I *2332:D I *D sky130_fd_sc_hd__dfxtp_1
*I *2144:X O *D sky130_fd_sc_hd__and2_1
*CAP
1 *2332:D 9.76763e-05
2 *2144:X 9.76763e-05
3 *2332:D *2026:A 4.77757e-05
4 *2332:D *2144:B 9.54399e-05
5 *2332:D *576:24 1.43717e-05
*RES
1 *2144:X *2332:D 8.91375 
*END

*D_NET *239 0.000359814
*CONN
*I *2333:D I *D sky130_fd_sc_hd__dfxtp_1
*I *2145:X O *D sky130_fd_sc_hd__o21a_1
*CAP
1 *2333:D 0.000129954
2 *2145:X 0.000129954
3 *2333:D *1975:B2 1.54049e-05
4 *2333:D *1987:B2 0
5 *2333:D *2145:A2 5.21627e-05
6 *2333:D *273:42 4.82319e-06
7 *2333:D *556:16 2.75145e-05
*RES
1 *2145:X *2333:D 9.42375 
*END

*D_NET *240 0.000281613
*CONN
*I *2334:D I *D sky130_fd_sc_hd__dfxtp_1
*I *2146:X O *D sky130_fd_sc_hd__or2_1
*CAP
1 *2334:D 0.00010121
2 *2146:X 0.00010121
3 *2334:D *672:DIODE 3.00381e-05
4 *2334:D *2334:CLK 1.43717e-05
5 *2334:D *465:129 0
6 *2334:D *621:46 3.47837e-05
*RES
1 *2146:X *2334:D 8.91375 
*END

*D_NET *241 0.000203438
*CONN
*I *2335:D I *D sky130_fd_sc_hd__dfxtp_1
*I *2147:X O *D sky130_fd_sc_hd__and2_1
*CAP
1 *2335:D 7.5278e-05
2 *2147:X 7.5278e-05
3 *2335:D *649:58 5.28825e-05
*RES
1 *2147:X *2335:D 4.56875 
*END

*D_NET *242 0.00120935
*CONN
*I *2336:D I *D sky130_fd_sc_hd__dfxtp_1
*I *2148:Y O *D sky130_fd_sc_hd__nor2_1
*CAP
1 *2336:D 0.000301812
2 *2148:Y 0.000301812
3 *2336:D *2076:A3 0.000114492
4 *2336:D *472:39 7.70553e-06
5 *2336:D *613:89 9.30717e-05
6 *2336:D *649:23 0.000390454
*RES
1 *2148:Y *2336:D 12.2738 
*END

*D_NET *243 0.000284408
*CONN
*I *2337:D I *D sky130_fd_sc_hd__dfxtp_1
*I *2149:X O *D sky130_fd_sc_hd__and2_1
*CAP
1 *2337:D 7.78612e-05
2 *2149:X 7.78612e-05
3 *2337:D *2149:A 1.61831e-05
4 *2337:D *2149:B 0
5 *2337:D *469:93 0.000112503
*RES
1 *2149:X *2337:D 5.075 
*END

*D_NET *244 0.000559915
*CONN
*I *2338:D I *D sky130_fd_sc_hd__dfxtp_1
*I *2150:Y O *D sky130_fd_sc_hd__nor2_1
*CAP
1 *2338:D 0.000207501
2 *2150:Y 0.000207501
3 *2338:D *2168:B1 0
4 *2338:D *273:42 0
5 *2338:D *472:55 0.000144913
6 *2338:D *620:26 0
*RES
1 *2150:Y *2338:D 11.0437 
*END

*D_NET *245 0.000375297
*CONN
*I *2339:D I *D sky130_fd_sc_hd__dfxtp_1
*I *2152:X O *D sky130_fd_sc_hd__o31a_1
*CAP
1 *2339:D 7.17529e-05
2 *2152:X 7.17529e-05
3 *2339:D *1985:A2 0
4 *2339:D *1990:B2 9.20132e-05
5 *2339:D *555:10 9.03376e-05
6 *2339:D *634:63 4.94404e-05
*RES
1 *2152:X *2339:D 9.15375 
*END

*D_NET *246 0.000603088
*CONN
*I *2340:D I *D sky130_fd_sc_hd__dfxtp_1
*I *2159:X O *D sky130_fd_sc_hd__o21a_1
*CAP
1 *2340:D 0.000276563
2 *2159:X 0.000276563
3 *2340:D *2076:A3 0
4 *2340:D *286:69 4.99619e-05
5 *2340:D *621:203 0
*RES
1 *2159:X *2340:D 11.4637 
*END

*D_NET *247 0.000679184
*CONN
*I *2341:D I *D sky130_fd_sc_hd__dfxtp_1
*I *2162:X O *D sky130_fd_sc_hd__and2b_1
*CAP
1 *2341:D 0.000133372
2 *2162:X 0.000133372
3 *2341:D *2341:CLK 5.961e-05
4 *2341:D *286:46 5.01066e-05
5 *2341:D *414:10 8.35683e-05
6 *2341:D *414:16 0.000189426
7 *2341:D *465:171 2.97291e-05
*RES
1 *2162:X *2341:D 10.8488 
*END

*D_NET *248 0.00170288
*CONN
*I *2342:D I *D sky130_fd_sc_hd__dfxtp_1
*I *2166:X O *D sky130_fd_sc_hd__and3_1
*CAP
1 *2342:D 0.000390096
2 *2166:X 0.000390096
3 *2342:D *2053:B 0.000164686
4 *2342:D *2093:A1 0.000532529
5 *2342:D *2093:A2 3.85884e-05
6 *2342:D *2162:A_N 7.4027e-05
7 *2342:D *2342:CLK 0.000112859
*RES
1 *2166:X *2342:D 16.3237 
*END

*D_NET *249 0.000925062
*CONN
*I *2343:D I *D sky130_fd_sc_hd__dfxtp_1
*I *2181:Y O *D sky130_fd_sc_hd__a21oi_1
*CAP
1 *2343:D 0.000298998
2 *2181:Y 0.000298998
3 *2343:D *2182:A 0
4 *2343:D *2182:B 0
5 *2343:D *2183:A2 9.54469e-05
6 *2343:D *471:42 0
7 *2343:D *471:46 0
8 *2343:D *479:21 9.00863e-05
9 *2343:D *486:25 0
10 *2343:D *560:76 0.000141532
*RES
1 *2181:Y *2343:D 12.9788 
*END

*D_NET *250 0.00122802
*CONN
*I *2344:D I *D sky130_fd_sc_hd__dfxtp_1
*I *2183:Y O *D sky130_fd_sc_hd__a21oi_1
*CAP
1 *2344:D 0.000415836
2 *2183:Y 0.000415836
3 *2344:D *2183:A2 0.000301633
4 *2344:D *2183:B1 3.64998e-06
5 *2344:D *2344:CLK 4.82863e-05
6 *2344:D *471:36 2.97473e-05
7 *2344:D *560:76 1.30356e-05
*RES
1 *2183:Y *2344:D 9.725 
*END

*D_NET *251 0.000672394
*CONN
*I *2345:D I *D sky130_fd_sc_hd__dfxtp_1
*I *2186:Y O *D sky130_fd_sc_hd__a21oi_1
*CAP
1 *2345:D 0.000137553
2 *2186:Y 0.000137553
3 *2345:D *1954:B1_N 9.30717e-05
4 *2345:D *291:63 6.86414e-05
5 *2270:D *2345:D 0.000235575
*RES
1 *2186:Y *2345:D 10.6613 
*END

*D_NET *252 0.000393741
*CONN
*I *2346:D I *D sky130_fd_sc_hd__dfxtp_1
*I *2189:Y O *D sky130_fd_sc_hd__a21oi_1
*CAP
1 *2346:D 0.000118136
2 *2189:Y 0.000118136
3 *2346:D *432:25 1.43717e-05
4 *2346:D *604:67 9.54399e-05
5 *2272:D *2346:D 4.76581e-05
*RES
1 *2189:Y *2346:D 9.48375 
*END

*D_NET *253 0.000415383
*CONN
*I *2347:D I *D sky130_fd_sc_hd__dfxtp_2
*I *2191:Y O *D sky130_fd_sc_hd__a21oi_1
*CAP
1 *2347:D 9.6452e-05
2 *2191:Y 9.6452e-05
3 *2347:D *2191:B1 1.1392e-05
4 *2347:D *473:38 6.94875e-05
5 *2347:D *621:36 0.000141599
*RES
1 *2191:Y *2347:D 9.42375 
*END

*D_NET *254 0.000401197
*CONN
*I *2348:D I *D sky130_fd_sc_hd__dfxtp_1
*I *2194:Y O *D sky130_fd_sc_hd__a21oi_1
*CAP
1 *2348:D 0.000154519
2 *2194:Y 0.000154519
3 *2348:D *2194:A1 4.99619e-05
4 *2348:D *2348:CLK 4.21973e-05
*RES
1 *2194:Y *2348:D 5.74625 
*END

*D_NET *255 0.000567405
*CONN
*I *2349:D I *D sky130_fd_sc_hd__dfxtp_1
*I *2196:Y O *D sky130_fd_sc_hd__a21oi_1
*CAP
1 *2349:D 0.00016065
2 *2196:Y 0.00016065
3 *2349:D *1983:A 8.15754e-05
4 *2349:D *2195:B 1.83847e-05
5 *2349:D *2196:B1 5.39961e-05
6 *2349:D *491:21 4.55374e-05
7 *2349:D *541:12 0
8 *2349:D *603:47 4.66108e-05
*RES
1 *2196:Y *2349:D 10.77 
*END

*D_NET *256 0.0008022
*CONN
*I *2350:D I *D sky130_fd_sc_hd__dfxtp_1
*I *2200:Y O *D sky130_fd_sc_hd__a21oi_1
*CAP
1 *2350:D 0.000247813
2 *2200:Y 0.000247813
3 *2350:D *2197:B 0
4 *2350:D *2203:A2 1.54049e-05
5 *2350:D *2350:CLK 5.72004e-05
6 *2350:D *471:125 1.52862e-05
7 *2350:D *491:32 0
8 *2350:D *603:39 8.53113e-06
9 *2350:D *604:18 0.000164679
10 *2350:D *604:33 4.54719e-05
11 *2273:D *2350:D 0
*RES
1 *2200:Y *2350:D 12.0337 
*END

*D_NET *257 0.000433153
*CONN
*I *2351:D I *D sky130_fd_sc_hd__dfxtp_1
*I *2202:Y O *D sky130_fd_sc_hd__a21oi_1
*CAP
1 *2351:D 0.000134784
2 *2202:Y 0.000134784
3 *2351:D *620:18 8.98663e-05
4 *2273:D *2351:D 7.37195e-05
*RES
1 *2202:Y *2351:D 10.1737 
*END

*D_NET *258 0.000524783
*CONN
*I *2352:D I *D sky130_fd_sc_hd__dfxtp_1
*I *2205:Y O *D sky130_fd_sc_hd__a21oi_1
*CAP
1 *2352:D 0.000198404
2 *2205:Y 0.000198404
3 *2352:D *2205:A1 2.37414e-05
4 *2352:D *2205:A2 5.80286e-05
5 *2352:D *2352:CLK 2.5289e-05
6 *2352:D *493:23 2.09166e-05
*RES
1 *2205:Y *2352:D 10.1025 
*END

*D_NET *259 0.0012124
*CONN
*I *2353:D I *D sky130_fd_sc_hd__dfxtp_2
*I *2208:Y O *D sky130_fd_sc_hd__a21oi_1
*CAP
1 *2353:D 0.000528581
2 *2208:Y 0.000528581
3 *2353:D *2208:B1 1.16578e-05
4 *2353:D *2354:CLK 0
5 *2353:D *2384:A 1.33293e-05
6 *2353:D *473:119 1.43717e-05
7 *2353:D *481:10 2.86623e-05
8 *2353:D *481:12 7.70938e-05
9 *2353:D *603:6 1.0124e-05
10 *2353:D *613:135 0
*RES
1 *2208:Y *2353:D 14.4038 
*END

*D_NET *260 0.000413806
*CONN
*I *2354:D I *D sky130_fd_sc_hd__dfxtp_1
*I *2210:Y O *D sky130_fd_sc_hd__a21oi_1
*CAP
1 *2354:D 0.0001347
2 *2210:Y 0.0001347
3 *2354:D *481:52 0.000144407
*RES
1 *2210:Y *2354:D 5.405 
*END

*D_NET *261 0.000275878
*CONN
*I *2355:D I *D sky130_fd_sc_hd__dfxtp_1
*I *2213:Y O *D sky130_fd_sc_hd__nor2_1
*CAP
1 *2355:D 8.68046e-05
2 *2213:Y 8.68046e-05
3 *2355:D *291:99 5.02354e-05
4 *2355:D *473:24 5.20335e-05
5 *2355:D *605:25 0
*RES
1 *2213:Y *2355:D 8.80875 
*END

*D_NET *262 0.000379141
*CONN
*I *2356:D I *D sky130_fd_sc_hd__dfxtp_1
*I *2215:Y O *D sky130_fd_sc_hd__a21oi_1
*CAP
1 *2356:D 0.000103473
2 *2215:Y 0.000103473
3 *2356:D *2214:A 3.10498e-05
4 *2356:D *2214:B 6.28765e-05
5 *2356:D *473:59 7.82691e-05
6 *2356:D *483:19 0
7 *2356:D *483:21 0
*RES
1 *2215:Y *2356:D 9.555 
*END

*D_NET *263 0.00106104
*CONN
*I *2357:D I *D sky130_fd_sc_hd__dfxtp_1
*I *2217:Y O *D sky130_fd_sc_hd__a211oi_1
*CAP
1 *2357:D 0.000211492
2 *2217:Y 0.000211492
3 *2357:D *1931:A 0.000228576
4 *2357:D *2217:A1 8.15332e-05
5 *2357:D *2217:B1 1.47347e-05
6 *2357:D *2357:CLK 0.00014259
7 *2357:D *437:12 0.000122331
8 *2357:D *605:49 4.82863e-05
*RES
1 *2217:Y *2357:D 8.94875 
*END

*D_NET *264 0.000370473
*CONN
*I *2358:D I *D sky130_fd_sc_hd__dfxtp_1
*I *2218:X O *D sky130_fd_sc_hd__o21ba_1
*CAP
1 *2358:D 0.000185237
2 *2218:X 0.000185237
3 *2358:D *2218:A2 0
4 *2358:D *2218:B1_N 0
*RES
1 *2218:X *2358:D 9.84375 
*END

*D_NET *265 0.000760737
*CONN
*I *2359:D I *D sky130_fd_sc_hd__dfxtp_1
*I *2222:X O *D sky130_fd_sc_hd__o211a_1
*CAP
1 *2359:D 0.000223645
2 *2222:X 0.000223645
3 *2359:D *2221:A1 2.75145e-05
4 *2359:D *2221:A2 3.83194e-05
5 *2359:D *2222:C1 8.40213e-05
6 *2359:D *2359:CLK 7.44453e-05
7 *2359:D *2360:CLK 9.80943e-06
8 *2359:D *641:14 3.10498e-05
9 *2359:D *641:16 4.82863e-05
10 *2359:D *641:53 0
*RES
1 *2222:X *2359:D 11.64 
*END

*D_NET *266 0.00174912
*CONN
*I *2360:D I *D sky130_fd_sc_hd__dfxtp_1
*I *2224:X O *D sky130_fd_sc_hd__o211a_1
*CAP
1 *2360:D 0.000506581
2 *2224:X 0.000506581
3 *2360:D *2220:A1 7.23602e-05
4 *2360:D *2360:CLK 0.000131871
5 *2360:D *462:12 7.4027e-05
6 *2360:D *469:115 0.000457696
*RES
1 *2224:X *2360:D 14.7338 
*END

*D_NET *267 0.000383625
*CONN
*I *2361:D I *D sky130_fd_sc_hd__dfxtp_1
*I *2225:X O *D sky130_fd_sc_hd__o21a_1
*CAP
1 *2361:D 3.42926e-05
2 *2225:X 3.42926e-05
3 *2361:D *2225:A1 0.000187459
4 *2361:D *2225:B1 4.99619e-05
5 *2361:D *2361:CLK 4.82863e-05
6 *2361:D *615:36 2.93331e-05
*RES
1 *2225:X *2361:D 4.91375 
*END

*D_NET *268 0.00036978
*CONN
*I *2362:D I *D sky130_fd_sc_hd__dfxtp_1
*I *2226:X O *D sky130_fd_sc_hd__o21a_1
*CAP
1 *2362:D 0.000109395
2 *2226:X 0.000109395
3 *2362:D *2226:A2 4.89295e-05
4 *2362:D *291:33 4.746e-05
5 *2362:D *467:17 1.23437e-05
6 *2362:D *467:19 4.22574e-05
*RES
1 *2226:X *2362:D 9.42375 
*END

*D_NET *269 0.00118191
*CONN
*I *2431:A I *D sky130_fd_sc_hd__dlygate4sd3_1
*I *1946:X O *D sky130_fd_sc_hd__o21ba_1
*CAP
1 *2431:A 0.000252598
2 *1946:X 0.000252598
3 *2431:A *1946:B1_N 4.8854e-05
4 *2431:A *1954:B1_N 0.000293726
5 *2431:A *2461:A 0.000283168
6 *2431:A *470:37 3.04767e-05
7 *2431:A *556:48 2.04923e-05
*RES
1 *1946:X *2431:A 12.795 
*END

*D_NET *270 0.000254445
*CONN
*I *2217:A1 I *D sky130_fd_sc_hd__a211oi_1
*I *1931:Y O *D sky130_fd_sc_hd__inv_2
*CAP
1 *2217:A1 8.64558e-05
2 *1931:Y 8.64558e-05
3 *2357:D *2217:A1 8.15332e-05
*RES
1 *1931:Y *2217:A1 4.34 
*END

*D_NET *271 0.00735788
*CONN
*I *1957:A I *D sky130_fd_sc_hd__nor3_4
*I *2148:A I *D sky130_fd_sc_hd__nor2_1
*I *2160:A I *D sky130_fd_sc_hd__or3_1
*I *2045:A I *D sky130_fd_sc_hd__or4_2
*I *2167:B2 I *D sky130_fd_sc_hd__a2bb2o_1
*I *2168:A1 I *D sky130_fd_sc_hd__o22ai_1
*I *1932:Y O *D sky130_fd_sc_hd__inv_2
*CAP
1 *1957:A 0.000195024
2 *2148:A 0
3 *2160:A 0.000111434
4 *2045:A 0.000166418
5 *2167:B2 1.85694e-05
6 *2168:A1 0.000175119
7 *1932:Y 0
8 *271:64 0.000256913
9 *271:53 0.000639936
10 *271:16 0.00064029
11 *271:6 0.000613019
12 *271:4 0.000466612
13 *1957:A *2094:A 0.000196825
14 *1957:A *316:28 3.09164e-05
15 *1957:A *554:6 6.1357e-05
16 *1957:A *554:10 0.00015639
17 *1957:A *613:89 0
18 *1957:A *620:44 2.28346e-05
19 *1957:A *620:62 6.67222e-05
20 *2045:A *1957:B 8.23457e-05
21 *2045:A *2045:B 7.00889e-06
22 *2045:A *2045:C 8.40213e-05
23 *2045:A *288:14 4.82863e-05
24 *2045:A *288:25 0.00010978
25 *2045:A *414:10 0.000303732
26 *2045:A *472:14 0.000295895
27 *2045:A *472:55 4.60584e-05
28 *2160:A *2094:A 0.000247567
29 *2160:A *2160:B 7.47215e-05
30 *2167:B2 *649:45 9.53428e-06
31 *2167:B2 *649:54 0
32 *2168:A1 *1975:B2 4.66108e-05
33 *2168:A1 *2168:A2 4.66108e-05
34 *2168:A1 *286:46 2.53191e-06
35 *2168:A1 *648:40 0.000300765
36 *2168:A1 *649:45 0.000106208
37 *2168:A1 *651:55 0.000309735
38 *271:16 *2341:CLK 0.000196729
39 *271:16 *286:46 1.17437e-05
40 *271:16 *414:10 0.000176671
41 *271:16 *472:14 9.50342e-06
42 *271:16 *649:45 0.000181284
43 *271:16 *650:10 4.82863e-05
44 *271:53 *472:39 0.000682383
45 *271:64 *2094:A 0.00010596
46 *271:64 *613:89 0
47 *271:64 *620:44 5.53249e-06
*RES
1 *1932:Y *271:4 1.6 
2 *271:4 *271:6 2 
3 *271:6 *271:16 9.545 
4 *271:16 *2168:A1 10.865 
5 *271:16 *2167:B2 1.96 
6 *271:6 *2045:A 9.45 
7 *271:4 *271:53 8.315 
8 *271:53 *2160:A 6.51 
9 *271:53 *271:64 1.38 
10 *271:64 *2148:A 3.6 
11 *271:64 *1957:A 8.52 
*END

*D_NET *272 0.00266256
*CONN
*I *2172:A1 I *D sky130_fd_sc_hd__a211o_1
*I *1949:B I *D sky130_fd_sc_hd__and3_1
*I *2168:B2 I *D sky130_fd_sc_hd__o22ai_1
*I *2150:A I *D sky130_fd_sc_hd__nor2_1
*I *1933:Y O *D sky130_fd_sc_hd__inv_2
*CAP
1 *2172:A1 0
2 *1949:B 0.000219976
3 *2168:B2 5.55922e-05
4 *2150:A 5.2831e-05
5 *1933:Y 0.000130351
6 *272:16 0.000174839
7 *272:12 0.000306361
8 *272:10 0.00015032
9 *1949:B *273:42 0.000304474
10 *2150:A *1975:B2 0.000318091
11 *2150:A *2168:B1 2.75145e-05
12 *2150:A *273:42 0.000145184
13 *2168:B2 *1975:B2 0.000112349
14 *2168:B2 *2168:B1 2.75229e-05
15 *2168:B2 *2172:B1 1.83847e-05
16 *272:10 *2153:B1 0.000123225
17 *272:10 *430:10 3.39064e-05
18 *272:10 *621:36 0.000116151
19 *272:12 *2168:B1 6.46607e-05
20 *272:12 *621:36 7.37606e-05
21 *272:16 *2168:B1 9.16941e-05
22 *272:16 *621:36 0.000115377
*RES
1 *1933:Y *272:10 6.12 
2 *272:10 *272:12 0.87 
3 *272:12 *272:16 3.635 
4 *272:16 *2150:A 4.465 
5 *272:16 *2168:B2 3.1 
6 *272:12 *1949:B 6.465 
7 *272:10 *2172:A1 3.6 
*END

*D_NET *273 0.0150649
*CONN
*I *653:DIODE I *D sky130_fd_sc_hd__diode_2
*I *2045:B I *D sky130_fd_sc_hd__or4_2
*I *665:DIODE I *D sky130_fd_sc_hd__diode_2
*I *1934:Y O *D sky130_fd_sc_hd__inv_2
*CAP
1 *653:DIODE 0
2 *2045:B 0.000129963
3 *665:DIODE 0
4 *1934:Y 7.66771e-05
5 *273:42 0.00242693
6 *273:22 0.00440573
7 *273:6 0.00218543
8 *2045:B *285:12 3.1835e-05
9 *2045:B *472:55 3.43427e-05
10 *273:6 *1962:C 5.36384e-06
11 *273:22 *1953:B1_N 2.68526e-05
12 *273:22 *1973:A2 0.000116158
13 *273:22 *2029:B 0.00013194
14 *273:22 *2304:CLK 0.000201542
15 *273:22 *2339:CLK 0.000840738
16 *273:22 *2403:A 7.15674e-05
17 *273:22 *324:16 0.000462496
18 *273:22 *324:22 0.000563316
19 *273:22 *324:24 0.000202106
20 *273:22 *470:115 0
21 *273:22 *608:71 0.000139238
22 *273:22 *618:43 0
23 *273:22 *622:14 0
24 *273:22 *637:29 0.000404896
25 *273:22 *640:25 1.15688e-05
26 *273:42 *1949:A 2.75229e-05
27 *273:42 *1950:C 2.25561e-05
28 *273:42 *1972:A1 0.000166204
29 *273:42 *1972:B1 1.83756e-05
30 *273:42 *1972:B2 0.000660578
31 *273:42 *1973:A2 4.82863e-05
32 *273:42 *1975:B2 0.000290386
33 *273:42 *2168:B1 0.00011255
34 *273:42 *2172:C1 2.75145e-05
35 *273:42 *2333:CLK 7.20129e-05
36 *273:42 *285:12 5.63708e-05
37 *273:42 *286:8 4.82919e-05
38 *273:42 *295:43 9.27255e-06
39 *273:42 *472:55 4.92341e-05
40 *273:42 *555:20 3.52139e-06
41 *273:42 *620:26 0.000201508
42 *273:42 *620:30 4.83066e-05
43 *273:42 *647:8 2.49909e-05
44 *1949:B *273:42 0.000304474
45 *2045:A *2045:B 7.00889e-06
46 *2150:A *273:42 0.000145184
47 *2271:RESET_B *273:22 0.000166346
48 *2304:D *273:22 4.75576e-05
49 *2304:RESET_B *273:22 3.33741e-05
50 *2306:RESET_B *273:22 0
51 *2333:D *273:42 4.82319e-06
52 *2338:D *273:42 0
*RES
1 *1934:Y *273:6 2.395 
2 *273:6 *273:22 49.98 
3 *273:22 *273:42 40.26 
4 *273:42 *665:DIODE 1.6 
5 *273:42 *2045:B 3.79 
6 *273:6 *653:DIODE 1.6 
*END

*D_NET *274 0.00279683
*CONN
*I *2051:A1 I *D sky130_fd_sc_hd__a41o_1
*I *2132:A I *D sky130_fd_sc_hd__nand2_1
*I *2131:A I *D sky130_fd_sc_hd__nor2_1
*I *1935:Y O *D sky130_fd_sc_hd__inv_2
*CAP
1 *2051:A1 0.000190259
2 *2132:A 2.51513e-05
3 *2131:A 7.40356e-05
4 *1935:Y 0
5 *274:6 0.000193974
6 *274:4 0.000285045
7 *2051:A1 *2051:A4 0.000160635
8 *2051:A1 *2051:B1 8.65961e-05
9 *2051:A1 *500:49 4.37103e-05
10 *2051:A1 *500:70 7.88861e-05
11 *2131:A *2128:A 9.44132e-06
12 *2131:A *2131:B 1.16919e-05
13 *2131:A *2132:B 0.000307217
14 *2131:A *2382:A 4.60584e-05
15 *2131:A *500:49 0.000393572
16 *274:6 *1935:A 0.000425312
17 *274:6 *2382:A 1.60203e-05
18 *274:6 *500:49 0.00044923
*RES
1 *1935:Y *274:4 1.6 
2 *274:4 *274:6 4.59 
3 *274:6 *2131:A 5.515 
4 *274:6 *2132:A 1.96 
5 *274:4 *2051:A1 6.355 
*END

*D_NET *275 0.00339649
*CONN
*I *2126:A I *D sky130_fd_sc_hd__nand2_1
*I *2051:A2 I *D sky130_fd_sc_hd__a41o_1
*I *1936:Y O *D sky130_fd_sc_hd__inv_2
*CAP
1 *2126:A 0.000158056
2 *2051:A2 0.000324706
3 *1936:Y 0
4 *275:4 0.000482762
5 *2051:A2 *2041:B 0.000148089
6 *2051:A2 *2041:C 3.14103e-05
7 *2051:A2 *2042:A 0.000158965
8 *2051:A2 *2051:A3 0.000137216
9 *2051:A2 *2051:A4 7.35358e-05
10 *2051:A2 *2054:A3 9.50342e-06
11 *2051:A2 *2054:B1 0.00023468
12 *2051:A2 *2328:CLK 0.000562337
13 *2051:A2 *2383:A 0.000310664
14 *2051:A2 *332:8 4.13092e-05
15 *2051:A2 *343:8 0.000139238
16 *2051:A2 *500:70 0.000195039
17 *2126:A *2127:B 7.23533e-05
18 *2126:A *465:135 0.000197407
19 *2126:A *514:10 4.74383e-05
20 *2126:A *514:12 6.73424e-05
21 *2126:A *514:18 4.43871e-06
22 *2126:A *621:52 0
*RES
1 *1936:Y *275:4 1.6 
2 *275:4 *2051:A2 18.2525 
3 *275:4 *2126:A 9.785 
*END

*D_NET *276 0.00156632
*CONN
*I *2169:A2 I *D sky130_fd_sc_hd__o22ai_1
*I *2170:A2 I *D sky130_fd_sc_hd__a2111o_1
*I *1938:Y O *D sky130_fd_sc_hd__inv_2
*CAP
1 *2169:A2 0
2 *2170:A2 5.09122e-05
3 *1938:Y 0.000313076
4 *276:12 0.000363988
5 *2170:A2 *2169:B1 4.99619e-05
6 *2170:A2 *2169:B2 0.000124007
7 *2170:A2 *2170:A1 1.46744e-05
8 *2170:A2 *648:27 9.61303e-05
9 *276:12 *469:76 0
10 *276:12 *469:93 0
11 *276:12 *621:42 0
12 *276:12 *621:46 0
13 *276:12 *648:21 4.82863e-05
14 *276:12 *648:27 1.60203e-05
15 *170:48 *276:12 0.000371664
16 *170:70 *276:12 0.000117599
*RES
1 *1938:Y *276:12 12.11 
2 *276:12 *2170:A2 3.445 
3 *276:12 *2169:A2 1.6 
*END

*D_NET *277 0.00106673
*CONN
*I *2167:A2_N I *D sky130_fd_sc_hd__a2bb2o_1
*I *2171:A2 I *D sky130_fd_sc_hd__a221o_1
*I *1939:Y O *D sky130_fd_sc_hd__inv_2
*CAP
1 *2167:A2_N 0.000142667
2 *2171:A2 4.78597e-05
3 *1939:Y 0.000132405
4 *277:6 0.000322932
5 *2167:A2_N *649:45 3.29384e-05
6 *2167:A2_N *649:54 3.95409e-05
7 *2171:A2 *2171:A1 0.000116158
8 *2171:A2 *2171:B1 5.53249e-06
9 *2171:A2 *465:171 6.8725e-06
10 *2171:A2 *621:36 0.000137578
11 *2171:A2 *651:40 5.80482e-06
12 *277:6 *649:54 8.73389e-06
13 *277:6 *649:58 6.77062e-05
*RES
1 *1939:Y *277:6 3.775 
2 *277:6 *2171:A2 7.35875 
3 *277:6 *2167:A2_N 3.79 
*END

*D_NET *278 0.00112978
*CONN
*I *2171:B1 I *D sky130_fd_sc_hd__a221o_1
*I *2169:B1 I *D sky130_fd_sc_hd__o22ai_1
*I *1940:Y O *D sky130_fd_sc_hd__inv_2
*CAP
1 *2171:B1 9.58108e-05
2 *2169:B1 0.000117069
3 *1940:Y 0.000103701
4 *278:10 0.000316581
5 *2169:B1 *2170:A1 8.8266e-05
6 *2169:B1 *2170:C1 4.01904e-05
7 *2169:B1 *2170:D1 8.65905e-05
8 *2171:B1 *2171:C1 5.42473e-05
9 *2171:B1 *621:36 7.8458e-05
10 *2171:B1 *621:42 1.22762e-05
11 *2171:B1 *651:27 0
12 *278:10 *469:93 4.99619e-05
13 *278:10 *621:42 3.11325e-05
14 *278:10 *651:27 0
15 *2170:A2 *2169:B1 4.99619e-05
16 *2171:A2 *2171:B1 5.53249e-06
*RES
1 *1940:Y *278:10 5.175 
2 *278:10 *2169:B1 6.12 
3 *278:10 *2171:B1 6.255 
*END

*D_NET *279 0.000653686
*CONN
*I *2163:B2 I *D sky130_fd_sc_hd__a32o_1
*I *1941:Y O *D sky130_fd_sc_hd__inv_2
*CAP
1 *2163:B2 8.4157e-05
2 *1941:Y 8.4157e-05
3 *2163:B2 *2089:B 0.000116165
4 *2163:B2 *2157:B1 8.49936e-05
5 *2163:B2 *2163:A1 4.82863e-05
6 *2163:B2 *282:10 0.000119762
7 *2163:B2 *579:26 0.000116165
*RES
1 *1941:Y *2163:B2 10.065 
*END

*D_NET *280 0.00710737
*CONN
*I *1998:B I *D sky130_fd_sc_hd__or2_1
*I *2007:A2 I *D sky130_fd_sc_hd__o221a_1
*I *2008:A2 I *D sky130_fd_sc_hd__o221a_1
*I *1999:A2 I *D sky130_fd_sc_hd__a22o_1
*I *1992:B1 I *D sky130_fd_sc_hd__a21o_1
*I *1980:B I *D sky130_fd_sc_hd__or2_1
*I *1981:A2 I *D sky130_fd_sc_hd__a22o_1
*I *1965:A I *D sky130_fd_sc_hd__nor2_1
*I *1942:Y O *D sky130_fd_sc_hd__inv_2
*CAP
1 *1998:B 0
2 *2007:A2 0.000146403
3 *2008:A2 0
4 *1999:A2 0
5 *1992:B1 0
6 *1980:B 0
7 *1981:A2 1.36534e-05
8 *1965:A 0.000133324
9 *1942:Y 2.78608e-05
10 *280:85 0.000425331
11 *280:68 0.000581866
12 *280:62 0.000502974
13 *280:51 0.000344313
14 *280:38 0.000220192
15 *280:25 0.000189096
16 *280:6 0.000260714
17 *1965:A *1981:A1 0
18 *1965:A *1985:A2 0
19 *1981:A2 *1981:B2 4.66108e-05
20 *1981:A2 *296:6 4.66108e-05
21 *2007:A2 *2007:B1 4.99619e-05
22 *2007:A2 *2007:B2 5.83589e-05
23 *2007:A2 *2007:C1 4.66108e-05
24 *2007:A2 *2008:A1 0.000241483
25 *280:6 *1968:A 9.66021e-05
26 *280:6 *488:37 0.000163199
27 *280:25 *1968:A 5.83121e-06
28 *280:25 *1990:B2 4.9968e-05
29 *280:25 *296:6 0.000234669
30 *280:25 *488:37 0.000300412
31 *280:38 *1981:B2 8.65961e-05
32 *280:38 *1994:B1 0.000121437
33 *280:38 *296:6 0.000175381
34 *280:51 *1987:B2 0
35 *280:51 *1993:B1 6.28765e-05
36 *280:51 *1994:B1 8.8266e-05
37 *280:51 *296:6 9.21168e-05
38 *280:62 *1992:A1 0.000272379
39 *280:62 *560:24 0.000103041
40 *280:68 *1992:A1 9.80032e-06
41 *280:68 *1995:A 3.52139e-06
42 *280:68 *1999:A1 0.000265276
43 *280:68 *1999:B1 4.87465e-06
44 *280:68 *2000:B1 1.85674e-05
45 *280:85 *1995:A 0.000184513
46 *280:85 *1999:B1 1.27695e-05
47 *280:85 *2000:B1 7.62212e-05
48 *280:85 *2000:C1 0.000320061
49 *280:85 *2008:B2 4.82919e-05
50 *280:85 *296:40 0.000309607
51 *280:85 *296:48 0.000214442
52 *280:85 *314:8 9.91257e-05
53 *280:85 *609:29 0.000151541
54 *2273:D *280:51 0
55 *2278:D *280:85 0.000200615
*RES
1 *1942:Y *280:6 3.085 
2 *280:6 *1965:A 7.49 
3 *280:6 *280:25 7.48 
4 *280:25 *1981:A2 2.05 
5 *280:25 *280:38 2.64 
6 *280:38 *1980:B 1.6 
7 *280:38 *280:51 7.12 
8 *280:51 *1992:B1 1.6 
9 *280:51 *280:62 4.365 
10 *280:62 *280:68 4.185 
11 *280:68 *1999:A2 1.6 
12 *280:68 *280:85 11.22 
13 *280:85 *2008:A2 1.6 
14 *280:85 *2007:A2 9.02 
15 *280:62 *1998:B 1.6 
*END

*D_NET *281 0.00584779
*CONN
*I *1995:A I *D sky130_fd_sc_hd__and2_1
*I *2394:A I *D sky130_fd_sc_hd__buf_2
*I *1943:Y O *D sky130_fd_sc_hd__inv_2
*CAP
1 *1995:A 0.00129503
2 *2394:A 0
3 *1943:Y 0.000304306
4 *281:14 0.00159933
5 *1995:A *1980:A 3.23391e-05
6 *1995:A *1990:B2 2.25161e-05
7 *1995:A *1994:B1 8.53113e-06
8 *1995:A *1999:A1 1.17409e-05
9 *1995:A *1999:B1 0.00080154
10 *1995:A *2000:C1 4.82863e-05
11 *1995:A *2390:A 0
12 *1995:A *560:36 0.000387896
13 *1995:A *614:23 0.000112622
14 *1995:A *614:101 0.000196376
15 *1995:A *621:36 2.86623e-05
16 *281:14 *1943:A 1.91597e-05
17 *281:14 *1968:B 0.000158072
18 *281:14 *1981:B1 0
19 *281:14 *1985:A1 1.08758e-05
20 *281:14 *488:37 1.47256e-05
21 *281:14 *542:82 0.000112823
22 *281:14 *560:36 0.000198945
23 *281:14 *614:10 0
24 *281:14 *614:23 7.79548e-05
25 *281:14 *614:48 9.58678e-06
26 *2277:D *1995:A 9.50342e-06
27 *2278:D *1995:A 0.000198939
28 *280:68 *1995:A 3.52139e-06
29 *280:85 *1995:A 0.000184513
*RES
1 *1943:Y *281:14 10.985 
2 *281:14 *2394:A 1.6 
3 *281:14 *1995:A 29.58 
*END

*D_NET *282 0.00156299
*CONN
*I *2154:B I *D sky130_fd_sc_hd__and2_1
*I *2163:A1 I *D sky130_fd_sc_hd__a32o_1
*I *1944:Y O *D sky130_fd_sc_hd__inv_2
*CAP
1 *2154:B 0.000107294
2 *2163:A1 8.1802e-05
3 *1944:Y 0.00017056
4 *282:10 0.000359656
5 *2154:B *2089:B 2.23407e-05
6 *2154:B *2154:A 4.18603e-06
7 *2154:B *2163:B1 7.18452e-06
8 *2154:B *316:28 0
9 *2154:B *316:34 0
10 *2154:B *415:10 0.000136884
11 *2154:B *546:23 4.82863e-05
12 *2154:B *601:18 4.82863e-05
13 *2163:A1 *2157:B1 3.63269e-05
14 *2163:A1 *2163:A3 5.4155e-06
15 *2163:A1 *2163:B1 1.35171e-05
16 *2163:A1 *415:16 4.82919e-05
17 *282:10 *2157:A2 0.00023468
18 *282:10 *2157:B1 3.36005e-05
19 *282:10 *415:16 3.66286e-05
20 *2163:B2 *2163:A1 4.82863e-05
21 *2163:B2 *282:10 0.000119762
*RES
1 *1944:Y *282:10 5.62 
2 *282:10 *2163:A1 3.445 
3 *282:10 *2154:B 8.195 
*END

*D_NET *283 0.00126906
*CONN
*I *2163:A2 I *D sky130_fd_sc_hd__a32o_1
*I *1945:Y O *D sky130_fd_sc_hd__inv_2
*CAP
1 *2163:A2 0.000297828
2 *1945:Y 0.000297828
3 *2163:A2 *316:28 0.000180682
4 *2163:A2 *601:18 0.000421068
5 *2163:A2 *621:203 7.16524e-05
*RES
1 *1945:Y *2163:A2 13.245 
*END

*D_NET *284 0.00134387
*CONN
*I *1957:B I *D sky130_fd_sc_hd__nor3_4
*I *2045:C I *D sky130_fd_sc_hd__or4_2
*I *1948:B I *D sky130_fd_sc_hd__nor2_1
*I *1947:X O *D sky130_fd_sc_hd__or2_1
*CAP
1 *1957:B 6.31986e-05
2 *2045:C 4.23074e-05
3 *1948:B 0.000163452
4 *1947:X 0
5 *284:19 0.000155164
6 *284:4 0.000213109
7 *1948:B *1948:A 4.87465e-06
8 *1948:B *648:76 0.00015896
9 *1948:B *649:33 8.57024e-05
10 *1957:B *288:25 2.42043e-05
11 *284:19 *465:171 0.000133268
12 *284:19 *472:14 0.000133268
13 *2045:A *1957:B 8.23457e-05
14 *2045:A *2045:C 8.40213e-05
*RES
1 *1947:X *284:4 1.6 
2 *284:4 *1948:B 4.735 
3 *284:4 *284:19 5.635 
4 *284:19 *2045:C 2.395 
5 *284:19 *1957:B 2.74 
*END

*D_NET *285 0.00107091
*CONN
*I *1949:C I *D sky130_fd_sc_hd__and3_1
*I *1950:C I *D sky130_fd_sc_hd__and3b_1
*I *1948:Y O *D sky130_fd_sc_hd__nor2_1
*CAP
1 *1949:C 0
2 *1950:C 7.09958e-05
3 *1948:Y 0.000134615
4 *285:12 0.000205611
5 *1950:C *286:12 9.30787e-05
6 *1950:C *472:55 5.90459e-05
7 *1950:C *651:72 1.70935e-05
8 *285:12 *335:16 7.1242e-05
9 *285:12 *465:171 0
10 *285:12 *472:55 0.000223144
11 *2045:B *285:12 3.1835e-05
12 *170:70 *285:12 8.53244e-05
13 *273:42 *1950:C 2.25561e-05
14 *273:42 *285:12 5.63708e-05
*RES
1 *1948:Y *285:12 9.545 
2 *285:12 *1950:C 7.295 
3 *285:12 *1949:C 1.6 
*END

*D_NET *286 0.0125346
*CONN
*I *2094:A I *D sky130_fd_sc_hd__or4_1
*I *2157:B1 I *D sky130_fd_sc_hd__o21a_1
*I *2163:A3 I *D sky130_fd_sc_hd__a32o_1
*I *2090:C_N I *D sky130_fd_sc_hd__or3b_1
*I *1951:A I *D sky130_fd_sc_hd__or2_2
*I *2007:B1 I *D sky130_fd_sc_hd__o221a_1
*I *1949:X O *D sky130_fd_sc_hd__and3_1
*CAP
1 *2094:A 0.000232081
2 *2157:B1 0.000383569
3 *2163:A3 1.88809e-05
4 *2090:C_N 0.000143531
5 *1951:A 4.87878e-05
6 *2007:B1 0.000529435
7 *1949:X 3.38648e-05
8 *286:69 0.000954496
9 *286:63 0.000944504
10 *286:46 0.00128937
11 *286:12 0.00108717
12 *286:8 0.00152827
13 *1951:A *1995:B 2.46007e-05
14 *1951:A *287:25 0
15 *2007:B1 *2007:B2 3.00381e-05
16 *2007:B1 *2007:C1 1.79483e-05
17 *2007:B1 *2072:A 0
18 *2007:B1 *287:25 0
19 *2007:B1 *488:37 0.000465398
20 *2007:B1 *490:65 0
21 *2007:B1 *490:67 0
22 *2007:B1 *609:29 0
23 *2090:C_N *2053:B 6.8665e-05
24 *2090:C_N *2081:A3 9.30717e-05
25 *2090:C_N *2084:B 8.65905e-05
26 *2090:C_N *2085:B 2.23485e-05
27 *2090:C_N *2162:A_N 4.82863e-05
28 *2090:C_N *554:32 2.05661e-05
29 *2090:C_N *554:44 0.000136877
30 *2090:C_N *601:18 0.000114492
31 *2090:C_N *615:156 1.07797e-05
32 *2090:C_N *621:203 2.16917e-05
33 *2094:A *2003:A1 2.03645e-06
34 *2094:A *2160:B 7.90356e-06
35 *2094:A *316:16 9.53428e-06
36 *2094:A *316:28 7.71289e-05
37 *2094:A *319:10 0.000387134
38 *2094:A *319:76 0.000311316
39 *2094:A *546:31 1.71013e-05
40 *2094:A *554:123 1.5914e-05
41 *2157:B1 *2163:B1 2.09749e-05
42 *286:12 *1950:B 5.21627e-05
43 *286:12 *1995:B 3.68769e-05
44 *286:12 *2153:A1 0
45 *286:12 *2153:B1 3.9442e-05
46 *286:12 *287:25 0
47 *286:12 *621:36 0
48 *286:12 *651:55 2.60687e-05
49 *286:12 *651:72 8.09021e-06
50 *286:12 *651:81 0
51 *286:46 *2167:B1 6.43623e-05
52 *286:46 *2168:A2 0.000289505
53 *286:46 *2341:CLK 8.75591e-05
54 *286:46 *601:18 1.56428e-05
55 *286:46 *648:40 0.000214227
56 *286:46 *649:45 0.000230925
57 *286:46 *651:55 0
58 *286:63 *2160:C 2.49909e-05
59 *286:63 *601:18 4.79712e-05
60 *286:69 *2159:A1 4.66742e-05
61 *286:69 *2159:B1 0.000884956
62 *286:69 *2164:B1 4.36241e-05
63 *286:69 *319:10 9.5433e-05
64 *286:69 *546:31 4.51081e-05
65 *1950:C *286:12 9.30787e-05
66 *1957:A *2094:A 0.000196825
67 *2007:A2 *2007:B1 4.99619e-05
68 *2160:A *2094:A 0.000247567
69 *2163:A1 *2157:B1 3.63269e-05
70 *2163:A1 *2163:A3 5.4155e-06
71 *2163:B2 *2157:B1 8.49936e-05
72 *2168:A1 *286:46 2.53191e-06
73 *2340:D *286:69 4.99619e-05
74 *2341:D *286:46 5.01066e-05
75 *170:70 *286:12 0
76 *170:70 *286:46 6.02609e-05
77 *271:16 *286:46 1.17437e-05
78 *271:64 *2094:A 0.00010596
79 *273:42 *286:8 4.82919e-05
80 *282:10 *2157:B1 3.36005e-05
*RES
1 *1949:X *286:8 4.05 
2 *286:8 *286:12 8.715 
3 *286:12 *2007:B1 15.4 
4 *286:12 *1951:A 4.47 
5 *286:8 *286:46 17.3 
6 *286:46 *2090:C_N 10.07 
7 *286:46 *286:63 3.83 
8 *286:63 *286:69 13.235 
9 *286:69 *2163:A3 1.96 
10 *286:69 *2157:B1 6.475 
11 *286:63 *2094:A 12.48 
*END

*D_NET *287 0.00284848
*CONN
*I *2153:A1 I *D sky130_fd_sc_hd__o211a_1
*I *2008:B1 I *D sky130_fd_sc_hd__o221a_1
*I *1951:B I *D sky130_fd_sc_hd__or2_2
*I *2151:A I *D sky130_fd_sc_hd__nor2_1
*I *1950:X O *D sky130_fd_sc_hd__and3b_1
*CAP
1 *2153:A1 0.000131172
2 *2008:B1 7.61069e-05
3 *1951:B 2.12988e-05
4 *2151:A 0.000140067
5 *1950:X 0
6 *287:25 0.000487243
7 *287:21 0.000627144
8 *287:4 0.000246201
9 *1951:B *655:DIODE 4.99619e-05
10 *1951:B *2079:A4 0.000124895
11 *1951:B *360:16 4.35348e-05
12 *2008:B1 *1995:B 0
13 *2008:B1 *2007:C1 9.58678e-06
14 *2008:B1 *609:29 0.000133611
15 *2151:A *1950:B 8.8266e-05
16 *2151:A *379:10 0.000272984
17 *2151:A *621:36 5.33085e-05
18 *2151:A *651:72 9.50342e-06
19 *2151:A *651:81 4.21314e-05
20 *2153:A1 *2153:B1 6.45018e-05
21 *2153:A1 *288:14 2.96553e-05
22 *2153:A1 *379:8 2.75145e-05
23 *2153:A1 *379:10 2.16917e-05
24 *287:21 *2153:B1 0.0001249
25 *287:21 *379:10 1.46744e-05
26 *287:25 *1995:B 0
27 *287:25 *465:171 0
28 *287:25 *609:29 8.53113e-06
29 *1951:A *287:25 0
30 *2007:B1 *287:25 0
31 *286:12 *2153:A1 0
32 *286:12 *287:25 0
*RES
1 *1950:X *287:4 1.6 
2 *287:4 *2151:A 9.095 
3 *287:4 *287:21 1.485 
4 *287:21 *287:25 7.97 
5 *287:25 *1951:B 4.74 
6 *287:25 *2008:B1 5.235 
7 *287:21 *2153:A1 7.61 
*END

*D_NET *288 0.00218159
*CONN
*I *1957:C I *D sky130_fd_sc_hd__nor3_4
*I *1996:B I *D sky130_fd_sc_hd__nor2_1
*I *2045:D I *D sky130_fd_sc_hd__or4_2
*I *1956:X O *D sky130_fd_sc_hd__or2_1
*CAP
1 *1957:C 0
2 *1996:B 7.81517e-05
3 *2045:D 0
4 *1956:X 0.000337928
5 *288:25 0.00018957
6 *288:14 0.000449346
7 *1996:B *2001:A_N 0
8 *1996:B *316:8 0.00015763
9 *1996:B *414:10 0.00019707
10 *288:14 *2153:B1 0
11 *288:14 *295:101 0.000161829
12 *288:14 *465:171 0.000266612
13 *288:14 *472:55 4.66108e-05
14 *288:25 *472:55 8.49205e-05
15 *1957:B *288:25 2.42043e-05
16 *2045:A *288:14 4.82863e-05
17 *2045:A *288:25 0.00010978
18 *2153:A1 *288:14 2.96553e-05
*RES
1 *1956:X *288:14 11.735 
2 *288:14 *2045:D 1.6 
3 *288:14 *288:25 2.295 
4 *288:25 *1996:B 8 
5 *288:25 *1957:C 1.6 
*END

*D_NET *289 0.00842004
*CONN
*I *2056:A I *D sky130_fd_sc_hd__nand3_1
*I *2063:A1 I *D sky130_fd_sc_hd__o21ba_1
*I *2224:A1 I *D sky130_fd_sc_hd__o211a_1
*I *1959:A I *D sky130_fd_sc_hd__inv_2
*I *2057:A I *D sky130_fd_sc_hd__and4_1
*I *1958:X O *D sky130_fd_sc_hd__or4b_4
*CAP
1 *2056:A 2.70832e-05
2 *2063:A1 2.89741e-05
3 *2224:A1 5.25404e-05
4 *1959:A 0
5 *2057:A 0
6 *1958:X 5.81042e-06
7 *289:35 0.00113988
8 *289:27 0.00222593
9 *289:17 0.0013118
10 *289:6 0.000180898
11 *2056:A *345:6 2.49909e-05
12 *2063:A1 *607:53 2.49909e-05
13 *2224:A1 *462:12 0.000163204
14 *2224:A1 *559:34 0.000145184
15 *289:6 *338:10 4.99619e-05
16 *289:6 *498:46 4.99619e-05
17 *289:17 *2057:C 5.2977e-05
18 *289:17 *2058:C 4.66108e-05
19 *289:17 *2097:B 0.000144055
20 *289:17 *334:16 8.74292e-05
21 *289:17 *338:10 0.000163199
22 *289:17 *338:21 3.57349e-05
23 *289:17 *346:6 8.40213e-05
24 *289:17 *498:46 0.000153986
25 *289:27 *2043:B 0
26 *289:27 *2097:B 1.93765e-05
27 *289:27 *332:8 0
28 *289:27 *334:16 3.59531e-06
29 *289:27 *352:16 0
30 *289:27 *465:129 0
31 *289:35 *2055:A 0.000312182
32 *289:35 *2059:A3 3.64998e-06
33 *289:35 *2063:A2 0.00020613
34 *289:35 *2224:A2 0
35 *289:35 *2378:A 0.000160635
36 *289:35 *343:8 3.25831e-05
37 *289:35 *465:129 0
38 *289:35 *559:8 0.000907623
39 *289:35 *559:34 1.12578e-05
40 *289:35 *607:53 0.000183745
41 *2307:D *289:27 0.000380043
42 *170:42 *289:27 0
*RES
1 *1958:X *289:6 2.05 
2 *289:6 *2057:A 1.6 
3 *289:6 *289:17 7.355 
4 *289:17 *289:27 8.6862 
5 *289:27 *289:35 23.75 
6 *289:35 *1959:A 1.6 
7 *289:35 *2224:A1 3.775 
8 *289:27 *2063:A1 4.05 
9 *289:17 *2056:A 4.05 
*END

*D_NET *290 0.00813292
*CONN
*I *2057:B I *D sky130_fd_sc_hd__and4_1
*I *1961:A I *D sky130_fd_sc_hd__inv_2
*I *1960:X O *D sky130_fd_sc_hd__or4b_2
*CAP
1 *2057:B 0.000246699
2 *1961:A 0.00184597
3 *1960:X 0
4 *290:4 0.00209267
5 *1961:A *1954:A1 0
6 *1961:A *1960:C 5.05521e-05
7 *1961:A *1964:A 7.63047e-05
8 *1961:A *1976:A2 0
9 *1961:A *1984:A2 0
10 *1961:A *1984:B2 5.78724e-05
11 *1961:A *1987:A1 0
12 *1961:A *1988:A1 0.000136877
13 *1961:A *1988:A2 0.000134523
14 *1961:A *1989:A 0.000180395
15 *1961:A *1991:A1 0.000309722
16 *1961:A *1991:A2 0.00016163
17 *1961:A *2393:A 0
18 *1961:A *295:10 0
19 *1961:A *295:28 0
20 *1961:A *295:43 0
21 *1961:A *295:49 0
22 *1961:A *471:8 0.000138551
23 *1961:A *471:19 0.000178255
24 *1961:A *471:36 0.000124895
25 *1961:A *488:10 0.000137578
26 *1961:A *488:16 0.0010136
27 *1961:A *495:25 0
28 *1961:A *497:41 5.39961e-05
29 *1961:A *541:18 0
30 *1961:A *542:12 0.000327732
31 *1961:A *542:14 2.37321e-05
32 *1961:A *542:16 0.000153046
33 *1961:A *542:20 0.000116823
34 *1961:A *555:10 4.38051e-05
35 *1961:A *555:20 0.000247574
36 *1961:A *634:21 7.25441e-05
37 *2057:B *338:10 0.000122155
38 *2057:B *496:41 2.09578e-05
39 *2057:B *613:57 0
40 *2057:B *634:21 6.44695e-05
*RES
1 *1960:X *290:4 1.6 
2 *290:4 *1961:A 49.445 
3 *290:4 *2057:B 9.095 
*END

*D_NET *291 0.0205135
*CONN
*I *711:DIODE I *D sky130_fd_sc_hd__diode_2
*I *2390:A I *D sky130_fd_sc_hd__buf_1
*I *2389:A I *D sky130_fd_sc_hd__buf_2
*I *710:DIODE I *D sky130_fd_sc_hd__diode_2
*I *709:DIODE I *D sky130_fd_sc_hd__diode_2
*I *2388:A I *D sky130_fd_sc_hd__clkbuf_2
*I *657:DIODE I *D sky130_fd_sc_hd__diode_2
*I *1963:X O *D sky130_fd_sc_hd__and2b_1
*CAP
1 *711:DIODE 4.18826e-05
2 *2390:A 0.000181852
3 *2389:A 0.000162317
4 *710:DIODE 0
5 *709:DIODE 2.28668e-05
6 *2388:A 4.37496e-05
7 *657:DIODE 0
8 *1963:X 6.63177e-05
9 *291:99 0.00300218
10 *291:72 0.00298694
11 *291:63 0.000965839
12 *291:33 0.00205696
13 *291:17 0.00373496
14 *291:6 0.000891273
15 *709:DIODE *2253:A 3.83041e-05
16 *711:DIODE *490:65 5.35969e-06
17 *2388:A *2253:A 6.11328e-05
18 *2389:A *1971:C 1.52184e-05
19 *2389:A *488:16 0
20 *2390:A *1995:B 4.18603e-06
21 *2390:A *2007:C1 4.18603e-06
22 *2390:A *609:29 0
23 *2390:A *621:36 0
24 *291:17 *2262:A 0.000496728
25 *291:17 *618:24 0
26 *291:17 *619:23 0.000106655
27 *291:33 *1946:B1_N 0.000293733
28 *291:33 *1953:A2 5.47426e-05
29 *291:33 *1953:B1_N 0.000114492
30 *291:33 *1954:B1_N 0
31 *291:33 *2226:A1 0.000233231
32 *291:33 *2226:B1 8.09021e-06
33 *291:33 *2262:A 0.00058031
34 *291:33 *2311:CLK 0.000217008
35 *291:33 *2312:CLK 0
36 *291:33 *2314:D 4.05053e-05
37 *291:33 *2363:D 5.11434e-05
38 *291:33 *2425:A 0
39 *291:33 *470:12 0.000331691
40 *291:33 *470:18 0.000127181
41 *291:33 *470:22 2.82477e-05
42 *291:33 *470:37 0
43 *291:33 *470:39 0
44 *291:33 *470:92 0.000160651
45 *291:33 *470:139 0.000160658
46 *291:33 *615:60 0
47 *291:33 *618:24 0
48 *291:33 *635:19 0.000344024
49 *291:33 *635:40 0.000448855
50 *291:63 *2173:C 0.000203628
51 *291:63 *2174:A 4.66108e-05
52 *291:63 *2184:B1 2.76356e-05
53 *291:63 *2345:CLK 3.64998e-06
54 *291:63 *432:12 4.82863e-05
55 *291:63 *479:53 4.21973e-05
56 *291:63 *487:32 1.85101e-05
57 *291:63 *603:53 9.14601e-05
58 *291:72 *603:53 2.96334e-05
59 *291:99 *1980:A 3.23391e-05
60 *291:99 *2197:B 9.50342e-06
61 *291:99 *2200:B1 1.56428e-05
62 *291:99 *2204:A_N 0.000112751
63 *291:99 *2204:B 3.78034e-06
64 *291:99 *2205:A2 2.24631e-05
65 *291:99 *2213:A 5.33085e-05
66 *291:99 *2386:A 0
67 *291:99 *473:24 3.03684e-05
68 *291:99 *488:16 0
69 *291:99 *488:63 0.000140145
70 *291:99 *603:16 0.000445574
71 *291:99 *603:47 0.000163199
72 *291:99 *604:33 0.000181141
73 *291:99 *604:35 0.000163663
74 *291:99 *605:25 0
75 *291:99 *621:36 0
76 *726:DIODE *291:17 1.0124e-05
77 *1963:B *291:6 2.61299e-05
78 *1963:B *291:17 4.05674e-06
79 *1995:A *2390:A 0
80 *2270:D *291:63 4.41871e-05
81 *2272:D *2389:A 0
82 *2272:D *291:99 0
83 *2345:D *291:63 6.86414e-05
84 *2355:D *291:99 5.02354e-05
85 *2362:D *291:33 4.746e-05
86 *2414:A *291:33 0.000293712
*RES
1 *1963:X *291:6 2.395 
2 *291:6 *657:DIODE 1.6 
3 *291:6 *291:17 14.96 
4 *291:17 *291:33 45.545 
5 *291:33 *2388:A 2.395 
6 *291:33 *709:DIODE 2.05 
7 *291:17 *291:63 15.23 
8 *291:63 *710:DIODE 1.6 
9 *291:63 *291:72 2.795 
10 *291:72 *2389:A 6 
11 *291:72 *291:99 44.03 
12 *291:99 *2390:A 6.51 
13 *291:99 *711:DIODE 4.05 
*END

*D_NET *292 0.0048968
*CONN
*I *1978:A2 I *D sky130_fd_sc_hd__a22o_1
*I *1969:A2 I *D sky130_fd_sc_hd__a22o_1
*I *1987:A2 I *D sky130_fd_sc_hd__a22o_1
*I *1984:A2 I *D sky130_fd_sc_hd__a22o_1
*I *1990:A2 I *D sky130_fd_sc_hd__a22o_1
*I *1975:A2 I *D sky130_fd_sc_hd__a22o_1
*I *1972:A2 I *D sky130_fd_sc_hd__a22o_1
*I *1964:Y O *D sky130_fd_sc_hd__nor2_2
*CAP
1 *1978:A2 1.41735e-05
2 *1969:A2 1.71066e-05
3 *1987:A2 0
4 *1984:A2 0.000232801
5 *1990:A2 2.08101e-05
6 *1975:A2 1.49415e-05
7 *1972:A2 0.000102521
8 *1964:Y 0.000226865
9 *292:59 0.000399809
10 *292:44 0.000359004
11 *292:31 0.000197864
12 *292:18 0.000211319
13 *292:16 0.000257229
14 *292:10 0.0003841
15 *1969:A2 *1954:A1 5.05521e-05
16 *1969:A2 *1969:A1 8.65961e-05
17 *1972:A2 *1969:A1 3.86087e-05
18 *1972:A2 *295:28 6.86819e-05
19 *1972:A2 *640:25 7.28749e-05
20 *1975:A2 *2035:A 0
21 *1978:A2 *1978:A1 8.65961e-05
22 *1978:A2 *556:48 8.65961e-05
23 *1984:A2 *1985:A2 0
24 *1984:A2 *1987:A1 9.50342e-06
25 *1984:A2 *1988:A2 0.000140844
26 *1984:A2 *555:20 1.94723e-05
27 *1984:A2 *613:23 1.34361e-05
28 *1984:A2 *635:40 8.26509e-05
29 *1984:A2 *635:50 2.57174e-05
30 *1990:A2 *1975:B2 0
31 *292:10 *1970:A2 0.000108329
32 *292:10 *1981:A1 0.00023468
33 *292:16 *1970:A2 0.000140912
34 *292:16 *1973:A2 1.46411e-05
35 *292:16 *295:20 0
36 *292:18 *1969:A1 0.000150453
37 *292:18 *1973:A2 1.01661e-05
38 *292:18 *295:24 0
39 *292:18 *295:28 2.03578e-05
40 *292:31 *1975:A1 2.75229e-05
41 *292:31 *2339:CLK 4.82919e-05
42 *292:44 *1975:A1 3.00381e-05
43 *292:44 *1975:B2 0.000198379
44 *292:44 *1976:A2 0.000108962
45 *292:44 *2035:A 0
46 *292:44 *2339:CLK 0.000123607
47 *292:59 *1975:B2 6.00111e-05
48 *292:59 *1987:A1 0.000221424
49 *292:59 *1990:B1 3.86607e-05
50 *292:59 *555:10 9.46776e-05
51 *292:59 *555:20 4.50153e-05
52 *1961:A *1984:A2 0
*RES
1 *1964:Y *292:10 7.155 
2 *292:10 *292:16 2.955 
3 *292:16 *292:18 2.145 
4 *292:18 *1972:A2 5.745 
5 *292:18 *292:31 2.45 
6 *292:31 *1975:A2 1.96 
7 *292:31 *292:44 4.62 
8 *292:44 *1990:A2 1.96 
9 *292:44 *292:59 6.245 
10 *292:59 *1984:A2 8.685 
11 *292:59 *1987:A2 3.6 
12 *292:16 *1969:A2 4.395 
13 *292:10 *1978:A2 4.395 
*END

*D_NET *293 0.00164067
*CONN
*I *2393:A I *D sky130_fd_sc_hd__clkbuf_2
*I *1965:Y O *D sky130_fd_sc_hd__nor2_1
*CAP
1 *2393:A 0.000249947
2 *1965:Y 0.000249947
3 *2393:A *659:DIODE 9.47454e-05
4 *2393:A *1954:A1 2.86623e-05
5 *2393:A *1965:B 0.000198939
6 *2393:A *1967:A 2.97561e-05
7 *2393:A *1985:A2 0.000528734
8 *2393:A *1987:A1 2.23407e-05
9 *2393:A *295:10 3.86607e-05
10 *2393:A *608:20 0.000198939
11 *1961:A *2393:A 0
*RES
1 *1965:Y *2393:A 15.255 
*END

*D_NET *294 0.000285392
*CONN
*I *1970:A1 I *D sky130_fd_sc_hd__o21a_1
*I *1966:X O *D sky130_fd_sc_hd__and3_1
*CAP
1 *1970:A1 8.24721e-05
2 *1966:X 8.24721e-05
3 *1970:A1 *1964:B 5.39718e-05
4 *1970:A1 *1973:A2 3.89528e-05
5 *1970:A1 *1981:A1 2.75229e-05
*RES
1 *1966:X *1970:A1 9.135 
*END

*D_NET *295 0.0143822
*CONN
*I *2005:B1 I *D sky130_fd_sc_hd__a22o_1
*I *2003:B1 I *D sky130_fd_sc_hd__a22o_1
*I *1978:B1 I *D sky130_fd_sc_hd__a22o_1
*I *1969:B1 I *D sky130_fd_sc_hd__a22o_1
*I *1975:B1 I *D sky130_fd_sc_hd__a22o_1
*I *1984:B1 I *D sky130_fd_sc_hd__a22o_1
*I *1986:B I *D sky130_fd_sc_hd__and2_1
*I *1989:B I *D sky130_fd_sc_hd__and2_1
*I *1972:B1 I *D sky130_fd_sc_hd__a22o_1
*I *1967:Y O *D sky130_fd_sc_hd__nor2_2
*CAP
1 *2005:B1 0
2 *2003:B1 0.000123132
3 *1978:B1 0
4 *1969:B1 2.43002e-05
5 *1975:B1 0
6 *1984:B1 0.000167486
7 *1986:B 6.23099e-05
8 *1989:B 0
9 *1972:B1 1.13669e-05
10 *1967:Y 4.6093e-05
11 *295:101 0.00193211
12 *295:49 0.000211177
13 *295:43 0.000575105
14 *295:28 0.000429378
15 *295:24 0.000313905
16 *295:20 0.000285378
17 *295:16 0.000431902
18 *295:10 0.00218054
19 *1969:B1 *1954:A1 2.75145e-05
20 *1972:B1 *555:20 2.30292e-05
21 *1984:B1 *1984:B2 4.82863e-05
22 *1984:B1 *1988:A1 0.000194694
23 *1984:B1 *635:40 3.63745e-05
24 *1986:B *1988:A1 8.65905e-05
25 *1986:B *1989:A 7.57202e-05
26 *2003:B1 *2004:A 0
27 *2003:B1 *2076:A3 0.0002014
28 *2003:B1 *613:135 2.97004e-06
29 *295:16 *1978:B2 0.000424824
30 *295:16 *1979:A2 5.83121e-06
31 *295:16 *556:48 5.64202e-05
32 *295:20 *1976:A2 0.000204463
33 *295:24 *1976:A2 0.000116853
34 *295:28 *1991:A2 0
35 *295:43 *1972:A1 5.4155e-06
36 *295:43 *1972:B2 0.000106136
37 *295:43 *1988:B1 0
38 *295:43 *1991:A1 7.8848e-05
39 *295:43 *1991:A2 7.44375e-05
40 *295:43 *555:20 0.000201503
41 *295:43 *640:25 0
42 *295:49 *1989:A 4.66108e-05
43 *295:49 *1991:A1 9.40431e-05
44 *295:49 *640:25 0
45 *295:101 *1956:A 4.47209e-05
46 *295:101 *1956:B 0.000112349
47 *295:101 *1978:B2 0.00238857
48 *295:101 *2000:A2 0.000151267
49 *295:101 *2005:A1 6.12852e-05
50 *295:101 *2005:B2 0.000581986
51 *295:101 *465:178 5.05521e-05
52 *295:101 *465:191 0.000291658
53 *295:101 *472:10 0.000316657
54 *295:101 *472:114 0.000316648
55 *295:101 *613:124 0.000119483
56 *295:101 *652:6 3.23663e-05
57 *295:101 *652:10 0.00015003
58 *295:101 *652:17 0.000411979
59 *1961:A *295:10 0
60 *1961:A *295:28 0
61 *1961:A *295:43 0
62 *1961:A *295:49 0
63 *1972:A2 *295:28 6.86819e-05
64 *2393:A *295:10 3.86607e-05
65 *59:21 *1986:B 6.52349e-05
66 *59:21 *295:49 6.40489e-05
67 *273:42 *1972:B1 1.83756e-05
68 *273:42 *295:43 9.27255e-06
69 *288:14 *295:101 0.000161829
70 *292:16 *295:20 0
71 *292:18 *295:24 0
72 *292:18 *295:28 2.03578e-05
*RES
1 *1967:Y *295:10 6.47 
2 *295:10 *295:16 4.965 
3 *295:16 *295:20 4.4 
4 *295:20 *295:24 2.43 
5 *295:24 *295:28 4.655 
6 *295:28 *1972:B1 2.05 
7 *295:28 *295:43 8.375 
8 *295:43 *295:49 5.12 
9 *295:49 *1989:B 1.6 
10 *295:49 *1986:B 3.43 
11 *295:43 *1984:B1 6.465 
12 *295:24 *1975:B1 3.6 
13 *295:20 *1969:B1 4.05 
14 *295:16 *1978:B1 1.6 
15 *295:10 *295:101 40.53 
16 *295:101 *2003:B1 8 
17 *295:101 *2005:B1 1.6 
*END

*D_NET *296 0.00692963
*CONN
*I *2000:A1 I *D sky130_fd_sc_hd__o211a_1
*I *2007:B2 I *D sky130_fd_sc_hd__o221a_1
*I *2008:B2 I *D sky130_fd_sc_hd__o221a_1
*I *1982:A2 I *D sky130_fd_sc_hd__o211a_1
*I *1993:A2 I *D sky130_fd_sc_hd__o211a_1
*I *1968:X O *D sky130_fd_sc_hd__or2_2
*CAP
1 *2000:A1 0
2 *2007:B2 0.000246478
3 *2008:B2 4.26464e-05
4 *1982:A2 0.000111546
5 *1993:A2 2.22881e-05
6 *1968:X 0.00015254
7 *296:48 0.00075477
8 *296:40 0.000721526
9 *296:15 0.000546004
10 *296:6 0.000353406
11 *1982:A2 *1982:A1 0.000119285
12 *1982:A2 *1982:B1 3.70572e-05
13 *1982:A2 *1999:A1 0.000109449
14 *1982:A2 *608:37 1.34503e-05
15 *1982:A2 *620:18 0.000204463
16 *1993:A2 *1993:B1 8.52137e-06
17 *2007:B2 *2007:C1 2.75145e-05
18 *2007:B2 *2008:A1 1.85343e-05
19 *2008:B2 *2008:A1 5.17271e-06
20 *296:6 *1981:B2 8.69014e-05
21 *296:6 *1982:B1 0.000313852
22 *296:6 *1993:B1 7.00889e-06
23 *296:6 *488:37 8.37704e-05
24 *296:15 *1993:B1 2.75145e-05
25 *296:15 *2073:A 2.75145e-05
26 *296:15 *488:37 0.000365761
27 *296:40 *2000:B1 0.000309607
28 *296:40 *2073:A 6.71882e-05
29 *296:40 *2073:B 0
30 *296:40 *2073:C 9.80943e-06
31 *296:40 *360:16 0.000179015
32 *296:40 *488:37 0.000300412
33 *296:40 *560:10 9.66021e-05
34 *296:48 *2000:A2 4.9968e-05
35 *296:48 *2000:B1 8.40269e-05
36 *296:48 *314:8 0.000164874
37 *296:48 *430:10 5.16348e-05
38 *1981:A2 *296:6 4.66108e-05
39 *2007:A2 *2007:B2 5.83589e-05
40 *2007:B1 *2007:B2 3.00381e-05
41 *280:25 *296:6 0.000234669
42 *280:38 *296:6 0.000175381
43 *280:51 *296:6 9.21168e-05
44 *280:85 *2008:B2 4.82919e-05
45 *280:85 *296:40 0.000309607
46 *280:85 *296:48 0.000214442
*RES
1 *1968:X *296:6 7.915 
2 *296:6 *1993:A2 1.96 
3 *296:6 *296:15 4.245 
4 *296:15 *1982:A2 9.155 
5 *296:15 *296:40 11.875 
6 *296:40 *296:48 10.585 
7 *296:48 *2008:B2 2.665 
8 *296:48 *2007:B2 5.08 
9 *296:40 *2000:A1 1.6 
*END

*D_NET *297 0.000587681
*CONN
*I *1970:A2 I *D sky130_fd_sc_hd__o21a_1
*I *1969:X O *D sky130_fd_sc_hd__a22o_1
*CAP
1 *1970:A2 0.000109642
2 *1969:X 0.000109642
3 *1970:A2 *1964:B 5.53249e-06
4 *1970:A2 *1973:A2 0.000113623
5 *1970:A2 *1979:A2 0
6 *292:10 *1970:A2 0.000108329
7 *292:16 *1970:A2 0.000140912
*RES
1 *1969:X *1970:A2 10.62 
*END

*D_NET *298 0.000136001
*CONN
*I *1973:A1 I *D sky130_fd_sc_hd__o21a_1
*I *1971:X O *D sky130_fd_sc_hd__and3_1
*CAP
1 *1973:A1 4.11469e-05
2 *1971:X 4.11469e-05
3 *1973:A1 *1971:B 5.4155e-06
4 *1973:A1 *1973:B1 4.82919e-05
*RES
1 *1971:X *1973:A1 4.01 
*END

*D_NET *299 0.00351063
*CONN
*I *1973:A2 I *D sky130_fd_sc_hd__o21a_1
*I *1972:X O *D sky130_fd_sc_hd__a22o_1
*CAP
1 *1973:A2 0.000541587
2 *1972:X 0.000541587
3 *1973:A2 *1964:B 0
4 *1973:A2 *1966:A 0.00069432
5 *1973:A2 *1969:A1 5.95494e-05
6 *1973:A2 *2035:C 0.000116158
7 *1973:A2 *465:64 0
8 *1973:A2 *608:65 0.000114753
9 *1973:A2 *608:71 0.000287995
10 *1973:A2 *640:25 7.23602e-05
11 *1970:A1 *1973:A2 3.89528e-05
12 *1970:A2 *1973:A2 0.000113623
13 *2272:D *1973:A2 0.000740486
14 *273:22 *1973:A2 0.000116158
15 *273:42 *1973:A2 4.82863e-05
16 *292:16 *1973:A2 1.46411e-05
17 *292:18 *1973:A2 1.01661e-05
*RES
1 *1972:X *1973:A2 25.605 
*END

*D_NET *300 0.000110911
*CONN
*I *1976:A1 I *D sky130_fd_sc_hd__o21a_1
*I *1974:X O *D sky130_fd_sc_hd__and3_1
*CAP
1 *1976:A1 4.04363e-05
2 *1974:X 4.04363e-05
3 *1976:A1 *1974:A 3.00381e-05
*RES
1 *1974:X *1976:A1 4.01 
*END

*D_NET *301 0.00290921
*CONN
*I *1976:A2 I *D sky130_fd_sc_hd__o21a_1
*I *1975:X O *D sky130_fd_sc_hd__a22o_1
*CAP
1 *1976:A2 0.000930233
2 *1975:X 0.000930233
3 *1976:A2 *1964:A 0
4 *1976:A2 *1975:A1 0.000122331
5 *1976:A2 *1979:A2 0.000286635
6 *1976:A2 *488:16 0
7 *1976:A2 *608:10 2.97004e-06
8 *1976:A2 *608:12 0.000139067
9 *1976:A2 *608:14 5.93844e-05
10 *1976:A2 *608:20 8.08153e-06
11 *1961:A *1976:A2 0
12 *292:44 *1976:A2 0.000108962
13 *295:20 *1976:A2 0.000204463
14 *295:24 *1976:A2 0.000116853
*RES
1 *1975:X *1976:A2 23.34 
*END

*D_NET *302 0.000132309
*CONN
*I *1979:A1 I *D sky130_fd_sc_hd__o21a_1
*I *1977:X O *D sky130_fd_sc_hd__and3_1
*CAP
1 *1979:A1 3.48089e-05
2 *1977:X 3.48089e-05
3 *1979:A1 *1966:B 4.82919e-05
4 *1979:A1 *1977:C 1.4399e-05
5 *1979:A1 *488:37 0
*RES
1 *1977:X *1979:A1 4.01 
*END

*D_NET *303 0.000986036
*CONN
*I *1979:A2 I *D sky130_fd_sc_hd__o21a_1
*I *1978:X O *D sky130_fd_sc_hd__a22o_1
*CAP
1 *1979:A2 0.000233785
2 *1978:X 0.000233785
3 *1979:A2 *1964:B 2.84224e-05
4 *1979:A2 *1978:A1 0.0001249
5 *1979:A2 *556:48 9.80032e-06
6 *1979:A2 *608:20 6.28765e-05
7 *1970:A2 *1979:A2 0
8 *1976:A2 *1979:A2 0.000286635
9 *295:16 *1979:A2 5.83121e-06
*RES
1 *1978:X *1979:A2 12.105 
*END

*D_NET *304 0.000549679
*CONN
*I *1981:B2 I *D sky130_fd_sc_hd__a22o_1
*I *1980:X O *D sky130_fd_sc_hd__or2_1
*CAP
1 *1981:B2 0.000164785
2 *1980:X 0.000164785
3 *1981:A2 *1981:B2 4.66108e-05
4 *280:38 *1981:B2 8.65961e-05
5 *296:6 *1981:B2 8.69014e-05
*RES
1 *1980:X *1981:B2 6.08 
*END

*D_NET *305 0.00184871
*CONN
*I *1982:B1 I *D sky130_fd_sc_hd__o211a_1
*I *1981:X O *D sky130_fd_sc_hd__a22o_1
*CAP
1 *1982:B1 0.000372041
2 *1981:X 0.000372041
3 *1982:B1 *1982:A1 1.47256e-05
4 *1982:B1 *1982:C1 1.85674e-05
5 *1982:B1 *1987:B2 0
6 *1982:B1 *1993:A1 0
7 *1982:B1 *488:37 0.000313852
8 *1982:B1 *608:20 0.000138808
9 *1982:B1 *608:37 0.000267767
10 *1982:A2 *1982:B1 3.70572e-05
11 *296:6 *1982:B1 0.000313852
*RES
1 *1981:X *1982:B1 16.995 
*END

*D_NET *306 0.00016197
*CONN
*I *1985:A1 I *D sky130_fd_sc_hd__o21a_1
*I *1983:X O *D sky130_fd_sc_hd__and3_1
*CAP
1 *1985:A1 6.95505e-05
2 *1983:X 6.95505e-05
3 *1985:A1 *560:36 1.19928e-05
4 *281:14 *1985:A1 1.08758e-05
*RES
1 *1983:X *1985:A1 4.37 
*END

*D_NET *307 0.00289329
*CONN
*I *1985:A2 I *D sky130_fd_sc_hd__o21a_1
*I *1984:X O *D sky130_fd_sc_hd__a22o_1
*CAP
1 *1985:A2 0.000841865
2 *1984:X 0.000841865
3 *1985:A2 *659:DIODE 4.39079e-05
4 *1985:A2 *1967:A 2.97204e-05
5 *1985:A2 *1975:B2 0.000180682
6 *1985:A2 *541:12 0.000155928
7 *1985:A2 *541:18 1.67165e-05
8 *1985:A2 *542:82 7.46074e-05
9 *1985:A2 *560:36 4.82919e-05
10 *1985:A2 *613:23 8.70923e-05
11 *1985:A2 *613:57 0
12 *1985:A2 *614:48 4.38813e-05
13 *1985:A2 *634:63 0
14 *1965:A *1985:A2 0
15 *1984:A2 *1985:A2 0
16 *2339:D *1985:A2 0
17 *2393:A *1985:A2 0.000528734
*RES
1 *1984:X *1985:A2 24.21 
*END

*D_NET *308 0.00106321
*CONN
*I *1988:A1 I *D sky130_fd_sc_hd__o21a_1
*I *1986:X O *D sky130_fd_sc_hd__and2_1
*CAP
1 *1988:A1 0.00012812
2 *1986:X 0.00012812
3 *1988:A1 *1984:B2 7.17811e-05
4 *1988:A1 *635:40 0.000232105
5 *1961:A *1988:A1 0.000136877
6 *1984:B1 *1988:A1 0.000194694
7 *1986:B *1988:A1 8.65905e-05
8 *59:21 *1988:A1 8.49205e-05
*RES
1 *1986:X *1988:A1 11.805 
*END

*D_NET *309 0.00107316
*CONN
*I *1988:A2 I *D sky130_fd_sc_hd__o21a_1
*I *1987:X O *D sky130_fd_sc_hd__a22o_1
*CAP
1 *1988:A2 0.000304804
2 *1987:X 0.000304804
3 *1988:A2 *555:20 8.53113e-06
4 *1988:A2 *635:40 0.000179651
5 *1961:A *1988:A2 0.000134523
6 *1984:A2 *1988:A2 0.000140844
*RES
1 *1987:X *1988:A2 12.975 
*END

*D_NET *310 0.00078303
*CONN
*I *1991:A1 I *D sky130_fd_sc_hd__o21a_1
*I *1989:X O *D sky130_fd_sc_hd__and2_1
*CAP
1 *1991:A1 0.000126065
2 *1989:X 0.000126065
3 *1961:A *1991:A1 0.000309722
4 *59:21 *1991:A1 4.82863e-05
5 *295:43 *1991:A1 7.8848e-05
6 *295:49 *1991:A1 9.40431e-05
*RES
1 *1989:X *1991:A1 11.325 
*END

*D_NET *311 0.000510693
*CONN
*I *1991:A2 I *D sky130_fd_sc_hd__o21a_1
*I *1990:X O *D sky130_fd_sc_hd__a22o_1
*CAP
1 *1991:A2 0.000137313
2 *1990:X 0.000137313
3 *1961:A *1991:A2 0.00016163
4 *295:28 *1991:A2 0
5 *295:43 *1991:A2 7.44375e-05
*RES
1 *1990:X *1991:A2 10.62 
*END

*D_NET *312 0.000416319
*CONN
*I *1993:B1 I *D sky130_fd_sc_hd__o211a_1
*I *1992:X O *D sky130_fd_sc_hd__a21o_1
*CAP
1 *1993:B1 0.000135148
2 *1992:X 0.000135148
3 *1993:B1 *560:20 4.01019e-05
4 *1993:A2 *1993:B1 8.52137e-06
5 *2273:D *1993:B1 0
6 *280:51 *1993:B1 6.28765e-05
7 *296:6 *1993:B1 7.00889e-06
8 *296:15 *1993:B1 2.75145e-05
*RES
1 *1992:X *1993:B1 9.75 
*END

*D_NET *313 0.000724001
*CONN
*I *1994:B1 I *D sky130_fd_sc_hd__o21a_1
*I *1993:X O *D sky130_fd_sc_hd__o211a_1
*CAP
1 *1994:B1 0.000193623
2 *1993:X 0.000193623
3 *1994:B1 *1980:A 0.00011852
4 *1994:B1 *1990:B2 0
5 *1995:A *1994:B1 8.53113e-06
6 *280:38 *1994:B1 0.000121437
7 *280:51 *1994:B1 8.8266e-05
*RES
1 *1993:X *1994:B1 10.41 
*END

*D_NET *314 0.00137956
*CONN
*I *2008:C1 I *D sky130_fd_sc_hd__o221a_1
*I *2007:C1 I *D sky130_fd_sc_hd__o221a_1
*I *1995:X O *D sky130_fd_sc_hd__and2_1
*CAP
1 *2008:C1 0
2 *2007:C1 0.000460293
3 *1995:X 4.4566e-05
4 *314:8 0.000504859
5 *2007:C1 *1995:B 0
6 *2007:A2 *2007:C1 4.66108e-05
7 *2007:B1 *2007:C1 1.79483e-05
8 *2007:B2 *2007:C1 2.75145e-05
9 *2008:B1 *2007:C1 9.58678e-06
10 *2390:A *2007:C1 4.18603e-06
11 *280:85 *314:8 9.91257e-05
12 *296:48 *314:8 0.000164874
*RES
1 *1995:X *314:8 3.445 
2 *314:8 *2007:C1 8.01913 
3 *314:8 *2008:C1 1.6 
*END

*D_NET *315 0.00111799
*CONN
*I *2001:B I *D sky130_fd_sc_hd__and3b_2
*I *1997:C I *D sky130_fd_sc_hd__and3b_1
*I *1996:Y O *D sky130_fd_sc_hd__nor2_1
*CAP
1 *2001:B 0.000237475
2 *1997:C 0
3 *1996:Y 8.09124e-05
4 *315:6 0.000318387
5 *2001:B *2081:A3 9.27921e-05
6 *2001:B *615:156 9.44589e-05
7 *2001:B *649:29 9.82325e-05
8 *2001:B *649:33 9.91257e-05
9 *315:6 *649:33 9.66106e-05
*RES
1 *1996:Y *315:6 3.085 
2 *315:6 *1997:C 1.6 
3 *315:6 *2001:B 10.04 
*END

*D_NET *316 0.00989277
*CONN
*I *2000:A2 I *D sky130_fd_sc_hd__o211a_1
*I *2094:C I *D sky130_fd_sc_hd__or4_1
*I *2163:B1 I *D sky130_fd_sc_hd__a32o_1
*I *2089:D_N I *D sky130_fd_sc_hd__or4b_1
*I *2158:A2 I *D sky130_fd_sc_hd__a221o_1
*I *1997:X O *D sky130_fd_sc_hd__and3b_1
*CAP
1 *2000:A2 0.00105823
2 *2094:C 0
3 *2163:B1 4.36607e-05
4 *2089:D_N 8.5494e-05
5 *2158:A2 3.3976e-05
6 *1997:X 0.000184588
7 *316:34 0.000238703
8 *316:28 0.00085466
9 *316:16 0.000971038
10 *316:8 0.00152209
11 *2000:A2 *1956:A 0.000275553
12 *2000:A2 *430:10 0.000226104
13 *2000:A2 *465:171 0
14 *2000:A2 *465:178 8.65961e-05
15 *2000:A2 *465:191 0.000163199
16 *2000:A2 *472:10 0
17 *2000:A2 *615:212 0
18 *2000:A2 *621:36 0.000251321
19 *2000:A2 *652:17 8.69098e-05
20 *2089:D_N *2158:A1 5.6771e-05
21 *2089:D_N *2158:B1 1.08758e-05
22 *2089:D_N *2158:B2 1.12643e-05
23 *2158:A2 *2158:A1 7.29911e-05
24 *2158:A2 *2158:B1 2.42808e-05
25 *316:8 *2001:A_N 0
26 *316:8 *414:10 5.65627e-05
27 *316:8 *472:10 0
28 *316:8 *472:12 0
29 *316:8 *615:156 0
30 *316:8 *615:212 0
31 *316:16 *2003:A1 4.66108e-05
32 *316:16 *2094:B 4.12959e-05
33 *316:16 *319:76 2.76334e-05
34 *316:16 *379:8 0.000471475
35 *316:28 *2003:A1 2.92496e-05
36 *316:28 *2089:B 0
37 *316:28 *2154:A 0.000138551
38 *316:28 *554:10 0.000658234
39 *316:28 *613:89 0
40 *316:28 *613:113 0
41 *316:28 *620:62 0.00107314
42 *316:28 *620:66 1.0183e-05
43 *316:28 *621:203 0
44 *316:28 *649:23 0.000201335
45 *316:34 *2158:B1 7.58604e-05
46 *316:34 *2159:A1 6.14602e-05
47 *316:34 *415:10 0
48 *316:34 *415:16 4.4073e-05
49 *316:34 *621:203 0
50 *1957:A *316:28 3.09164e-05
51 *1996:B *316:8 0.00015763
52 *2094:A *316:16 9.53428e-06
53 *2094:A *316:28 7.71289e-05
54 *2154:B *2163:B1 7.18452e-06
55 *2154:B *316:28 0
56 *2154:B *316:34 0
57 *2157:B1 *2163:B1 2.09749e-05
58 *2163:A1 *2163:B1 1.35171e-05
59 *2163:A2 *316:28 0.000180682
60 *295:101 *2000:A2 0.000151267
61 *296:48 *2000:A2 4.9968e-05
*RES
1 *1997:X *316:8 7.275 
2 *316:8 *316:16 8.09 
3 *316:16 *316:28 26.3925 
4 *316:28 *316:34 4.7225 
5 *316:34 *2158:A2 2.77375 
6 *316:34 *2089:D_N 3.445 
7 *316:28 *2163:B1 4.485 
8 *316:16 *2094:C 1.6 
9 *316:8 *2000:A2 25.39 
*END

*D_NET *317 0.000116037
*CONN
*I *1999:B2 I *D sky130_fd_sc_hd__a22o_1
*I *1998:X O *D sky130_fd_sc_hd__or2_1
*CAP
1 *1999:B2 9.73191e-06
2 *1998:X 9.73191e-06
3 *1999:B2 *1999:A1 4.82863e-05
4 *1999:B2 *2073:B 4.82863e-05
*RES
1 *1998:X *1999:B2 3.65 
*END

*D_NET *318 0.000890802
*CONN
*I *2000:B1 I *D sky130_fd_sc_hd__o211a_1
*I *1999:X O *D sky130_fd_sc_hd__a22o_1
*CAP
1 *2000:B1 0.00020119
2 *1999:X 0.00020119
3 *280:68 *2000:B1 1.85674e-05
4 *280:85 *2000:B1 7.62212e-05
5 *296:40 *2000:B1 0.000309607
6 *296:48 *2000:B1 8.40269e-05
*RES
1 *1999:X *2000:B1 7.475 
*END

*D_NET *319 0.00881279
*CONN
*I *2003:B2 I *D sky130_fd_sc_hd__a22o_1
*I *2094:D I *D sky130_fd_sc_hd__or4_1
*I *2002:A I *D sky130_fd_sc_hd__inv_2
*I *2076:A2 I *D sky130_fd_sc_hd__a31o_1
*I *2164:A1 I *D sky130_fd_sc_hd__a31o_1
*I *2219:A2 I *D sky130_fd_sc_hd__o21a_1
*I *2001:X O *D sky130_fd_sc_hd__and3b_2
*CAP
1 *2003:B2 0.000158688
2 *2094:D 0
3 *2002:A 0
4 *2076:A2 0.000179888
5 *2164:A1 0.000450919
6 *2219:A2 8.14594e-05
7 *2001:X 2.51931e-05
8 *319:76 0.00040987
9 *319:27 0.000864933
10 *319:12 0.00032885
11 *319:10 0.000419542
12 *319:8 0.000682653
13 *2003:B2 *2003:A1 0.000351647
14 *2003:B2 *2003:A2 5.22973e-05
15 *2076:A2 *2076:A3 8.08092e-06
16 *2076:A2 *2078:A 9.25287e-05
17 *2076:A2 *362:8 8.88108e-06
18 *2076:A2 *369:8 7.1903e-05
19 *2076:A2 *554:96 2.78469e-05
20 *2164:A1 *2085:D_N 2.69188e-05
21 *2164:A1 *2092:A2 0.000457696
22 *2164:A1 *2092:B1_N 5.85071e-05
23 *2164:A1 *2156:B1 8.53113e-06
24 *2164:A1 *2161:A3 0
25 *2164:A1 *2164:A3 0.000126679
26 *2164:A1 *2166:C 4.9968e-05
27 *2164:A1 *363:19 4.9968e-05
28 *2164:A1 *367:36 0
29 *2164:A1 *375:12 0.00015896
30 *2164:A1 *540:52 8.5002e-05
31 *2164:A1 *540:69 0.000155928
32 *2164:A1 *554:59 3.9442e-05
33 *2164:A1 *615:177 0
34 *2164:A1 *621:203 0.000457696
35 *2219:A2 *2093:A2 4.7043e-05
36 *2219:A2 *554:44 0.000114492
37 *2219:A2 *554:59 4.82919e-05
38 *319:8 *649:23 4.66108e-05
39 *319:10 *2085:B 0.000115774
40 *319:10 *2090:A 0.000158297
41 *319:10 *2093:A2 4.79598e-05
42 *319:10 *2160:C 0.000199734
43 *319:10 *367:10 2.88519e-05
44 *319:10 *546:31 0
45 *319:10 *554:32 0.000188453
46 *319:10 *554:44 0.000392589
47 *319:12 *2093:A2 2.03321e-05
48 *319:12 *554:44 5.16418e-05
49 *319:27 *2078:A 0.000110673
50 *319:27 *320:6 0.000237243
51 *319:76 *2003:A1 4.21973e-05
52 *319:76 *554:32 0.000127924
53 *319:76 *554:123 3.86607e-05
54 *2094:A *319:10 0.000387134
55 *2094:A *319:76 0.000311316
56 *2219:B1 *2219:A2 8.40269e-05
57 *286:69 *319:10 9.5433e-05
58 *316:16 *319:76 2.76334e-05
*RES
1 *2001:X *319:8 4.05 
2 *319:8 *319:10 12.345 
3 *319:10 *319:12 0.615 
4 *319:12 *2219:A2 5.775 
5 *319:12 *319:27 5.21 
6 *319:27 *2164:A1 21.915 
7 *319:27 *2076:A2 8.3 
8 *319:10 *2002:A 3.6 
9 *319:8 *319:76 7.52 
10 *319:76 *2094:D 1.6 
11 *319:76 *2003:B2 5.17 
*END

*D_NET *320 0.00124339
*CONN
*I *2078:A I *D sky130_fd_sc_hd__nor3b_1
*I *2161:B2 I *D sky130_fd_sc_hd__o32a_1
*I *2002:Y O *D sky130_fd_sc_hd__inv_2
*CAP
1 *2078:A 0.000120829
2 *2161:B2 2.08101e-05
3 *2002:Y 9.08014e-05
4 *320:6 0.00023244
5 *2078:A *2078:B 0
6 *2078:A *2161:A2 1.47256e-05
7 *2078:A *2161:B1 8.40213e-05
8 *2078:A *363:19 0.000139231
9 *2078:A *369:8 0
10 *2078:A *554:59 3.96737e-05
11 *2161:B2 *554:96 0
12 *320:6 *2161:A2 3.72916e-05
13 *320:6 *2162:A_N 2.31229e-05
14 *2076:A2 *2078:A 9.25287e-05
15 *319:27 *2078:A 0.000110673
16 *319:27 *320:6 0.000237243
*RES
1 *2002:Y *320:6 4.12 
2 *320:6 *2161:B2 1.96 
3 *320:6 *2078:A 9.065 
*END

*D_NET *321 0.000412998
*CONN
*I *2004:B I *D sky130_fd_sc_hd__and2_1
*I *2003:X O *D sky130_fd_sc_hd__a22o_1
*CAP
1 *2004:B 0.000150585
2 *2003:X 0.000150585
3 *2004:B *2003:A2 1.51429e-05
4 *2004:B *2004:A 3.00381e-05
5 *2004:B *472:114 6.66464e-05
*RES
1 *2003:X *2004:B 6.095 
*END

*D_NET *322 0.000540363
*CONN
*I *2006:B I *D sky130_fd_sc_hd__and2_1
*I *2005:X O *D sky130_fd_sc_hd__a22o_1
*CAP
1 *2006:B 0.000237415
2 *2005:X 0.000237415
3 *2006:B *2004:A 6.55328e-05
4 *2006:B *621:203 0
*RES
1 *2005:X *2006:B 10.41 
*END

*D_NET *323 0.00507813
*CONN
*I *2028:C I *D sky130_fd_sc_hd__and3_1
*I *2027:X O *D sky130_fd_sc_hd__and3_1
*CAP
1 *2028:C 0.00198846
2 *2027:X 0.00198846
3 *2028:C *2027:A 1.08758e-05
4 *2028:C *2181:A1 0.000122325
5 *2028:C *2181:A2 6.24015e-05
6 *2028:C *2181:B1 6.29809e-05
7 *2028:C *471:42 0.000290985
8 *2028:C *471:108 4.21973e-05
9 *2028:C *560:76 5.78326e-05
10 *2028:C *618:24 0
11 *2028:C *619:23 9.37731e-05
12 *737:DIODE *2028:C 0.000311223
13 *2272:D *2028:C 4.66108e-05
*RES
1 *2027:X *2028:C 34.035 
*END

*D_NET *324 0.00627797
*CONN
*I *2030:B I *D sky130_fd_sc_hd__and2_1
*I *2032:B I *D sky130_fd_sc_hd__and2_1
*I *2033:B I *D sky130_fd_sc_hd__and2_1
*I *2031:B I *D sky130_fd_sc_hd__and2_1
*I *2029:B I *D sky130_fd_sc_hd__and2_1
*I *2028:X O *D sky130_fd_sc_hd__and3_1
*CAP
1 *2030:B 0
2 *2032:B 2.43002e-05
3 *2033:B 0
4 *2031:B 0
5 *2029:B 0.000807659
6 *2028:X 0.000175201
7 *324:24 0.000989893
8 *324:22 0.000430058
9 *324:16 0.000870431
10 *324:10 0.000773508
11 *2029:B *2396:A 0
12 *2029:B *2497:A 0
13 *2029:B *2498:A 0
14 *2029:B *616:18 0
15 *2029:B *617:20 0
16 *2032:B *2306:CLK 2.75145e-05
17 *324:10 *698:DIODE 1.34594e-05
18 *324:10 *1962:A_N 4.62396e-05
19 *324:10 *560:76 5.30673e-05
20 *324:16 *1934:A 0
21 *324:16 *1962:A_N 6.9451e-05
22 *324:16 *1962:C 0.000162318
23 *324:16 *2032:A 6.18754e-05
24 *324:16 *2491:A 0
25 *324:22 *2032:A 5.53249e-06
26 *324:22 *2033:A 2.03321e-05
27 *324:22 *2306:CLK 0
28 *324:24 *2031:A 0
29 *324:24 *2469:A 0
30 user_irq *2029:B 0
31 *2271:RESET_B *324:16 0.000166346
32 *2276:RESET_B *2029:B 5.39718e-05
33 *2303:D *324:16 4.84393e-05
34 *2306:D *324:22 0.00011852
35 *14:13 *2029:B 0
36 *83:13 *324:24 0
37 *86:13 *324:16 0
38 *87:9 *324:22 0
39 *130:11 *324:16 0
40 *137:12 *324:10 0
41 *137:12 *324:16 0
42 *273:22 *2029:B 0.00013194
43 *273:22 *324:16 0.000462496
44 *273:22 *324:22 0.000563316
45 *273:22 *324:24 0.000202106
*RES
1 *2028:X *324:10 6.375 
2 *324:10 *324:16 14.685 
3 *324:16 *324:22 7.035 
4 *324:22 *324:24 4.185 
5 *324:24 *2029:B 17.73 
6 *324:24 *2031:B 3.6 
7 *324:22 *2033:B 3.6 
8 *324:16 *2032:B 4.05 
9 *324:10 *2030:B 3.6 
*END

*D_NET *325 0.00166027
*CONN
*I *2035:C I *D sky130_fd_sc_hd__or3_1
*I *2034:X O *D sky130_fd_sc_hd__or3_1
*CAP
1 *2035:C 0.000461956
2 *2034:X 0.000461956
3 *2035:C *1954:A1 3.95409e-05
4 *2035:C *1969:A1 0.000116158
5 *2035:C *2467:A 0.000464499
6 *1973:A2 *2035:C 0.000116158
*RES
1 *2034:X *2035:C 14.205 
*END

*D_NET *326 0.005111
*CONN
*I *2056:B I *D sky130_fd_sc_hd__nand3_1
*I *2057:C I *D sky130_fd_sc_hd__and4_1
*I *2043:A I *D sky130_fd_sc_hd__nor2_1
*I *2062:A I *D sky130_fd_sc_hd__nor3_1
*I *2051:B1 I *D sky130_fd_sc_hd__a41o_1
*I *2036:X O *D sky130_fd_sc_hd__or4b_2
*CAP
1 *2056:B 0
2 *2057:C 0.000191486
3 *2043:A 0.000112925
4 *2062:A 0
5 *2051:B1 0.000409057
6 *2036:X 0.000350329
7 *326:20 0.00047742
8 *326:16 0.000403043
9 *326:10 0.000413241
10 *326:8 0.000350329
11 *2043:A *338:31 1.91597e-05
12 *2051:B1 *2040:B 9.50342e-06
13 *2051:B1 *2059:A1 6.47594e-05
14 *2051:B1 *2059:A2 0.000293719
15 *2051:B1 *2059:B1 0
16 *2051:B1 *2061:D 0
17 *2051:B1 *2063:B1_N 9.71067e-05
18 *2051:B1 *335:28 1.01661e-05
19 *2051:B1 *500:70 0.000109905
20 *2057:C *2097:B 0.000179206
21 *2057:C *334:10 0
22 *2057:C *338:10 4.82863e-05
23 *2057:C *338:21 0.000144887
24 *2057:C *338:31 1.34361e-05
25 *2057:C *613:57 7.21296e-06
26 *326:8 *2096:B1 4.00541e-06
27 *326:8 *615:102 3.81908e-06
28 *326:16 *2097:B 0.000157602
29 *326:16 *338:31 6.28843e-05
30 *326:16 *613:57 1.73877e-05
31 *326:20 *2063:B1_N 9.78012e-05
32 *326:20 *2097:D_N 0.000181376
33 *326:20 *335:22 4.19797e-05
34 *2051:A1 *2051:B1 8.65961e-05
35 *2307:D *2057:C 1.79536e-05
36 *2307:D *326:8 0.000174568
37 *2309:D *2043:A 0.00015896
38 *2309:D *326:16 0.000347911
39 *289:17 *2057:C 5.2977e-05
*RES
1 *2036:X *326:8 6.205 
2 *326:8 *326:10 2 
3 *326:10 *326:16 7.1 
4 *326:16 *326:20 4.4 
5 *326:20 *2051:B1 12.405 
6 *326:20 *2062:A 3.6 
7 *326:16 *2043:A 3.79 
8 *326:10 *2057:C 7.995 
9 *326:8 *2056:B 1.6 
*END

*D_NET *327 0.00298855
*CONN
*I *2120:A I *D sky130_fd_sc_hd__and2_1
*I *2038:C1 I *D sky130_fd_sc_hd__o211ai_1
*I *2037:X O *D sky130_fd_sc_hd__and4_1
*CAP
1 *2120:A 0
2 *2038:C1 0.000188742
3 *2037:X 0.000112246
4 *327:8 0.000300987
5 *2038:C1 *2020:A 0.000237243
6 *2038:C1 *2038:B1 0.000650892
7 *2038:C1 *2047:D 0.000385327
8 *2038:C1 *336:10 0.000210346
9 *2038:C1 *611:64 0.000226431
10 *327:8 *2047:B 0.00012657
11 *327:8 *2047:D 0.000153482
12 *327:8 *336:10 0.000195482
13 *327:8 *397:8 0.000157343
14 *327:8 *509:36 2.7441e-05
15 *2294:D *2038:C1 1.60203e-05
*RES
1 *2037:X *327:8 6.205 
2 *327:8 *2038:C1 11.02 
3 *327:8 *2120:A 1.6 
*END

*D_NET *328 0.00165945
*CONN
*I *2042:C_N I *D sky130_fd_sc_hd__or3b_1
*I *2051:A3 I *D sky130_fd_sc_hd__a41o_1
*I *2038:Y O *D sky130_fd_sc_hd__o211ai_1
*CAP
1 *2042:C_N 0
2 *2051:A3 4.46343e-05
3 *2038:Y 0.000316731
4 *328:10 0.000361365
5 *2051:A3 *2383:A 0.000163199
6 *328:10 *2015:A 0.000135539
7 *328:10 *2015:C 0
8 *328:10 *2048:A2 0
9 *328:10 *337:8 0.000253204
10 *328:10 *388:23 0
11 *328:10 *611:64 0.00024756
12 *2051:A2 *2051:A3 0.000137216
13 *2289:D *328:10 0
*RES
1 *2038:Y *328:10 13.1 
2 *328:10 *2051:A3 3.445 
3 *328:10 *2042:C_N 1.6 
*END

*D_NET *329 0.00758669
*CONN
*I *2040:B I *D sky130_fd_sc_hd__nor2_1
*I *2054:C1 I *D sky130_fd_sc_hd__a311o_1
*I *2041:C I *D sky130_fd_sc_hd__or3_1
*I *2039:X O *D sky130_fd_sc_hd__or4_1
*CAP
1 *2040:B 0.000151753
2 *2054:C1 1.1416e-05
3 *2041:C 0.000364962
4 *2039:X 0.000867331
5 *329:24 0.000536004
6 *329:20 0.00117871
7 *2040:B *2015:C 0
8 *2040:B *500:70 0
9 *2041:C *2019:A 8.53113e-06
10 *2041:C *2042:A 6.16853e-05
11 *2041:C *2053:A 4.82863e-05
12 *2041:C *2054:A3 3.31282e-05
13 *2041:C *2054:B1 5.55927e-05
14 *2041:C *2328:CLK 7.68414e-06
15 *2041:C *2383:A 0.000158066
16 *2041:C *343:8 9.47454e-05
17 *2041:C *607:53 0.000159815
18 *2054:C1 *2054:B1 3.26889e-05
19 *2054:C1 *2328:CLK 4.00541e-06
20 *329:20 *2015:C 0
21 *329:20 *2016:B 0
22 *329:20 *2019:B 3.86529e-05
23 *329:20 *2019:C 4.75576e-05
24 *329:20 *2039:A 4.05358e-05
25 *329:20 *2329:CLK 2.67022e-05
26 *329:20 *400:20 0.00149483
27 *329:20 *466:44 0.000124895
28 *329:20 *610:18 8.65961e-05
29 *329:20 *610:22 0.000810135
30 *329:20 *611:26 1.07797e-05
31 *329:24 *2015:B 4.66826e-05
32 *329:24 *2328:CLK 0.000450605
33 *329:24 *606:131 0.000117116
34 *2051:A2 *2041:C 3.14103e-05
35 *2051:B1 *2040:B 9.50342e-06
36 *2289:D *2040:B 0
37 *2290:D *329:20 0.000476281
*RES
1 *2039:X *329:20 30.31 
2 *329:20 *329:24 6.59 
3 *329:24 *2041:C 12.5 
4 *329:24 *2054:C1 1.96 
5 *329:20 *2040:B 5.745 
*END

*D_NET *330 0.000680844
*CONN
*I *2051:A4 I *D sky130_fd_sc_hd__a41o_1
*I *2040:Y O *D sky130_fd_sc_hd__nor2_1
*CAP
1 *2051:A4 0.000112852
2 *2040:Y 0.000112852
3 *2051:A4 *2059:A2 4.82919e-05
4 *2051:A4 *2383:A 1.20411e-05
5 *2051:A4 *500:70 0.000160635
6 *2051:A1 *2051:A4 0.000160635
7 *2051:A2 *2051:A4 7.35358e-05
*RES
1 *2040:Y *2051:A4 6.425 
*END

*D_NET *331 0.00313933
*CONN
*I *2065:A1 I *D sky130_fd_sc_hd__o21bai_1
*I *2061:A I *D sky130_fd_sc_hd__or4_1
*I *2050:A I *D sky130_fd_sc_hd__or4b_1
*I *2042:B I *D sky130_fd_sc_hd__or3b_1
*I *2041:X O *D sky130_fd_sc_hd__or3_1
*CAP
1 *2065:A1 0.00010387
2 *2061:A 0
3 *2050:A 0.000116029
4 *2042:B 6.01139e-05
5 *2041:X 5.95613e-05
6 *331:23 0.000192182
7 *331:17 0.000288974
8 *331:6 0.000228626
9 *2042:B *2041:B 4.82919e-05
10 *2042:B *500:70 4.82863e-05
11 *2050:A *2050:C 8.23457e-05
12 *2050:A *2061:B 0.000136877
13 *2050:A *2061:D 0.000140912
14 *2050:A *335:28 0.00015806
15 *2050:A *337:8 5.53249e-06
16 *2050:A *337:23 2.94708e-05
17 *2050:A *338:35 7.23533e-05
18 *2050:A *607:53 4.47125e-05
19 *2065:A1 *2065:A2 0.000103192
20 *2065:A1 *332:8 0.000339893
21 *2065:A1 *337:23 7.35746e-05
22 *331:6 *2041:B 7.40446e-05
23 *331:17 *332:8 0.000317494
24 *331:17 *337:8 0.000114475
25 *331:17 *337:23 1.0183e-05
26 *331:23 *2059:A3 0.000197269
27 *331:23 *2061:C 4.82863e-05
28 *331:23 *2061:D 4.47209e-05
*RES
1 *2041:X *331:6 2.395 
2 *331:6 *2042:B 2.395 
3 *331:6 *331:17 5.675 
4 *331:17 *331:23 4.19 
5 *331:23 *2050:A 9.485 
6 *331:23 *2061:A 1.6 
7 *331:17 *2065:A1 7.53 
*END

*D_NET *332 0.00322112
*CONN
*I *2043:B I *D sky130_fd_sc_hd__nor2_1
*I *2062:B I *D sky130_fd_sc_hd__nor3_1
*I *2042:X O *D sky130_fd_sc_hd__or3b_1
*CAP
1 *2043:B 0.000292078
2 *2062:B 0.000338289
3 *2042:X 0.000306419
4 *332:8 0.000936786
5 *2043:B *338:31 0.000123225
6 *2043:B *338:35 0
7 *2043:B *352:16 5.72004e-05
8 *2062:B *2064:A2 4.80182e-05
9 *2062:B *617:86 0.0001279
10 *2062:B *617:97 2.75145e-05
11 *332:8 *2054:A1 4.5783e-05
12 *332:8 *2063:A2 7.97083e-05
13 *332:8 *2383:A 8.53113e-06
14 *332:8 *338:35 0
15 *332:8 *343:8 0.000130968
16 *2051:A2 *332:8 4.13092e-05
17 *2065:A1 *332:8 0.000339893
18 *289:27 *2043:B 0
19 *289:27 *332:8 0
20 *331:17 *332:8 0.000317494
*RES
1 *2042:X *332:8 12.885 
2 *332:8 *2062:B 8.535 
3 *332:8 *2043:B 8.7 
*END

*D_NET *333 0.00030584
*CONN
*I *2046:A1 I *D sky130_fd_sc_hd__a31o_1
*I *2043:Y O *D sky130_fd_sc_hd__nor2_1
*CAP
1 *2046:A1 3.93004e-05
2 *2043:Y 3.93004e-05
3 *2046:A1 *347:10 0.000112679
4 *2046:A1 *617:97 0.00011456
*RES
1 *2043:Y *2046:A1 8.58 
*END

*D_NET *334 0.0120796
*CONN
*I *2095:A1 I *D sky130_fd_sc_hd__a21oi_1
*I *2153:B1 I *D sky130_fd_sc_hd__o211a_1
*I *2066:A1 I *D sky130_fd_sc_hd__a31oi_1
*I *2046:A2 I *D sky130_fd_sc_hd__a31o_1
*I *2093:A1 I *D sky130_fd_sc_hd__a21o_1
*I *2096:A1 I *D sky130_fd_sc_hd__a31o_1
*I *2044:Y O *D sky130_fd_sc_hd__nor2_2
*CAP
1 *2095:A1 0
2 *2153:B1 0.000616692
3 *2066:A1 0
4 *2046:A2 2.21004e-05
5 *2093:A1 0.00167822
6 *2096:A1 0
7 *2044:Y 1.91317e-05
8 *334:68 0.0012708
9 *334:31 0.00189677
10 *334:16 0.00034398
11 *334:10 0.000340869
12 *334:8 0.000866577
13 *2093:A1 *2342:CLK 0.000136901
14 *2093:A1 *352:16 9.28581e-05
15 *2093:A1 *621:173 3.86529e-05
16 *2093:A1 *651:10 0.000110691
17 *2153:B1 *2095:A2 0.000446376
18 *2153:B1 *2095:B1 0.00012864
19 *2153:B1 *2152:A3 9.80943e-06
20 *2153:B1 *379:10 0.000377714
21 *334:8 *2058:A 8.65905e-05
22 *334:10 *2058:A 0
23 *334:10 *498:21 0.000242763
24 *334:10 *613:57 0
25 *334:10 *634:48 4.30292e-05
26 *334:16 *2096:B1 6.58698e-05
27 *334:16 *498:21 1.79098e-05
28 *334:31 *2066:A2 1.42281e-05
29 *334:31 *2096:A2 1.20741e-05
30 *334:31 *2096:A3 3.18132e-05
31 *334:31 *2096:B1 9.58396e-05
32 *334:31 *345:6 2.02637e-05
33 *334:31 *352:16 0.000140589
34 *334:68 *677:DIODE 3.09233e-05
35 *334:68 *1969:B2 0.000354985
36 *334:68 *1972:B2 0.000198196
37 *334:68 *1987:B2 0.000230551
38 *334:68 *2095:A2 3.26889e-05
39 *334:68 *2095:B1 3.09088e-05
40 *334:68 *2145:A2 0
41 *334:68 *2152:A3 0.000766704
42 *334:68 *335:16 0
43 *334:68 *556:8 0
44 *334:68 *615:245 0.000158297
45 *334:68 *634:48 8.08153e-06
46 *334:68 *634:63 0
47 *334:68 *635:50 0
48 *2057:C *334:10 0
49 *2153:A1 *2153:B1 6.45018e-05
50 *2310:D *334:10 9.02924e-05
51 *2342:D *2093:A1 0.000532529
52 *59:21 *334:8 3.45588e-05
53 *272:10 *2153:B1 0.000123225
54 *286:12 *2153:B1 3.9442e-05
55 *287:21 *2153:B1 0.0001249
56 *288:14 *2153:B1 0
57 *289:17 *334:16 8.74292e-05
58 *289:27 *334:16 3.59531e-06
*RES
1 *2044:Y *334:8 4.395 
2 *334:8 *334:10 4.185 
3 *334:10 *334:16 4.595 
4 *334:16 *2096:A1 1.6 
5 *334:16 *334:31 4.23 
6 *334:31 *2093:A1 26.6 
7 *334:31 *2046:A2 1.96 
8 *334:10 *2066:A1 3.6 
9 *334:8 *334:68 19.925 
10 *334:68 *2153:B1 23.385 
11 *334:68 *2095:A1 1.6 
*END

*D_NET *335 0.00784908
*CONN
*I *2046:A3 I *D sky130_fd_sc_hd__a31o_1
*I *2062:C I *D sky130_fd_sc_hd__nor3_1
*I *2050:D_N I *D sky130_fd_sc_hd__or4b_1
*I *2061:B I *D sky130_fd_sc_hd__or4_1
*I *2045:X O *D sky130_fd_sc_hd__or4_2
*CAP
1 *2046:A3 0
2 *2062:C 0
3 *2050:D_N 0
4 *2061:B 5.86523e-05
5 *2045:X 0.00130674
6 *335:28 0.0001805
7 *335:22 0.000336122
8 *335:16 0.00152101
9 *2061:B *2064:A2 9.54399e-05
10 *2061:B *337:23 4.38568e-05
11 *2061:B *338:35 1.07797e-05
12 *335:16 *1947:B 1.00941e-05
13 *335:16 *2058:A 0.000307286
14 *335:16 *2058:B 3.76596e-05
15 *335:16 *2066:A2 0
16 *335:16 *2145:A2 0.000361892
17 *335:16 *347:10 0.000227157
18 *335:16 *465:171 0
19 *335:16 *613:89 0.00177692
20 *335:16 *648:76 3.80597e-05
21 *335:16 *649:45 0
22 *335:16 *650:18 0.00015896
23 *335:22 *2059:B1 1.70935e-05
24 *335:22 *2063:B1_N 3.57846e-05
25 *335:22 *2096:B1 0
26 *335:22 *2097:D_N 0
27 *335:22 *347:10 0.00016856
28 *335:28 *2050:C 1.91597e-05
29 *335:28 *2059:B1 7.63125e-05
30 *335:28 *2063:B1_N 0.000372582
31 *335:28 *607:53 4.43682e-05
32 *2050:A *2061:B 0.000136877
33 *2050:A *335:28 0.00015806
34 *2051:B1 *335:28 1.01661e-05
35 *2307:D *335:16 9.58678e-06
36 *2309:D *335:22 0.000139238
37 *170:70 *335:16 7.69494e-05
38 *285:12 *335:16 7.1242e-05
39 *326:20 *335:22 4.19797e-05
40 *334:68 *335:16 0
*RES
1 *2045:X *335:16 37.645 
2 *335:16 *335:22 4.995 
3 *335:22 *335:28 6.5 
4 *335:28 *2061:B 7.49 
5 *335:28 *2050:D_N 1.6 
6 *335:22 *2062:C 3.6 
7 *335:16 *2046:A3 3.6 
*END

*D_NET *336 0.00320889
*CONN
*I *2125:C I *D sky130_fd_sc_hd__and4_1
*I *2048:B1 I *D sky130_fd_sc_hd__o211a_1
*I *2054:A2 I *D sky130_fd_sc_hd__a311o_1
*I *2047:X O *D sky130_fd_sc_hd__and4_1
*CAP
1 *2125:C 3.80587e-05
2 *2048:B1 0
3 *2054:A2 0.00021645
4 *2047:X 0.000411444
5 *336:16 0.000333478
6 *336:10 0.00056653
7 *2054:A2 *2019:A 0
8 *2054:A2 *2048:A2 0.000116577
9 *2054:A2 *2054:A3 0.000136182
10 *2054:A2 *2383:A 4.9968e-05
11 *2054:A2 *337:8 0
12 *2054:A2 *510:72 6.32658e-05
13 *2054:A2 *607:53 0
14 *2125:C *2020:A 7.89767e-05
15 *2125:C *2125:D 0.000133075
16 *336:10 *2020:A 7.44453e-05
17 *336:10 *2038:B1 0.000122325
18 *336:10 *2125:D 2.92496e-05
19 *336:10 *397:8 4.82919e-05
20 *336:10 *607:53 3.18137e-05
21 *336:10 *607:63 1.22676e-05
22 *336:16 *2016:A 5.84828e-05
23 *336:16 *388:23 0.000235573
24 *336:16 *388:36 4.66108e-05
25 *2038:C1 *336:10 0.000210346
26 *327:8 *336:10 0.000195482
*RES
1 *2047:X *336:10 11.55 
2 *336:10 *336:16 4.88 
3 *336:16 *2054:A2 10.34 
4 *336:16 *2048:B1 1.6 
5 *336:10 *2125:C 5.235 
*END

*D_NET *337 0.00286774
*CONN
*I *2065:A2 I *D sky130_fd_sc_hd__o21bai_1
*I *2050:C I *D sky130_fd_sc_hd__or4b_1
*I *2061:C I *D sky130_fd_sc_hd__or4_1
*I *2048:X O *D sky130_fd_sc_hd__o211a_1
*CAP
1 *2065:A2 6.10545e-05
2 *2050:C 6.01885e-05
3 *2061:C 9.73191e-06
4 *2048:X 0.000471321
5 *337:23 0.000227252
6 *337:8 0.000587062
7 *2050:C *2063:B1_N 5.49536e-05
8 *2050:C *607:53 0.00018955
9 *2061:C *2061:D 4.82863e-05
10 *2065:A2 *2064:A2 0.000149766
11 *2065:A2 *338:35 0
12 *337:8 *2048:A2 3.68682e-05
13 *337:8 *2054:A1 0.000111316
14 *337:8 *2061:D 8.09021e-06
15 *337:8 *2383:A 1.73877e-05
16 *337:23 *2064:A2 5.16348e-05
17 *2050:A *2050:C 8.23457e-05
18 *2050:A *337:8 5.53249e-06
19 *2050:A *337:23 2.94708e-05
20 *2054:A2 *337:8 0
21 *2061:B *337:23 4.38568e-05
22 *2065:A1 *2065:A2 0.000103192
23 *2065:A1 *337:23 7.35746e-05
24 *2289:D *337:8 0
25 *328:10 *337:8 0.000253204
26 *331:17 *337:8 0.000114475
27 *331:17 *337:23 1.0183e-05
28 *331:23 *2061:C 4.82863e-05
29 *335:28 *2050:C 1.91597e-05
*RES
1 *2048:X *337:8 13.14 
2 *337:8 *2061:C 4.05 
3 *337:8 *337:23 2.7 
4 *337:23 *2050:C 5.43 
5 *337:23 *2065:A2 5.745 
*END

*D_NET *338 0.00552004
*CONN
*I *2056:C I *D sky130_fd_sc_hd__nand3_1
*I *2065:B1_N I *D sky130_fd_sc_hd__o21bai_1
*I *2050:B I *D sky130_fd_sc_hd__or4b_1
*I *2061:D I *D sky130_fd_sc_hd__or4_1
*I *2057:D I *D sky130_fd_sc_hd__and4_1
*I *2049:X O *D sky130_fd_sc_hd__or4b_2
*CAP
1 *2056:C 0
2 *2065:B1_N 0
3 *2050:B 0
4 *2061:D 0.000149964
5 *2057:D 0
6 *2049:X 0.000353124
7 *338:35 0.000308299
8 *338:31 0.000681748
9 *338:21 0.000606274
10 *338:10 0.000435985
11 *2061:D *2059:A2 0
12 *2061:D *2059:A3 1.34594e-05
13 *2061:D *2059:B1 0
14 *2061:D *2064:A1 7.4027e-05
15 *338:10 *2036:D_N 5.95442e-05
16 *338:10 *495:21 0.000275548
17 *338:10 *495:51 0.000116716
18 *338:10 *498:46 3.7712e-05
19 *338:21 *613:57 0.000191897
20 *338:31 *352:16 6.44134e-05
21 *338:31 *613:57 0.000140905
22 *338:31 *617:97 6.02273e-05
23 *338:35 *2059:B1 0
24 *338:35 *2064:A1 0.000168116
25 *338:35 *2064:A2 3.90266e-05
26 *338:35 *617:97 4.13249e-05
27 *2043:A *338:31 1.91597e-05
28 *2043:B *338:31 0.000123225
29 *2043:B *338:35 0
30 *2050:A *2061:D 0.000140912
31 *2050:A *338:35 7.23533e-05
32 *2051:B1 *2061:D 0
33 *2057:B *338:10 0.000122155
34 *2057:C *338:10 4.82863e-05
35 *2057:C *338:21 0.000144887
36 *2057:C *338:31 1.34361e-05
37 *2061:B *338:35 1.07797e-05
38 *2061:C *2061:D 4.82863e-05
39 *2065:A2 *338:35 0
40 *2307:D *338:21 1.93834e-05
41 *2309:D *338:31 0.000574279
42 *289:6 *338:10 4.99619e-05
43 *289:17 *338:10 0.000163199
44 *289:17 *338:21 3.57349e-05
45 *326:16 *338:31 6.28843e-05
46 *331:23 *2061:D 4.47209e-05
47 *332:8 *338:35 0
48 *337:8 *2061:D 8.09021e-06
*RES
1 *2049:X *338:10 8.635 
2 *338:10 *2057:D 1.6 
3 *338:10 *338:21 4.85 
4 *338:21 *338:31 14.875 
5 *338:31 *338:35 3.87 
6 *338:35 *2061:D 6.975 
7 *338:35 *2050:B 3.6 
8 *338:31 *2065:B1_N 3.6 
9 *338:21 *2056:C 3.6 
*END

*D_NET *339 0.000407812
*CONN
*I *2059:A1 I *D sky130_fd_sc_hd__a31o_1
*I *2050:X O *D sky130_fd_sc_hd__or4b_1
*CAP
1 *2059:A1 0.000106188
2 *2050:X 0.000106188
3 *2059:A1 *2059:B1 4.40812e-05
4 *2059:A1 *607:53 8.65961e-05
5 *2051:B1 *2059:A1 6.47594e-05
*RES
1 *2050:X *2059:A1 9.375 
*END

*D_NET *340 0.000710898
*CONN
*I *2059:A2 I *D sky130_fd_sc_hd__a31o_1
*I *2051:X O *D sky130_fd_sc_hd__a41o_1
*CAP
1 *2059:A2 0.000167798
2 *2051:X 0.000167798
3 *2059:A2 *500:70 4.43871e-06
4 *2051:A4 *2059:A2 4.82919e-05
5 *2051:B1 *2059:A2 0.000293719
6 *2061:D *2059:A2 0
7 *2289:D *2059:A2 2.88519e-05
*RES
1 *2051:X *2059:A2 11.07 
*END

*D_NET *341 0.000480982
*CONN
*I *2054:A3 I *D sky130_fd_sc_hd__a311o_1
*I *2052:X O *D sky130_fd_sc_hd__or2_1
*CAP
1 *2054:A3 0.000113731
2 *2052:X 0.000113731
3 *2054:A3 *2019:A 7.47062e-05
4 *2041:C *2054:A3 3.31282e-05
5 *2051:A2 *2054:A3 9.50342e-06
6 *2054:A2 *2054:A3 0.000136182
*RES
1 *2052:X *2054:A3 9.63 
*END

*D_NET *342 0.00123448
*CONN
*I *2054:B1 I *D sky130_fd_sc_hd__a311o_1
*I *2053:X O *D sky130_fd_sc_hd__or3_1
*CAP
1 *2054:B1 0.000183413
2 *2053:X 0.000183413
3 *2054:B1 *2053:C 0
4 *2054:B1 *2054:A1 4.82863e-05
5 *2054:B1 *2328:CLK 7.60314e-05
6 *2054:B1 *2383:A 0.000344459
7 *2054:B1 *513:10 2.37321e-05
8 *2054:B1 *513:12 2.97004e-06
9 *2054:B1 *607:53 4.92096e-05
10 *2041:C *2054:B1 5.55927e-05
11 *2051:A2 *2054:B1 0.00023468
12 *2054:C1 *2054:B1 3.26889e-05
*RES
1 *2053:X *2054:B1 13.095 
*END

*D_NET *343 0.00156099
*CONN
*I *2063:A2 I *D sky130_fd_sc_hd__o21ba_1
*I *2055:B I *D sky130_fd_sc_hd__nand2_1
*I *2054:X O *D sky130_fd_sc_hd__a311o_1
*CAP
1 *2063:A2 0.000116706
2 *2055:B 0
3 *2054:X 0.000185001
4 *343:8 0.000301708
5 *2063:A2 *607:53 3.00381e-05
6 *343:8 *501:31 0.000116158
7 *343:8 *607:53 0.000128005
8 *2041:C *343:8 9.47454e-05
9 *2051:A2 *343:8 0.000139238
10 *289:35 *2063:A2 0.00020613
11 *289:35 *343:8 3.25831e-05
12 *332:8 *2063:A2 7.97083e-05
13 *332:8 *343:8 0.000130968
*RES
1 *2054:X *343:8 9.06 
2 *343:8 *2055:B 3.6 
3 *343:8 *2063:A2 6.9 
*END

*D_NET *344 0.00131228
*CONN
*I *2059:A3 I *D sky130_fd_sc_hd__a31o_1
*I *2055:Y O *D sky130_fd_sc_hd__nand2_1
*CAP
1 *2059:A3 0.000505657
2 *2055:Y 0.000505657
3 *2059:A3 *2059:B1 8.65905e-05
4 *2061:D *2059:A3 1.34594e-05
5 *289:35 *2059:A3 3.64998e-06
6 *331:23 *2059:A3 0.000197269
*RES
1 *2055:Y *2059:A3 10.565 
*END

*D_NET *345 0.00128555
*CONN
*I *2066:A2 I *D sky130_fd_sc_hd__a31oi_1
*I *2096:A2 I *D sky130_fd_sc_hd__a31o_1
*I *2056:Y O *D sky130_fd_sc_hd__nand3_1
*CAP
1 *2066:A2 0.000188826
2 *2096:A2 2.35045e-05
3 *2056:Y 4.39927e-05
4 *345:6 0.000256323
5 *2066:A2 *2058:B 4.5526e-05
6 *2066:A2 *2066:A3 0.000159003
7 *2066:A2 *2066:B1 8.49205e-05
8 *2066:A2 *2096:A3 4.66108e-05
9 *2066:A2 *352:16 4.82919e-05
10 *2066:A2 *498:21 2.09027e-05
11 *2066:A2 *615:102 0.000120173
12 *345:6 *2096:B1 1.61831e-05
13 *345:6 *615:102 0.000157655
14 *2056:A *345:6 2.49909e-05
15 *2307:D *2066:A2 2.0851e-06
16 *334:31 *2066:A2 1.42281e-05
17 *334:31 *2096:A2 1.20741e-05
18 *334:31 *345:6 2.02637e-05
19 *335:16 *2066:A2 0
*RES
1 *2056:Y *345:6 3.08125 
2 *345:6 *2096:A2 2.06875 
3 *345:6 *2066:A2 9.93875 
*END

*D_NET *346 0.00193716
*CONN
*I *2058:C I *D sky130_fd_sc_hd__or3_1
*I *2097:B I *D sky130_fd_sc_hd__or4b_1
*I *2057:X O *D sky130_fd_sc_hd__and4_1
*CAP
1 *2058:C 0.000203028
2 *2097:B 0.000233772
3 *2057:X 2.01995e-05
4 *346:6 0.000456999
5 *2058:C *2066:B1 0.000124445
6 *2058:C *498:46 0.000183824
7 *2097:B *2096:B1 0
8 *2097:B *2097:D_N 0
9 *2097:B *613:57 0
10 *346:6 *498:46 8.40213e-05
11 *2057:C *2097:B 0.000179206
12 *289:17 *2058:C 4.66108e-05
13 *289:17 *2097:B 0.000144055
14 *289:17 *346:6 8.40213e-05
15 *289:27 *2097:B 1.93765e-05
16 *326:16 *2097:B 0.000157602
*RES
1 *2057:X *346:6 2.395 
2 *346:6 *2097:B 10.805 
3 *346:6 *2058:C 5.77 
*END

*D_NET *347 0.00418289
*CONN
*I *2145:A2 I *D sky130_fd_sc_hd__o21a_1
*I *2064:C1 I *D sky130_fd_sc_hd__a211oi_1
*I *2059:B1 I *D sky130_fd_sc_hd__a31o_1
*I *2058:X O *D sky130_fd_sc_hd__or3_1
*CAP
1 *2145:A2 0.00037134
2 *2064:C1 0
3 *2059:B1 0.000220949
4 *2058:X 0
5 *347:10 0.000482431
6 *347:6 0.000632822
7 *2059:B1 *2064:A1 9.53671e-05
8 *2059:B1 *617:97 1.71013e-05
9 *2145:A2 *1987:B2 0
10 *2145:A2 *1993:A1 0.00077318
11 *2145:A2 *615:102 2.99518e-06
12 *2145:A2 *615:124 5.86503e-05
13 *347:10 *2066:B1 0.000121179
14 *347:10 *615:102 0
15 *347:10 *617:97 0.00012111
16 *2046:A1 *347:10 0.000112679
17 *2051:B1 *2059:B1 0
18 *2059:A1 *2059:B1 4.40812e-05
19 *2059:A3 *2059:B1 8.65905e-05
20 *2061:D *2059:B1 0
21 *2309:D *347:10 0.000139238
22 *2333:D *2145:A2 5.21627e-05
23 *334:68 *2145:A2 0
24 *335:16 *2145:A2 0.000361892
25 *335:16 *347:10 0.000227157
26 *335:22 *2059:B1 1.70935e-05
27 *335:22 *347:10 0.00016856
28 *335:28 *2059:B1 7.63125e-05
29 *338:35 *2059:B1 0
*RES
1 *2058:X *347:6 3.6 
2 *347:6 *347:10 7.185 
3 *347:10 *2059:B1 8.58 
4 *347:10 *2064:C1 3.6 
5 *347:6 *2145:A2 14.67 
*END

*D_NET *348 0.00214984
*CONN
*I *2098:B I *D sky130_fd_sc_hd__xnor2_1
*I *2060:B I *D sky130_fd_sc_hd__nor2_1
*I *2059:X O *D sky130_fd_sc_hd__a31o_1
*CAP
1 *2098:B 7.64378e-05
2 *2060:B 0.000184227
3 *2059:X 0.000552479
4 *348:6 0.000813143
5 *2060:B *617:71 0.000394699
6 *2098:B *496:8 0
7 *2098:B *617:71 0.00011852
8 *348:6 *617:71 1.03323e-05
9 *2308:D *2098:B 0
*RES
1 *2059:X *348:6 7.57 
2 *348:6 *2060:B 6.025 
3 *348:6 *2098:B 6.98 
*END

*D_NET *349 0.000525825
*CONN
*I *2064:A1 I *D sky130_fd_sc_hd__a211oi_1
*I *2061:X O *D sky130_fd_sc_hd__or4_1
*CAP
1 *2064:A1 9.41573e-05
2 *2061:X 9.41573e-05
3 *2059:B1 *2064:A1 9.53671e-05
4 *2061:D *2064:A1 7.4027e-05
5 *338:35 *2064:A1 0.000168116
*RES
1 *2061:X *2064:A1 10.11 
*END

*D_NET *350 0.00224756
*CONN
*I *2063:B1_N I *D sky130_fd_sc_hd__o21ba_1
*I *2097:C I *D sky130_fd_sc_hd__or4b_1
*I *2062:Y O *D sky130_fd_sc_hd__nor3_1
*CAP
1 *2063:B1_N 0.000429632
2 *2097:C 0.000254507
3 *2062:Y 0
4 *350:4 0.000684139
5 *2063:B1_N *607:53 4.83503e-05
6 *2097:C *617:86 0.000172703
7 *2050:C *2063:B1_N 5.49536e-05
8 *2051:B1 *2063:B1_N 9.71067e-05
9 *326:20 *2063:B1_N 9.78012e-05
10 *335:22 *2063:B1_N 3.57846e-05
11 *335:28 *2063:B1_N 0.000372582
*RES
1 *2062:Y *350:4 1.6 
2 *350:4 *2097:C 5.08 
3 *350:4 *2063:B1_N 13.055 
*END

*D_NET *351 0.000704635
*CONN
*I *2064:A2 I *D sky130_fd_sc_hd__a211oi_1
*I *2063:X O *D sky130_fd_sc_hd__o21ba_1
*CAP
1 *2064:A2 0.000160375
2 *2063:X 0.000160375
3 *2061:B *2064:A2 9.54399e-05
4 *2062:B *2064:A2 4.80182e-05
5 *2065:A2 *2064:A2 0.000149766
6 *337:23 *2064:A2 5.16348e-05
7 *338:35 *2064:A2 3.90266e-05
*RES
1 *2063:X *2064:A2 10.74 
*END

*D_NET *352 0.00212897
*CONN
*I *2066:A3 I *D sky130_fd_sc_hd__a31oi_1
*I *2096:A3 I *D sky130_fd_sc_hd__a31o_1
*I *2065:Y O *D sky130_fd_sc_hd__o21bai_1
*CAP
1 *2066:A3 6.82229e-05
2 *2096:A3 1.31287e-05
3 *2065:Y 0.000411045
4 *352:16 0.000492396
5 *2066:A3 *2096:B1 0.000109786
6 *2066:A3 *498:21 7.47215e-05
7 *352:16 *2066:B1 0
8 *352:16 *615:102 0.000318894
9 *352:16 *617:97 0
10 *2043:B *352:16 5.72004e-05
11 *2066:A2 *2066:A3 0.000159003
12 *2066:A2 *2096:A3 4.66108e-05
13 *2066:A2 *352:16 4.82919e-05
14 *2093:A1 *352:16 9.28581e-05
15 *289:27 *352:16 0
16 *334:31 *2096:A3 3.18132e-05
17 *334:31 *352:16 0.000140589
18 *338:31 *352:16 6.44134e-05
*RES
1 *2065:Y *352:16 15.275 
2 *352:16 *2096:A3 2.05 
3 *352:16 *2066:A3 7.745 
*END

*D_NET *353 0.00124161
*CONN
*I *2088:D I *D sky130_fd_sc_hd__or4_1
*I *2068:B I *D sky130_fd_sc_hd__nor2_1
*I *2069:B I *D sky130_fd_sc_hd__or2_1
*I *2067:X O *D sky130_fd_sc_hd__or2_1
*CAP
1 *2088:D 0.000240132
2 *2068:B 0
3 *2069:B 8.58275e-05
4 *2067:X 0.000172219
5 *353:12 8.58275e-05
6 *353:10 0.000412351
7 *2069:B *2068:A 4.99619e-05
8 *2069:B *2155:B1 2.36616e-05
9 *2088:D *2088:A 8.36636e-05
10 *2088:D *2088:B 2.24336e-05
11 *2088:D *2155:B1 6.55328e-05
12 *353:10 *2067:B 0
13 *353:10 *642:42 0
*RES
1 *2067:X *353:10 5.775 
2 *353:10 *353:12 2 
3 *353:12 *2069:B 3.1 
4 *353:12 *2068:B 1.6 
5 *353:10 *2088:D 8.385 
*END

*D_NET *354 0.000607279
*CONN
*I *2155:B1 I *D sky130_fd_sc_hd__o31a_1
*I *2068:Y O *D sky130_fd_sc_hd__nor2_1
*CAP
1 *2155:B1 0.00023202
2 *2068:Y 0.00023202
3 *2155:B1 *2068:A 4.9253e-06
4 *2155:B1 *2088:B 0
5 *2155:B1 *2089:C 4.91189e-05
6 *2069:B *2155:B1 2.36616e-05
7 *2088:D *2155:B1 6.55328e-05
*RES
1 *2068:Y *2155:B1 11.415 
*END

*D_NET *355 0.00190533
*CONN
*I *2165:A2 I *D sky130_fd_sc_hd__a31o_1
*I *2076:B1 I *D sky130_fd_sc_hd__a31o_1
*I *2083:B I *D sky130_fd_sc_hd__or2_1
*I *2069:X O *D sky130_fd_sc_hd__or2_1
*CAP
1 *2165:A2 2.30919e-05
2 *2076:B1 7.17474e-05
3 *2083:B 0
4 *2069:X 0.000529377
5 *355:21 0.000179628
6 *355:10 0.000614166
7 *2076:B1 *666:DIODE 6.82387e-05
8 *2076:B1 *2076:A1 1.40393e-05
9 *2076:B1 *2165:A3 2.08914e-06
10 *2076:B1 *2166:C 1.72077e-05
11 *2076:B1 *362:8 1.59255e-05
12 *2076:B1 *554:96 0
13 *2165:A2 *666:DIODE 8.40269e-05
14 *2165:A2 *2165:A3 2.75229e-05
15 *2165:A2 *2166:C 8.34281e-06
16 *355:10 *2078:B 8.53113e-06
17 *355:10 *363:10 0
18 *355:10 *363:19 0
19 *355:10 *641:53 0
20 *355:10 *642:42 2.65814e-06
21 *355:21 *2078:B 0.000167142
22 *355:21 *2155:A1 0
23 *355:21 *2166:C 7.15931e-05
24 *355:21 *641:53 0
*RES
1 *2069:X *355:10 9.825 
2 *355:10 *2083:B 3.6 
3 *355:10 *355:21 4.145 
4 *355:21 *2076:B1 3.3175 
5 *355:21 *2165:A2 2.395 
*END

*D_NET *356 0.00187575
*CONN
*I *2071:B I *D sky130_fd_sc_hd__or2_1
*I *2080:A1 I *D sky130_fd_sc_hd__o31a_1
*I *2070:X O *D sky130_fd_sc_hd__or4_1
*CAP
1 *2071:B 0
2 *2080:A1 6.9469e-05
3 *2070:X 0.000363502
4 *356:10 0.000432971
5 *2080:A1 *2080:A3 0.000114492
6 *2080:A1 *465:191 9.16237e-05
7 *2080:A1 *480:54 4.99619e-05
8 *2080:A1 *609:29 2.75145e-05
9 *356:10 *2207:B 0.000246579
10 *356:10 *2208:A2 0.000168759
11 *356:10 *2384:A 0
12 *356:10 *465:191 0.000228533
13 *356:10 *473:16 3.57349e-05
14 *356:10 *473:24 4.66108e-05
*RES
1 *2070:X *356:10 12.15 
2 *356:10 *2080:A1 5.94 
3 *356:10 *2071:B 3.6 
*END

*D_NET *357 0.00108086
*CONN
*I *2075:B1 I *D sky130_fd_sc_hd__a31o_1
*I *2080:B1 I *D sky130_fd_sc_hd__o31a_1
*I *2087:A2 I *D sky130_fd_sc_hd__o31a_1
*I *2071:X O *D sky130_fd_sc_hd__or2_1
*CAP
1 *2075:B1 0
2 *2080:B1 2.7091e-05
3 *2087:A2 0.000111396
4 *2071:X 0.00012555
5 *357:23 2.7091e-05
6 *357:10 0.000236946
7 *2080:B1 *2075:A1 4.66108e-05
8 *2080:B1 *480:54 8.65905e-05
9 *2080:B1 *609:29 7.35729e-05
10 *2087:A2 *2075:A2 0.000160148
11 *2087:A2 *2080:A3 0
12 *2087:A2 *465:191 0
13 *2087:A2 *480:58 0.000137578
14 *357:10 *2005:A1 0
15 *357:10 *2080:A3 0
16 *2281:D *357:10 4.82863e-05
*RES
1 *2071:X *357:10 5.43 
2 *357:10 *2087:A2 6.285 
3 *357:10 *357:23 2 
4 *357:23 *2080:B1 2.74 
5 *357:23 *2075:B1 1.6 
*END

*D_NET *358 0.00113918
*CONN
*I *2075:A2 I *D sky130_fd_sc_hd__a31o_1
*I *2072:X O *D sky130_fd_sc_hd__or2_1
*CAP
1 *2075:A2 0.000269507
2 *2072:X 0.000269507
3 *2075:A2 *2005:A1 0
4 *2075:A2 *2087:A3 0.00023635
5 *2075:A2 *2087:B1 8.65961e-05
6 *2075:A2 *2089:B 2.75145e-05
7 *2075:A2 *480:58 7.21296e-06
8 *2075:A2 *615:212 8.23457e-05
9 *2087:A2 *2075:A2 0.000160148
*RES
1 *2072:X *2075:A2 13.35 
*END

*D_NET *359 0.00377194
*CONN
*I *2079:A4 I *D sky130_fd_sc_hd__a41o_1
*I *2073:X O *D sky130_fd_sc_hd__and3_1
*CAP
1 *2079:A4 0.00104786
2 *2073:X 0.00104786
3 *2079:A4 *655:DIODE 0.00014259
4 *2079:A4 *2007:A1 9.50342e-06
5 *2079:A4 *2008:A1 2.0514e-05
6 *2079:A4 *2079:A1 8.65961e-05
7 *2079:A4 *2079:A3 2.97438e-05
8 *2079:A4 *360:16 9.80943e-06
9 *2079:A4 *489:75 0
10 *2079:A4 *490:65 1.15688e-05
11 *2079:A4 *490:67 7.90993e-05
12 *2079:A4 *560:10 0.000647441
13 *2079:A4 *609:29 0.00046451
14 *1951:B *2079:A4 0.000124895
15 *2281:D *2079:A4 4.99619e-05
*RES
1 *2073:X *2079:A4 22.8 
*END

*D_NET *360 0.00615502
*CONN
*I *2176:C I *D sky130_fd_sc_hd__and4_1
*I *2075:A3 I *D sky130_fd_sc_hd__a31o_1
*I *2080:A2 I *D sky130_fd_sc_hd__o31a_1
*I *2086:B1 I *D sky130_fd_sc_hd__o211a_1
*I *2074:X O *D sky130_fd_sc_hd__and4_1
*CAP
1 *2176:C 0.000299124
2 *2075:A3 0.000179146
3 *2080:A2 0
4 *2086:B1 0
5 *2074:X 0.000138402
6 *360:29 0.000355053
7 *360:16 0.000725075
8 *360:8 0.000986694
9 *2075:A3 *2075:A1 7.3151e-05
10 *2075:A3 *480:54 0.000163199
11 *2075:A3 *609:29 2.20732e-05
12 *2176:C *2176:D 5.30673e-05
13 *2176:C *2204:A_N 6.53854e-05
14 *2176:C *430:10 0
15 *2176:C *434:25 0.00012657
16 *2176:C *490:55 0
17 *2176:C *490:65 0
18 *2176:C *494:10 4.80285e-05
19 *2176:C *560:100 0
20 *360:16 *655:DIODE 0.000146484
21 *360:16 *2086:C1 4.82919e-05
22 *360:16 *430:10 0
23 *360:16 *488:37 0.00144109
24 *360:16 *560:10 0.000334487
25 *360:16 *560:100 0
26 *360:16 *609:29 0.000282401
27 *360:29 *2081:A3 8.40213e-05
28 *360:29 *480:54 0.000124007
29 *360:29 *488:37 5.74368e-05
30 *360:29 *609:29 0.000169472
31 *1951:B *360:16 4.35348e-05
32 *2079:A4 *360:16 9.80943e-06
33 *296:40 *360:16 0.000179015
*RES
1 *2074:X *360:8 5.085 
2 *360:8 *360:16 20.18 
3 *360:16 *2086:B1 1.6 
4 *360:16 *360:29 4.545 
5 *360:29 *2080:A2 1.6 
6 *360:29 *2075:A3 4.825 
7 *360:8 *2176:C 9.45 
*END

*D_NET *361 0.00387802
*CONN
*I *2076:A3 I *D sky130_fd_sc_hd__a31o_1
*I *2075:X O *D sky130_fd_sc_hd__a31o_1
*CAP
1 *2076:A3 0.00134823
2 *2075:X 0.00134823
3 *2076:A3 *2005:A1 0.000149749
4 *2076:A3 *2085:C 0.000123462
5 *2076:A3 *2085:D_N 6.71123e-05
6 *2076:A3 *2161:A2 1.93928e-05
7 *2076:A3 *2161:A3 0
8 *2076:A3 *2164:B1 0.000165222
9 *2076:A3 *369:8 5.24275e-06
10 *2076:A3 *540:69 0
11 *2076:A3 *609:29 2.8768e-05
12 *2076:A3 *613:89 0.000191101
13 *2076:A3 *613:113 9.52234e-05
14 *2076:A3 *613:135 0
15 *2076:A3 *615:177 1.23244e-05
16 *2003:B1 *2076:A3 0.0002014
17 *2076:A2 *2076:A3 8.08092e-06
18 *2336:D *2076:A3 0.000114492
19 *2340:D *2076:A3 0
*RES
1 *2075:X *2076:A3 31.875 
*END

*D_NET *362 0.00177429
*CONN
*I *2164:A2 I *D sky130_fd_sc_hd__a31o_1
*I *2078:B I *D sky130_fd_sc_hd__nor3b_1
*I *2076:X O *D sky130_fd_sc_hd__a31o_1
*CAP
1 *2164:A2 4.18168e-05
2 *2078:B 0.000195585
3 *2076:X 0.000218514
4 *362:8 0.000455916
5 *2078:B *2076:A1 7.19352e-05
6 *2078:B *2083:A 4.82863e-05
7 *2078:B *2166:C 2.15594e-05
8 *2078:B *364:12 0.000164874
9 *2078:B *369:8 3.32661e-05
10 *2078:B *615:177 2.92496e-05
11 *2164:A2 *2164:A3 5.16418e-05
12 *2164:A2 *2166:C 3.23391e-05
13 *2164:A2 *615:177 0.000105266
14 *362:8 *666:DIODE 4.66108e-05
15 *362:8 *2076:A1 1.03423e-05
16 *362:8 *2161:A2 4.66108e-05
17 *2076:A2 *362:8 8.88108e-06
18 *2076:B1 *362:8 1.59255e-05
19 *2078:A *2078:B 0
20 *355:10 *2078:B 8.53113e-06
21 *355:21 *2078:B 0.000167142
*RES
1 *2076:X *362:8 6.12 
2 *362:8 *2078:B 8.43 
3 *362:8 *2164:A2 4.98 
*END

*D_NET *363 0.00334118
*CONN
*I *2164:A3 I *D sky130_fd_sc_hd__a31o_1
*I *2161:B1 I *D sky130_fd_sc_hd__o32a_1
*I *2078:C_N I *D sky130_fd_sc_hd__nor3b_1
*I *2077:Y O *D sky130_fd_sc_hd__nor2_1
*CAP
1 *2164:A3 0.000317066
2 *2161:B1 2.01995e-05
3 *2078:C_N 0
4 *2077:Y 0.000377124
5 *363:19 0.000402465
6 *363:10 0.000442324
7 *2161:B1 *554:59 8.40213e-05
8 *2164:A3 *2085:D_N 0.000114492
9 *2164:A3 *2166:C 5.16418e-05
10 *2164:A3 *540:52 0.000340209
11 *2164:A3 *554:96 4.43871e-06
12 *363:10 *461:10 0.000432198
13 *363:10 *554:59 2.97004e-06
14 *363:10 *559:34 0.000241483
15 *363:19 *554:59 4.91758e-05
16 *363:19 *554:96 9.82856e-06
17 *2078:A *2161:B1 8.40213e-05
18 *2078:A *363:19 0.000139231
19 *2164:A1 *2164:A3 0.000126679
20 *2164:A1 *363:19 4.9968e-05
21 *2164:A2 *2164:A3 5.16418e-05
22 *355:10 *363:10 0
23 *355:10 *363:19 0
*RES
1 *2077:Y *363:10 11.235 
2 *363:10 *2078:C_N 3.6 
3 *363:10 *363:19 2.145 
4 *363:19 *2161:B1 4.395 
5 *363:19 *2164:A3 13.06 
*END

*D_NET *364 0.00448399
*CONN
*I *2158:B1 I *D sky130_fd_sc_hd__a221o_1
*I *2092:A2 I *D sky130_fd_sc_hd__a21bo_1
*I *2078:Y O *D sky130_fd_sc_hd__nor3b_1
*CAP
1 *2158:B1 0.00021557
2 *2092:A2 0.000194382
3 *2078:Y 0.000501424
4 *364:12 0.000911376
5 *2092:A2 *2084:B 4.82919e-05
6 *2092:A2 *367:36 0.000778809
7 *2092:A2 *621:203 0.00027476
8 *2158:B1 *2155:A3 1.70935e-05
9 *2158:B1 *2159:A1 0
10 *2158:B1 *2159:A2 8.40213e-05
11 *2158:B1 *415:16 2.15594e-05
12 *2158:B1 *621:203 2.8185e-05
13 *364:12 *2082:A 0.000179015
14 *364:12 *2083:A 0.000131791
15 *364:12 *2155:A1 7.07957e-05
16 *364:12 *2155:A3 0
17 *364:12 *2156:A2 0
18 *364:12 *2159:A1 3.38982e-05
19 *364:12 *367:36 0.000202102
20 *364:12 *621:203 2.86623e-05
21 *364:12 *641:53 2.86623e-05
22 *2078:B *364:12 0.000164874
23 *2089:D_N *2158:B1 1.08758e-05
24 *2158:A2 *2158:B1 2.42808e-05
25 *2164:A1 *2092:A2 0.000457696
26 *316:34 *2158:B1 7.58604e-05
*RES
1 *2078:Y *364:12 16.325 
2 *364:12 *2092:A2 10.105 
3 *364:12 *2158:B1 9.35 
*END

*D_NET *365 0.00041912
*CONN
*I *2080:A3 I *D sky130_fd_sc_hd__o31a_1
*I *2079:X O *D sky130_fd_sc_hd__a41o_1
*CAP
1 *2080:A3 0.000133517
2 *2079:X 0.000133517
3 *2080:A1 *2080:A3 0.000114492
4 *2087:A2 *2080:A3 0
5 *2281:D *2080:A3 3.75943e-05
6 *357:10 *2080:A3 0
*RES
1 *2079:X *2080:A3 9.375 
*END

*D_NET *366 0.00331734
*CONN
*I *2081:A3 I *D sky130_fd_sc_hd__a31o_1
*I *2080:X O *D sky130_fd_sc_hd__o31a_1
*CAP
1 *2081:A3 0.000607119
2 *2080:X 0.000607119
3 *2081:A3 *2003:A1 0
4 *2081:A3 *2005:B2 0.000129047
5 *2081:A3 *2159:B1 4.60819e-05
6 *2081:A3 *465:191 0.000266618
7 *2081:A3 *480:58 0
8 *2081:A3 *554:32 0.000723671
9 *2081:A3 *554:123 0.000174512
10 *2081:A3 *601:18 3.76596e-05
11 *2081:A3 *615:156 0.00017946
12 *2081:A3 *615:177 3.13899e-05
13 *2081:A3 *615:212 0.000244781
14 *2001:B *2081:A3 9.27921e-05
15 *2090:C_N *2081:A3 9.30717e-05
16 *360:29 *2081:A3 8.40213e-05
*RES
1 *2080:X *2081:A3 24.21 
*END

*D_NET *367 0.0048585
*CONN
*I *2156:A1 I *D sky130_fd_sc_hd__o21a_1
*I *2082:A I *D sky130_fd_sc_hd__inv_2
*I *2091:A1 I *D sky130_fd_sc_hd__o211a_1
*I *2161:A1 I *D sky130_fd_sc_hd__o32a_1
*I *2081:X O *D sky130_fd_sc_hd__a31o_1
*CAP
1 *2156:A1 5.41126e-05
2 *2082:A 9.27751e-05
3 *2091:A1 0
4 *2161:A1 7.51239e-05
5 *2081:X 0.000132742
6 *367:36 0.000692161
7 *367:12 0.000148751
8 *367:10 0.000751642
9 *2082:A *2155:A1 0.000114943
10 *2082:A *2156:B1 1.65192e-05
11 *2082:A *2165:A3 4.82863e-05
12 *2082:A *2165:B1 5.7344e-05
13 *2156:A1 *2156:B1 0.000237243
14 *2156:A1 *375:12 6.90876e-05
15 *2156:A1 *540:52 0.000352156
16 *2161:A1 *2091:C1 5.16418e-05
17 *2161:A1 *2161:A3 0.000102411
18 *2161:A1 *554:44 8.26457e-05
19 *2161:A1 *554:59 0
20 *367:10 *540:69 0.000123225
21 *367:10 *546:31 9.37731e-05
22 *367:12 *2091:C1 0.000191202
23 *367:12 *2161:A3 9.07769e-05
24 *367:12 *546:31 2.92496e-05
25 *367:36 *2084:B 4.66108e-05
26 *367:36 *2156:B1 8.08153e-06
27 *367:36 *621:203 7.21296e-06
28 *2092:A2 *367:36 0.000778809
29 *2164:A1 *367:36 0
30 *319:10 *367:10 2.88519e-05
31 *364:12 *2082:A 0.000179015
32 *364:12 *367:36 0.000202102
*RES
1 *2081:X *367:10 5.865 
2 *367:10 *367:12 2.4 
3 *367:12 *2161:A1 6 
4 *367:12 *2091:A1 3.6 
5 *367:10 *367:36 14.35 
6 *367:36 *2082:A 6.54 
7 *367:36 *2156:A1 6.81 
*END

*D_NET *368 0.000440356
*CONN
*I *2165:A3 I *D sky130_fd_sc_hd__a31o_1
*I *2082:Y O *D sky130_fd_sc_hd__inv_2
*CAP
1 *2165:A3 0.000144451
2 *2082:Y 0.000144451
3 *2165:A3 *666:DIODE 4.21666e-05
4 *2165:A3 *2155:A1 2.0514e-05
5 *2165:A3 *2166:C 1.08758e-05
6 *2076:B1 *2165:A3 2.08914e-06
7 *2082:A *2165:A3 4.82863e-05
8 *2165:A2 *2165:A3 2.75229e-05
*RES
1 *2082:Y *2165:A3 5.735 
*END

*D_NET *369 0.00202193
*CONN
*I *2085:C I *D sky130_fd_sc_hd__or4b_1
*I *2161:A2 I *D sky130_fd_sc_hd__o32a_1
*I *2083:X O *D sky130_fd_sc_hd__or2_1
*CAP
1 *2085:C 0.000100006
2 *2161:A2 0.000274619
3 *2083:X 8.80936e-05
4 *369:8 0.000462718
5 *2085:C *2076:A1 1.00941e-05
6 *2085:C *2085:D_N 8.49205e-05
7 *2085:C *375:12 4.0843e-05
8 *2085:C *540:52 0.00015896
9 *2085:C *615:177 6.47709e-05
10 *2161:A2 *2085:D_N 1.88904e-05
11 *2161:A2 *554:59 0.00015639
12 *2161:A2 *554:96 0.000179177
13 *369:8 *2076:A1 3.0559e-05
14 *2076:A2 *369:8 7.1903e-05
15 *2076:A3 *2085:C 0.000123462
16 *2076:A3 *2161:A2 1.93928e-05
17 *2076:A3 *369:8 5.24275e-06
18 *2078:A *2161:A2 1.47256e-05
19 *2078:A *369:8 0
20 *2078:B *369:8 3.32661e-05
21 *320:6 *2161:A2 3.72916e-05
22 *362:8 *2161:A2 4.66108e-05
*RES
1 *2083:X *369:8 5.3625 
2 *369:8 *2161:A2 7.9103 
3 *369:8 *2085:C 6.8475 
*END

*D_NET *370 0.00193997
*CONN
*I *2090:B I *D sky130_fd_sc_hd__or3b_1
*I *2085:B I *D sky130_fd_sc_hd__or4b_1
*I *2084:Y O *D sky130_fd_sc_hd__nor2_1
*CAP
1 *2090:B 0
2 *2085:B 0.000411994
3 *2084:Y 0.000145531
4 *370:6 0.000557525
5 *2085:B *2053:B 0
6 *2085:B *2090:A 7.06865e-05
7 *2085:B *2091:A2 0.000107424
8 *2085:B *2091:C1 9.87525e-05
9 *2085:B *2093:A2 0.000206109
10 *2085:B *2166:A 1.03423e-05
11 *2085:B *375:12 2.10034e-05
12 *2085:B *540:52 1.08758e-05
13 *2085:B *554:44 2.92496e-05
14 *370:6 *2084:B 8.57406e-05
15 *370:6 *554:44 4.66108e-05
16 *2090:C_N *2085:B 2.23485e-05
17 *319:10 *2085:B 0.000115774
*RES
1 *2084:Y *370:6 3.43 
2 *370:6 *2085:B 12.92 
3 *370:6 *2090:B 1.6 
*END

*D_NET *371 0.000433891
*CONN
*I *2091:A2 I *D sky130_fd_sc_hd__o211a_1
*I *2085:X O *D sky130_fd_sc_hd__or4b_1
*CAP
1 *2091:A2 8.3149e-05
2 *2085:X 8.3149e-05
3 *2091:A2 *2091:B1 9.53428e-06
4 *2091:A2 *2091:C1 2.40278e-05
5 *2091:A2 *375:12 0.00010804
6 *2091:A2 *540:52 1.85674e-05
7 *2085:B *2091:A2 0.000107424
*RES
1 *2085:X *2091:A2 5.75 
*END

*D_NET *372 0.000638666
*CONN
*I *2087:A3 I *D sky130_fd_sc_hd__o31a_1
*I *2086:X O *D sky130_fd_sc_hd__o211a_1
*CAP
1 *2087:A3 0.00015563
2 *2086:X 0.00015563
3 *2087:A3 *2072:B 3.89528e-05
4 *2087:A3 *465:191 5.21046e-05
5 *2075:A2 *2087:A3 0.00023635
*RES
1 *2086:X *2087:A3 10.5 
*END

*D_NET *373 0.00467488
*CONN
*I *2089:B I *D sky130_fd_sc_hd__or4b_1
*I *2087:X O *D sky130_fd_sc_hd__o31a_1
*CAP
1 *2089:B 0.00179283
2 *2087:X 0.00179283
3 *2089:B *2154:A 0
4 *2089:B *2158:C1 3.86529e-05
5 *2089:B *2466:A 0
6 *2089:B *415:10 0.000157602
7 *2089:B *415:16 5.11148e-06
8 *2089:B *579:16 0.00017219
9 *2089:B *579:26 9.0296e-05
10 *2089:B *620:66 0.000168275
11 *2089:B *620:84 9.57888e-05
12 *2089:B *649:23 0
13 wb_dat_o[10] *2089:B 0
14 *2075:A2 *2089:B 2.75145e-05
15 *2154:B *2089:B 2.23407e-05
16 *2163:B2 *2089:B 0.000116165
17 *2280:D *2089:B 0.000141323
18 *2280:RESET_B *2089:B 5.39718e-05
19 *316:28 *2089:B 0
*RES
1 *2087:X *2089:B 35.46 
*END

*D_NET *374 0.000866699
*CONN
*I *2089:C I *D sky130_fd_sc_hd__or4b_1
*I *2088:X O *D sky130_fd_sc_hd__or4_1
*CAP
1 *2089:C 0.000244951
2 *2088:X 0.000244951
3 *2089:C *2088:B 0.000140071
4 *2089:C *2155:A2 5.11148e-06
5 *2089:C *2155:A3 0
6 *2089:C *2158:C1 0
7 *2089:C *540:27 1.23331e-05
8 *2089:C *540:52 0.000160658
9 *2089:C *579:26 9.50342e-06
10 *2155:B1 *2089:C 4.91189e-05
*RES
1 *2088:X *2089:C 12.66 
*END

*D_NET *375 0.00361494
*CONN
*I *2091:B1 I *D sky130_fd_sc_hd__o211a_1
*I *2166:A I *D sky130_fd_sc_hd__and3_1
*I *2089:X O *D sky130_fd_sc_hd__or4b_1
*CAP
1 *2091:B1 1.63287e-05
2 *2166:A 3.57709e-05
3 *2089:X 0.00071413
4 *375:12 0.000766229
5 *2091:B1 *2091:C1 9.53428e-06
6 *2166:A *2091:C1 6.02791e-05
7 *2166:A *2166:C 0.000120655
8 *375:12 *2085:D_N 8.49205e-05
9 *375:12 *2088:B 2.31329e-05
10 *375:12 *2091:C1 8.34281e-06
11 *375:12 *2155:A2 9.37731e-05
12 *375:12 *2156:B1 0.000349592
13 *375:12 *2166:C 0.00071299
14 *375:12 *540:27 8.53113e-06
15 *375:12 *540:52 0.000146313
16 *375:12 *540:69 4.66108e-05
17 *2085:B *2166:A 1.03423e-05
18 *2085:B *375:12 2.10034e-05
19 *2085:C *375:12 4.0843e-05
20 *2091:A2 *2091:B1 9.53428e-06
21 *2091:A2 *375:12 0.00010804
22 *2156:A1 *375:12 6.90876e-05
23 *2164:A1 *375:12 0.00015896
*RES
1 *2089:X *375:12 21.665 
2 *375:12 *2166:A 2.74 
3 *375:12 *2091:B1 1.96 
*END

*D_NET *376 0.00126732
*CONN
*I *2091:C1 I *D sky130_fd_sc_hd__o211a_1
*I *2090:X O *D sky130_fd_sc_hd__or3b_1
*CAP
1 *2091:C1 0.000257117
2 *2090:X 0.000257117
3 *2091:C1 *2084:B 1.91597e-05
4 *2091:C1 *2166:B 0
5 *2091:C1 *554:44 0.000290143
6 *2085:B *2091:C1 9.87525e-05
7 *2091:A2 *2091:C1 2.40278e-05
8 *2091:B1 *2091:C1 9.53428e-06
9 *2161:A1 *2091:C1 5.16418e-05
10 *2166:A *2091:C1 6.02791e-05
11 *367:12 *2091:C1 0.000191202
12 *375:12 *2091:C1 8.34281e-06
*RES
1 *2090:X *2091:C1 13.125 
*END

*D_NET *377 0.000545849
*CONN
*I *2092:B1_N I *D sky130_fd_sc_hd__a21bo_1
*I *2091:X O *D sky130_fd_sc_hd__o211a_1
*CAP
1 *2092:B1_N 0.000120738
2 *2091:X 0.000120738
3 *2092:B1_N *2161:A3 0.000159269
4 *2092:B1_N *621:203 8.65961e-05
5 *2164:A1 *2092:B1_N 5.85071e-05
*RES
1 *2091:X *2092:B1_N 9.885 
*END

*D_NET *378 0.00181774
*CONN
*I *2093:A2 I *D sky130_fd_sc_hd__a21o_1
*I *2092:X O *D sky130_fd_sc_hd__a21bo_1
*CAP
1 *2093:A2 0.000395299
2 *2092:X 0.000395299
3 *2093:A2 *2053:B 0
4 *2093:A2 *2084:B 5.8825e-05
5 *2093:A2 *2090:A 4.82919e-05
6 *2093:A2 *2093:B1 4.99619e-05
7 *2093:A2 *2162:A_N 0.000147093
8 *2093:A2 *621:203 0.00015639
9 *2085:B *2093:A2 0.000206109
10 *2219:A2 *2093:A2 4.7043e-05
11 *2342:D *2093:A2 3.85884e-05
12 *170:48 *2093:A2 0.00020655
13 *319:10 *2093:A2 4.79598e-05
14 *319:12 *2093:A2 2.03321e-05
*RES
1 *2092:X *2093:A2 17.61 
*END

*D_NET *379 0.0041055
*CONN
*I *2153:A2 I *D sky130_fd_sc_hd__o211a_1
*I *2151:B I *D sky130_fd_sc_hd__nor2_1
*I *2095:A2 I *D sky130_fd_sc_hd__a21oi_1
*I *2094:X O *D sky130_fd_sc_hd__or4_1
*CAP
1 *2153:A2 2.08101e-05
2 *2151:B 2.08101e-05
3 *2095:A2 0.000135112
4 *2094:X 0.000435513
5 *379:10 0.000319137
6 *379:8 0.000619539
7 *2095:A2 *2152:A3 0.00073174
8 *379:8 *2094:B 2.75229e-05
9 *379:8 *414:10 7.20129e-05
10 *379:10 *2152:A3 1.16578e-05
11 *2151:A *379:10 0.000272984
12 *2153:A1 *379:8 2.75145e-05
13 *2153:A1 *379:10 2.16917e-05
14 *2153:B1 *2095:A2 0.000446376
15 *2153:B1 *379:10 0.000377714
16 *2153:C1 *2153:A2 0
17 *2153:C1 *379:10 4.49657e-05
18 *170:70 *379:10 1.56428e-06
19 *287:21 *379:10 1.46744e-05
20 *316:16 *379:8 0.000471475
21 *334:68 *2095:A2 3.26889e-05
*RES
1 *2094:X *379:8 10 
2 *379:8 *379:10 5.28 
3 *379:10 *2095:A2 8.62 
4 *379:10 *2151:B 1.96 
5 *379:8 *2153:A2 1.96 
*END

*D_NET *380 0.000806608
*CONN
*I *2097:D_N I *D sky130_fd_sc_hd__or4b_1
*I *2096:X O *D sky130_fd_sc_hd__a31o_1
*CAP
1 *2097:D_N 0.000247949
2 *2096:X 0.000247949
3 *2097:D_N *2096:B1 4.43871e-06
4 *2097:D_N *617:86 0.000124895
5 *2097:B *2097:D_N 0
6 *326:20 *2097:D_N 0.000181376
7 *335:22 *2097:D_N 0
*RES
1 *2096:X *2097:D_N 12.015 
*END

*D_NET *381 0.000833559
*CONN
*I *2099:A I *D sky130_fd_sc_hd__nor2_1
*I *2097:X O *D sky130_fd_sc_hd__or4b_1
*CAP
1 *2099:A 0.000196887
2 *2097:X 0.000196887
3 *2099:A *2099:B 7.63047e-05
4 *2099:A *613:57 0.000316799
5 *2099:A *617:71 4.66826e-05
*RES
1 *2097:X *2099:A 11.67 
*END

*D_NET *382 0.000441015
*CONN
*I *2099:B I *D sky130_fd_sc_hd__nor2_1
*I *2098:Y O *D sky130_fd_sc_hd__xnor2_1
*CAP
1 *2099:B 0.000110894
2 *2098:Y 0.000110894
3 *2099:B *607:53 8.65905e-05
4 *2099:B *617:71 5.63318e-05
5 *2099:A *2099:B 7.63047e-05
*RES
1 *2098:Y *2099:B 9.63 
*END

*D_NET *383 0.00562044
*CONN
*I *2383:A I *D sky130_fd_sc_hd__buf_1
*I *2382:A I *D sky130_fd_sc_hd__clkbuf_2
*I *2099:Y O *D sky130_fd_sc_hd__nor2_1
*CAP
1 *2383:A 0.0012304
2 *2382:A 0.000167332
3 *2099:Y 0.000206449
4 *383:10 0.00160418
5 *2382:A *1935:A 0.000163199
6 *2382:A *2132:B 8.65961e-05
7 *2383:A *1935:A 0.000214965
8 *2383:A *1936:A 2.75145e-05
9 *2383:A *2040:A 0
10 *2383:A *2042:A 2.49909e-05
11 *2383:A *2054:A1 0.000114492
12 *2383:A *2328:CLK 4.21757e-05
13 *2383:A *500:49 0.000203178
14 *2383:A *500:70 0.000227261
15 *383:10 *501:21 0
16 *383:10 *610:95 0
17 *383:10 *613:57 0.000181315
18 *2041:C *2383:A 0.000158066
19 *2051:A2 *2383:A 0.000310664
20 *2051:A3 *2383:A 0.000163199
21 *2051:A4 *2383:A 1.20411e-05
22 *2054:A2 *2383:A 4.9968e-05
23 *2054:B1 *2383:A 0.000344459
24 *2131:A *2382:A 4.60584e-05
25 *274:6 *2382:A 1.60203e-05
26 *332:8 *2383:A 8.53113e-06
27 *337:8 *2383:A 1.73877e-05
*RES
1 *2099:Y *383:10 9.53 
2 *383:10 *2382:A 4.81 
3 *383:10 *2383:A 26.375 
*END

*D_NET *384 0.00061865
*CONN
*I *2103:B I *D sky130_fd_sc_hd__and3_1
*I *2101:Y O *D sky130_fd_sc_hd__nand2_1
*CAP
1 *2103:B 0.000197331
2 *2101:Y 0.000197331
3 *2103:B *2012:A 0.000102184
4 *2103:B *2144:A 5.74095e-05
5 *2103:B *600:32 2.01259e-05
6 *2103:B *622:32 3.47668e-05
7 *2285:D *2103:B 9.50342e-06
*RES
1 *2101:Y *2103:B 10.83 
*END

*D_NET *385 0.000651901
*CONN
*I *2103:C I *D sky130_fd_sc_hd__and3_1
*I *2102:X O *D sky130_fd_sc_hd__or2_1
*CAP
1 *2103:C 0.000180955
2 *2102:X 0.000180955
3 *2103:C *2285:CLK 4.19967e-05
4 *2103:C *600:26 0
5 *2103:C *600:32 7.39279e-05
6 *2103:C *606:23 8.26614e-05
7 *2318:D *2103:C 9.14049e-05
*RES
1 *2102:X *2103:C 10.8075 
*END

*D_NET *386 0.00100748
*CONN
*I *2106:B I *D sky130_fd_sc_hd__and3_1
*I *2104:Y O *D sky130_fd_sc_hd__nand3_1
*CAP
1 *2106:B 0.000192527
2 *2104:Y 0.000192527
3 *2106:B *2106:C 7.4027e-05
4 *2106:B *2327:CLK 5.92191e-05
5 *2106:B *468:72 9.50114e-05
6 *2106:B *499:24 0.000218843
7 *2106:B *499:41 0.000149604
8 *2106:B *600:58 3.64998e-06
9 *2106:B *600:65 2.20732e-05
*RES
1 *2104:Y *2106:B 12.18 
*END

*D_NET *387 0.000324799
*CONN
*I *2106:C I *D sky130_fd_sc_hd__and3_1
*I *2105:X O *D sky130_fd_sc_hd__a21o_1
*CAP
1 *2106:C 6.19553e-05
2 *2105:X 6.19553e-05
3 *2106:C *468:72 7.23602e-05
4 *2106:C *600:65 5.45011e-05
5 *2106:B *2106:C 7.4027e-05
*RES
1 *2105:X *2106:C 8.58 
*END

*D_NET *388 0.00674419
*CONN
*I *2111:B I *D sky130_fd_sc_hd__or2_1
*I *2110:B I *D sky130_fd_sc_hd__and2_1
*I *2113:C I *D sky130_fd_sc_hd__and3_1
*I *2120:B I *D sky130_fd_sc_hd__and2_1
*I *2125:D I *D sky130_fd_sc_hd__and4_1
*I *2109:A_N I *D sky130_fd_sc_hd__and3b_1
*I *2107:X O *D sky130_fd_sc_hd__and4_1
*CAP
1 *2111:B 0.000160933
2 *2110:B 0.000150912
3 *2113:C 0
4 *2120:B 5.2297e-05
5 *2125:D 5.04689e-05
6 *2109:A_N 0.000116944
7 *2107:X 8.25254e-05
8 *388:57 0.000289036
9 *388:51 0.0008243
10 *388:36 0.00101389
11 *388:23 0.000950126
12 *388:8 0.000662778
13 *2109:A_N *2107:D 0
14 *2109:A_N *507:19 0
15 *2109:A_N *584:22 8.76986e-05
16 *2110:B *2037:C 0
17 *2110:B *510:22 0.000211323
18 *2111:B *2112:B 4.82919e-05
19 *2111:B *2114:B 0.000331243
20 *2111:B *390:10 5.4003e-05
21 *2111:B *397:21 7.16181e-05
22 *2111:B *510:57 1.91597e-05
23 *2120:B *509:36 0.000159964
24 *2120:B *621:52 0.000105805
25 *2125:D *509:48 8.53113e-06
26 *2125:D *607:53 8.34348e-05
27 *388:8 *584:22 0.000239807
28 *388:23 *2038:A2 0
29 *388:23 *507:48 0
30 *388:23 *584:22 1.0183e-05
31 *388:23 *607:53 0
32 *388:23 *607:63 0
33 *388:23 *611:64 0
34 *388:23 *611:76 0
35 *388:51 *602:20 0.000223072
36 *388:57 *2121:A_N 4.49585e-05
37 *388:57 *390:10 0.000139245
38 *388:57 *392:10 0
39 *388:57 *397:21 3.47837e-05
40 *388:57 *510:22 5.49535e-05
41 *388:57 *511:35 1.7396e-05
42 *2125:C *2125:D 0.000133075
43 *328:10 *388:23 0
44 *336:10 *2125:D 2.92496e-05
45 *336:16 *388:23 0.000235573
46 *336:16 *388:36 4.66108e-05
*RES
1 *2107:X *388:8 5.775 
2 *388:8 *2109:A_N 6 
3 *388:8 *388:23 9.635 
4 *388:23 *2125:D 7.49 
5 *388:23 *388:36 5.625 
6 *388:36 *2120:B 7.49 
7 *388:36 *388:51 10.385 
8 *388:51 *388:57 4.91 
9 *388:57 *2113:C 1.6 
10 *388:57 *2110:B 3.985 
11 *388:51 *2111:B 7.92 
*END

*D_NET *389 0.000215734
*CONN
*I *2109:B I *D sky130_fd_sc_hd__and3b_1
*I *2108:X O *D sky130_fd_sc_hd__a31o_1
*CAP
1 *2109:B 8.58445e-05
2 *2108:X 8.58445e-05
3 *2109:B *2109:C 4.40446e-05
*RES
1 *2108:X *2109:B 4.7 
*END

*D_NET *390 0.0018169
*CONN
*I *2114:B I *D sky130_fd_sc_hd__or2_1
*I *2112:A_N I *D sky130_fd_sc_hd__and3b_1
*I *2110:X O *D sky130_fd_sc_hd__and2_1
*CAP
1 *2114:B 0.000159084
2 *2112:A_N 0
3 *2110:X 0.00013268
4 *390:10 0.000291764
5 *2114:B *2111:A 4.82919e-05
6 *2114:B *2112:B 6.07328e-05
7 *2114:B *397:21 0
8 *2114:B *510:57 0.000393029
9 *390:10 *2112:B 0
10 *390:10 *392:6 4.99619e-05
11 *390:10 *509:14 0
12 *390:10 *509:16 3.7712e-05
13 *390:10 *509:26 1.08758e-05
14 *390:10 *510:22 2.16917e-05
15 *390:10 *511:35 8.65905e-05
16 *2111:B *2114:B 0.000331243
17 *2111:B *390:10 5.4003e-05
18 *388:57 *390:10 0.000139245
*RES
1 *2110:X *390:10 6.885 
2 *390:10 *2112:A_N 3.6 
3 *390:10 *2114:B 9.045 
*END

*D_NET *391 0.000730766
*CONN
*I *2112:B I *D sky130_fd_sc_hd__and3b_1
*I *2111:X O *D sky130_fd_sc_hd__or2_1
*CAP
1 *2112:B 0.000235136
2 *2111:X 0.000235136
3 *2112:B *2111:A 0.000145936
4 *2112:B *509:14 5.53249e-06
5 *2111:B *2112:B 4.82919e-05
6 *2114:B *2112:B 6.07328e-05
7 *390:10 *2112:B 0
*RES
1 *2111:X *2112:B 11.175 
*END

*D_NET *392 0.00224758
*CONN
*I *2115:A_N I *D sky130_fd_sc_hd__and3b_1
*I *2116:B I *D sky130_fd_sc_hd__nand2_1
*I *2119:A2 I *D sky130_fd_sc_hd__a21o_1
*I *2117:B I *D sky130_fd_sc_hd__or2_1
*I *2113:X O *D sky130_fd_sc_hd__and3_1
*CAP
1 *2115:A_N 2.41132e-05
2 *2116:B 8.64627e-05
3 *2119:A2 0
4 *2117:B 0.000225303
5 *2113:X 1.97446e-05
6 *392:23 8.64627e-05
7 *392:10 0.000413917
8 *392:6 0.000232472
9 *2115:A_N *2110:A 0.000122337
10 *2115:A_N *509:16 4.82919e-05
11 *2115:A_N *510:22 5.20905e-05
12 *2116:B *2116:A 8.8266e-05
13 *2116:B *511:25 6.1357e-05
14 *2117:B *2117:A 7.75412e-05
15 *2117:B *2408:A 0
16 *2117:B *468:148 8.5225e-05
17 *2117:B *511:23 5.11148e-06
18 *2117:B *511:35 2.03578e-05
19 *392:6 *509:16 0.000124895
20 *392:6 *510:22 5.95442e-05
21 *392:10 *468:148 0.000225068
22 *392:10 *511:35 0.000139058
23 *388:57 *392:10 0
24 *390:10 *392:6 4.99619e-05
*RES
1 *2113:X *392:6 2.74 
2 *392:6 *392:10 6.695 
3 *392:10 *2117:B 8.235 
4 *392:10 *392:23 2 
5 *392:23 *2119:A2 1.6 
6 *392:23 *2116:B 3.43 
7 *392:6 *2115:A_N 2.74 
*END

*D_NET *393 0.000590316
*CONN
*I *2115:B I *D sky130_fd_sc_hd__and3b_1
*I *2114:X O *D sky130_fd_sc_hd__or2_1
*CAP
1 *2115:B 0.000223906
2 *2114:X 0.000223906
3 *2115:B *510:22 0.000102303
4 *2115:B *510:40 3.86607e-05
5 *2322:D *2115:B 1.54061e-06
*RES
1 *2114:X *2115:B 10.905 
*END

*D_NET *394 0.000608429
*CONN
*I *2118:B I *D sky130_fd_sc_hd__and3_1
*I *2116:Y O *D sky130_fd_sc_hd__nand2_1
*CAP
1 *2118:B 0.000174996
2 *2116:Y 0.000174996
3 *2118:B *2116:A 1.08758e-05
4 *2118:B *2118:A 0.00024756
5 *2118:B *621:106 0
*RES
1 *2116:Y *2118:B 10.56 
*END

*D_NET *395 0.000247853
*CONN
*I *2118:C I *D sky130_fd_sc_hd__and3_1
*I *2117:X O *D sky130_fd_sc_hd__or2_1
*CAP
1 *2118:C 9.89455e-05
2 *2117:X 9.89455e-05
3 *2118:C *2118:A 4.99619e-05
*RES
1 *2117:X *2118:C 4.4 
*END

*D_NET *396 0.000485619
*CONN
*I *2121:C I *D sky130_fd_sc_hd__and3b_1
*I *2119:X O *D sky130_fd_sc_hd__a21o_1
*CAP
1 *2121:C 0.000165791
2 *2119:X 0.000165791
3 *2121:C *2121:A_N 1.22762e-05
4 *2121:C *2121:B 1.83756e-05
5 *2121:C *468:130 3.64998e-06
6 *2121:C *511:35 3.56353e-05
7 *2324:D *2121:C 8.41011e-05
*RES
1 *2119:X *2121:C 9.99 
*END

*D_NET *397 0.00324335
*CONN
*I *2122:B I *D sky130_fd_sc_hd__nand2_1
*I *2123:B I *D sky130_fd_sc_hd__or2_1
*I *2121:A_N I *D sky130_fd_sc_hd__and3b_1
*I *2120:X O *D sky130_fd_sc_hd__and2_1
*CAP
1 *2122:B 0.000170184
2 *2123:B 9.29402e-05
3 *2121:A_N 0.000207639
4 *2120:X 0.000480634
5 *397:21 0.000439348
6 *397:8 0.000864497
7 *2121:A_N *509:26 0
8 *2121:A_N *511:35 0
9 *2123:B *510:57 0.000239807
10 *397:8 *2047:B 2.59835e-05
11 *397:8 *509:26 0.000353049
12 *2111:B *397:21 7.16181e-05
13 *2114:B *397:21 0
14 *2121:C *2121:A_N 1.22762e-05
15 *327:8 *397:8 0.000157343
16 *336:10 *397:8 4.82919e-05
17 *388:57 *2121:A_N 4.49585e-05
18 *388:57 *397:21 3.47837e-05
*RES
1 *2120:X *397:8 10.26 
2 *397:8 *2121:A_N 7.05 
3 *397:8 *397:21 3.42 
4 *397:21 *2123:B 5.775 
5 *397:21 *2122:B 6 
*END

*D_NET *398 0.00244027
*CONN
*I *2126:B I *D sky130_fd_sc_hd__nand2_1
*I *2124:B I *D sky130_fd_sc_hd__and3_1
*I *2122:Y O *D sky130_fd_sc_hd__nand2_1
*CAP
1 *2126:B 0.000384952
2 *2124:B 7.62199e-05
3 *2122:Y 0.000274906
4 *398:8 0.000736078
5 *2124:B *2127:C 5.47609e-05
6 *2124:B *602:14 7.64968e-05
7 *2126:B *2053:B 0.000190111
8 *2126:B *2127:C 3.31204e-05
9 *2126:B *2370:A 3.00381e-05
10 *2126:B *469:8 0.000117116
11 *2126:B *469:10 0
12 *2126:B *469:14 0
13 *398:8 *2122:A 3.35595e-05
14 *398:8 *2325:CLK 0.000354725
15 *2325:D *2124:B 7.81876e-05
*RES
1 *2122:Y *398:8 7.5 
2 *398:8 *2124:B 5.745 
3 *398:8 *2126:B 11.52 
*END

*D_NET *399 0.000252835
*CONN
*I *2124:C I *D sky130_fd_sc_hd__and3_1
*I *2123:X O *D sky130_fd_sc_hd__or2_1
*CAP
1 *2124:C 1.31703e-05
2 *2123:X 1.31703e-05
3 *2124:C *2123:A 0.000113247
4 *2124:C *510:57 0.000113247
*RES
1 *2123:X *2124:C 4.22 
*END

*D_NET *400 0.00926144
*CONN
*I *2127:A_N I *D sky130_fd_sc_hd__and3b_1
*I *2128:B I *D sky130_fd_sc_hd__nand2_1
*I *2129:B I *D sky130_fd_sc_hd__or2_1
*I *2134:D I *D sky130_fd_sc_hd__and4_1
*I *2125:X O *D sky130_fd_sc_hd__and4_1
*CAP
1 *2127:A_N 0.000242152
2 *2128:B 0.000195382
3 *2129:B 0
4 *2134:D 8.17427e-05
5 *2125:X 0
6 *400:22 8.17427e-05
7 *400:20 0.0013915
8 *400:4 0.00143827
9 *2127:A_N *2463:A 0.000330454
10 *2127:A_N *465:135 0.000330454
11 *2127:A_N *509:36 0.000195476
12 *2127:A_N *509:48 0.0001249
13 *2127:A_N *510:59 1.33285e-05
14 *2127:A_N *557:22 4.41506e-05
15 *2128:B *2136:B 0.000117832
16 *2128:B *2136:C 0.000132547
17 *2128:B *2406:A 2.50049e-05
18 *2128:B *500:30 8.65961e-05
19 *2128:B *502:12 6.28843e-05
20 *2128:B *502:30 4.13092e-05
21 *2128:B *600:20 0.00027232
22 *2134:D *2039:D 1.46828e-05
23 *2134:D *2134:B 0.000387891
24 *2134:D *2134:C 4.66108e-05
25 *2134:D *500:22 0.00046026
26 *400:20 *2015:A 0.000271314
27 *400:20 *2019:A 0.000760683
28 *400:20 *2052:A 8.65905e-05
29 *400:20 *2392:A 8.65961e-05
30 *400:20 *509:48 3.38425e-05
31 *400:20 *510:59 8.49205e-05
32 *400:20 *600:20 1.61696e-05
33 *400:20 *600:22 1.80324e-05
34 *400:20 *606:23 3.18219e-05
35 *400:20 *610:18 2.76781e-05
36 *400:20 *611:26 7.06865e-05
37 *400:20 *611:52 0.00012173
38 *400:20 *611:64 3.90495e-05
39 *329:20 *400:20 0.00149483
*RES
1 *2125:X *400:4 1.6 
2 *400:4 *400:20 29.085 
3 *400:20 *400:22 2 
4 *400:22 *2134:D 5.845 
5 *400:22 *2129:B 1.6 
6 *400:20 *2128:B 9.285 
7 *400:4 *2127:A_N 12.74 
*END

*D_NET *401 0.000161832
*CONN
*I *2127:B I *D sky130_fd_sc_hd__and3b_1
*I *2126:Y O *D sky130_fd_sc_hd__nand2_1
*CAP
1 *2127:B 3.99877e-05
2 *2126:Y 3.99877e-05
3 *2127:B *514:10 9.50342e-06
4 *2127:B *621:52 0
5 *2126:A *2127:B 7.23533e-05
*RES
1 *2126:Y *2127:B 8.07 
*END

*D_NET *402 0.00155957
*CONN
*I *2132:B I *D sky130_fd_sc_hd__nand2_1
*I *2131:B I *D sky130_fd_sc_hd__nor2_1
*I *2130:B I *D sky130_fd_sc_hd__and3_1
*I *2128:Y O *D sky130_fd_sc_hd__nand2_1
*CAP
1 *2132:B 0.000118516
2 *2131:B 1.40527e-05
3 *2130:B 0.000224164
4 *2128:Y 4.2738e-05
5 *402:23 0.000155857
6 *402:6 0.00029019
7 *2130:B *2136:C 0
8 *2130:B *404:10 0.000116165
9 *2130:B *600:20 0
10 *2130:B *610:95 0
11 *2131:B *2128:A 1.02153e-05
12 *2131:B *500:49 3.44374e-05
13 *2132:B *500:49 8.44338e-06
14 *2132:B *600:12 4.80285e-05
15 *402:6 *500:30 3.00381e-05
16 *402:6 *500:49 1.12578e-05
17 *2131:A *2131:B 1.16919e-05
18 *2131:A *2132:B 0.000307217
19 *2293:D *2130:B 4.99619e-05
20 *2382:A *2132:B 8.65961e-05
*RES
1 *2128:Y *402:6 2.395 
2 *402:6 *2130:B 9.32 
3 *402:6 *402:23 0.51 
4 *402:23 *2131:B 2.59 
5 *402:23 *2132:B 5.215 
*END

*D_NET *403 0.000272087
*CONN
*I *2130:C I *D sky130_fd_sc_hd__and3_1
*I *2129:X O *D sky130_fd_sc_hd__or2_1
*CAP
1 *2130:C 8.75375e-05
2 *2129:X 8.75375e-05
3 *2130:C *2130:A 4.82863e-05
4 *2130:C *2134:B 4.8726e-05
*RES
1 *2129:X *2130:C 4.4 
*END

*D_NET *404 0.000493243
*CONN
*I *2133:A_N I *D sky130_fd_sc_hd__and3b_1
*I *2135:B I *D sky130_fd_sc_hd__or2_1
*I *2131:Y O *D sky130_fd_sc_hd__nor2_1
*CAP
1 *2133:A_N 0
2 *2135:B 2.78077e-05
3 *2131:Y 6.38763e-05
4 *404:10 9.16841e-05
5 *2135:B *600:16 6.97034e-05
6 *2135:B *606:118 0.000124007
7 *404:10 *600:12 0
8 *404:10 *610:95 0
9 *2130:B *404:10 0.000116165
*RES
1 *2131:Y *404:10 6.98 
2 *404:10 *2135:B 2.74 
3 *404:10 *2133:A_N 1.6 
*END

*D_NET *405 0.000795424
*CONN
*I *2133:B I *D sky130_fd_sc_hd__and3b_1
*I *2132:Y O *D sky130_fd_sc_hd__nand2_1
*CAP
1 *2133:B 0.000249636
2 *2132:Y 0.000249636
3 *2133:B *501:19 6.14776e-05
4 *2133:B *606:118 0.000234674
5 *2133:B *613:57 0
*RES
1 *2132:Y *2133:B 11.625 
*END

*D_NET *406 0.00336114
*CONN
*I *2136:A_N I *D sky130_fd_sc_hd__and3b_1
*I *2138:B I *D sky130_fd_sc_hd__or2_1
*I *2137:B I *D sky130_fd_sc_hd__and2_1
*I *2134:X O *D sky130_fd_sc_hd__and4_1
*CAP
1 *2136:A_N 0.00020122
2 *2138:B 0.000167368
3 *2137:B 0.000426478
4 *2134:X 0
5 *406:10 0.000903817
6 *406:4 0.00051119
7 *2136:A_N *2039:A 1.22762e-05
8 *2136:A_N *2039:B 0
9 *2136:A_N *2329:CLK 1.15688e-05
10 *2136:A_N *500:26 0.000362271
11 *2136:A_N *503:21 0
12 *2137:B *2250:A 0
13 *2137:B *2293:CLK 1.7611e-05
14 *2138:B *2039:B 0
15 *2138:B *2039:C 0
16 *2138:B *503:21 0
17 *2138:B *503:25 4.66108e-05
18 *2138:B *611:26 0.000250616
19 *406:10 *2039:C 1.61831e-05
20 *406:10 *2039:D 0.000155707
21 *406:10 *500:22 0
22 *2293:D *2137:B 2.96467e-05
23 *2293:D *406:10 6.36594e-05
24 *2330:D *2137:B 0.000184913
*RES
1 *2134:X *406:4 1.6 
2 *406:4 *406:10 4.71 
3 *406:10 *2137:B 6.805 
4 *406:10 *2138:B 8.96 
5 *406:4 *2136:A_N 10.04 
*END

*D_NET *407 0.00120423
*CONN
*I *2136:B I *D sky130_fd_sc_hd__and3b_1
*I *2135:X O *D sky130_fd_sc_hd__or2_1
*CAP
1 *2136:B 0.000340086
2 *2135:X 0.000340086
3 *2136:B *2406:A 0.00018305
4 *2136:B *500:30 0.000223177
5 *2128:B *2136:B 0.000117832
*RES
1 *2135:X *2136:B 12.9 
*END

*D_NET *408 0.00310012
*CONN
*I *2140:B I *D sky130_fd_sc_hd__nand2_1
*I *2141:B I *D sky130_fd_sc_hd__or2_1
*I *2139:A_N I *D sky130_fd_sc_hd__and3b_1
*I *2137:X O *D sky130_fd_sc_hd__and2_1
*CAP
1 *2140:B 5.72007e-05
2 *2141:B 0.000379177
3 *2139:A_N 0
4 *2137:X 0.000165299
5 *408:21 0.000578637
6 *408:12 0.000307558
7 *2140:B *2139:B 2.19463e-05
8 *2140:B *466:44 0.000237243
9 *2140:B *611:26 4.9968e-05
10 *2141:B *2025:A 7.06865e-05
11 *2141:B *2139:B 1.01155e-05
12 *2141:B *2141:A 4.99619e-05
13 *2141:B *410:14 7.06865e-05
14 *2141:B *504:19 0
15 *2141:B *504:36 0
16 *2141:B *584:22 0
17 *2141:B *611:26 8.53113e-06
18 *408:12 *616:43 0
19 *408:21 *2139:B 0.000232403
20 *408:21 *410:14 4.66108e-05
21 *2290:D *2140:B 0.000237243
22 *2290:D *408:12 8.52883e-05
23 *2290:D *408:21 0.000456673
24 *2330:D *408:12 2.47705e-05
25 *2331:D *2141:B 1.01155e-05
*RES
1 *2137:X *408:12 8.285 
2 *408:12 *2139:A_N 1.6 
3 *408:12 *408:21 6.245 
4 *408:21 *2141:B 10.02 
5 *408:21 *2140:B 6.39 
*END

*D_NET *409 0.00136714
*CONN
*I *2139:B I *D sky130_fd_sc_hd__and3b_1
*I *2138:X O *D sky130_fd_sc_hd__or2_1
*CAP
1 *2139:B 0.000460443
2 *2138:X 0.000460443
3 *2139:B *2137:A 2.93447e-05
4 *2139:B *2298:CLK 0
5 *2139:B *410:14 8.30853e-06
6 *2139:B *503:25 5.83121e-06
7 *2139:B *611:26 0.0001383
8 *2140:B *2139:B 2.19463e-05
9 *2141:B *2139:B 1.01155e-05
10 *408:21 *2139:B 0.000232403
*RES
1 *2138:X *2139:B 14.355 
*END

*D_NET *410 0.00293145
*CONN
*I *2142:B I *D sky130_fd_sc_hd__and3_1
*I *2143:B I *D sky130_fd_sc_hd__xnor2_1
*I *2140:Y O *D sky130_fd_sc_hd__nand2_1
*CAP
1 *2142:B 0
2 *2143:B 0.000456474
3 *2140:Y 0.000434039
4 *410:14 0.000890513
5 *2143:B *2025:C 0
6 *2143:B *2139:C 4.9968e-05
7 *2143:B *2142:C 0.000244504
8 *2143:B *466:59 3.39944e-05
9 *2143:B *466:61 2.05661e-05
10 *2143:B *466:69 0.000113964
11 *2143:B *600:93 4.66108e-05
12 *410:14 *600:93 0.000260716
13 *410:14 *611:26 0.000239807
14 *2139:B *410:14 8.30853e-06
15 *2141:B *410:14 7.06865e-05
16 *2290:D *410:14 1.46828e-05
17 *408:21 *410:14 4.66108e-05
*RES
1 *2140:Y *410:14 11.855 
2 *410:14 *2143:B 13.04 
3 *410:14 *2142:B 1.6 
*END

*D_NET *411 0.000907214
*CONN
*I *2142:C I *D sky130_fd_sc_hd__and3_1
*I *2141:X O *D sky130_fd_sc_hd__or2_1
*CAP
1 *2142:C 0.000193247
2 *2141:X 0.000193247
3 *2142:C *2139:C 3.64998e-06
4 *2142:C *2299:CLK 2.75145e-05
5 *2142:C *466:59 0.00010596
6 *2142:C *466:61 0.000137571
7 *2142:C *600:93 1.51894e-06
8 *2143:B *2142:C 0.000244504
*RES
1 *2141:X *2142:C 11.415 
*END

*D_NET *412 0.00107987
*CONN
*I *2144:B I *D sky130_fd_sc_hd__and2_1
*I *2143:Y O *D sky130_fd_sc_hd__xnor2_1
*CAP
1 *2144:B 0.00029
2 *2143:Y 0.00029
3 *2144:B *2026:A 0.000125757
4 *2144:B *2026:C 0
5 *2144:B *2476:A 0.000121023
6 *2144:B *466:69 7.06865e-05
7 *2286:D *2144:B 8.69583e-05
8 *2332:D *2144:B 9.54399e-05
*RES
1 *2143:Y *2144:B 12.555 
*END

*D_NET *413 0.0033959
*CONN
*I *2152:A3 I *D sky130_fd_sc_hd__o31a_1
*I *2151:Y O *D sky130_fd_sc_hd__nor2_1
*CAP
1 *2152:A3 0.000757941
2 *2151:Y 0.000757941
3 *2152:A3 *677:DIODE 0.000158965
4 *2152:A3 *1969:B2 8.34281e-06
5 *2152:A3 *2152:A2 0.000122337
6 *2152:A3 *2152:B1 2.05056e-05
7 *2095:A2 *2152:A3 0.00073174
8 *2153:B1 *2152:A3 9.80943e-06
9 *2316:D *2152:A3 4.99619e-05
10 *334:68 *2152:A3 0.000766704
11 *379:10 *2152:A3 1.16578e-05
*RES
1 *2151:Y *2152:A3 18.83 
*END

*D_NET *414 0.00692652
*CONN
*I *2159:B1 I *D sky130_fd_sc_hd__o21a_1
*I *2162:B I *D sky130_fd_sc_hd__and2b_1
*I *2166:B I *D sky130_fd_sc_hd__and3_1
*I *2153:X O *D sky130_fd_sc_hd__o211a_1
*CAP
1 *2159:B1 0.00063462
2 *2162:B 0
3 *2166:B 0.000560438
4 *2153:X 0.000529183
5 *414:16 0.000705756
6 *414:10 0.00130912
7 *2159:B1 *667:DIODE 1.47256e-05
8 *2159:B1 *2053:B 4.41506e-05
9 *2159:B1 *2164:B1 0.000159867
10 *2159:B1 *615:165 1.34503e-05
11 *2159:B1 *615:177 0.00070194
12 *2166:B *2053:B 0
13 *2166:B *2166:C 6.37488e-06
14 *2166:B *621:173 0
15 *414:10 *2341:CLK 4.41795e-05
16 *414:10 *472:12 3.67779e-05
17 *414:10 *472:14 2.15594e-05
18 *414:10 *615:156 0
19 *414:10 *645:16 8.37447e-05
20 *414:16 *2053:B 0
21 *414:16 *615:156 0
22 *414:16 *648:21 5.05521e-05
23 *1996:B *414:10 0.00019707
24 *2045:A *414:10 0.000303732
25 *2081:A3 *2159:B1 4.60819e-05
26 *2091:C1 *2166:B 0
27 *2341:D *414:10 8.35683e-05
28 *2341:D *414:16 0.000189426
29 *170:48 *2166:B 0
30 *170:70 *2166:B 0
31 *271:16 *414:10 0.000176671
32 *286:69 *2159:B1 0.000884956
33 *316:8 *414:10 5.65627e-05
34 *379:8 *414:10 7.20129e-05
*RES
1 *2153:X *414:10 14.46 
2 *414:10 *414:16 5.195 
3 *414:16 *2166:B 13.46 
4 *414:16 *2162:B 1.6 
5 *414:10 *2159:B1 17.88 
*END

*D_NET *415 0.00204446
*CONN
*I *2157:A2 I *D sky130_fd_sc_hd__o21a_1
*I *2158:B2 I *D sky130_fd_sc_hd__a221o_1
*I *2155:A3 I *D sky130_fd_sc_hd__o31a_1
*I *2154:X O *D sky130_fd_sc_hd__and2_1
*CAP
1 *2157:A2 9.04199e-05
2 *2158:B2 3.98831e-06
3 *2155:A3 0.000266661
4 *2154:X 5.24802e-05
5 *415:16 0.000356292
6 *415:10 0.000228543
7 *2155:A3 *2155:A2 3.00381e-05
8 *2155:A3 *2156:A2 2.66935e-05
9 *2155:A3 *2158:C1 8.53113e-06
10 *2155:A3 *2159:A1 0
11 *2157:A2 *2158:C1 7.40446e-05
12 *2158:B2 *2158:A1 6.03947e-06
13 *415:16 *2158:C1 0.000187537
14 *2089:B *415:10 0.000157602
15 *2089:B *415:16 5.11148e-06
16 *2089:C *2155:A3 0
17 *2089:D_N *2158:B2 1.12643e-05
18 *2154:B *415:10 0.000136884
19 *2158:B1 *2155:A3 1.70935e-05
20 *2158:B1 *415:16 2.15594e-05
21 *2163:A1 *415:16 4.82919e-05
22 *282:10 *2157:A2 0.00023468
23 *282:10 *415:16 3.66286e-05
24 *316:34 *415:10 0
25 *316:34 *415:16 4.4073e-05
26 *364:12 *2155:A3 0
*RES
1 *2154:X *415:10 7.49 
2 *415:10 *415:16 4.685 
3 *415:16 *2155:A3 7.83 
4 *415:16 *2158:B2 3.70875 
5 *415:10 *2157:A2 3.775 
*END

*D_NET *416 0.000236768
*CONN
*I *2156:A2 I *D sky130_fd_sc_hd__o21a_1
*I *2155:X O *D sky130_fd_sc_hd__o31a_1
*CAP
1 *2156:A2 8.08912e-05
2 *2155:X 8.08912e-05
3 *2156:A2 *540:52 4.82919e-05
4 *2155:A3 *2156:A2 2.66935e-05
5 *364:12 *2156:A2 0
*RES
1 *2155:X *2156:A2 8.52 
*END

*D_NET *417 0.000737236
*CONN
*I *2159:A1 I *D sky130_fd_sc_hd__o21a_1
*I *2156:X O *D sky130_fd_sc_hd__o21a_1
*CAP
1 *2159:A1 0.000172411
2 *2156:X 0.000172411
3 *2159:A1 *2164:B1 4.82863e-05
4 *2159:A1 *621:203 0.000202095
5 *2155:A3 *2159:A1 0
6 *2158:B1 *2159:A1 0
7 *286:69 *2159:A1 4.66742e-05
8 *316:34 *2159:A1 6.14602e-05
9 *364:12 *2159:A1 3.38982e-05
*RES
1 *2156:X *2159:A1 11.415 
*END

*D_NET *418 0.000613087
*CONN
*I *2158:C1 I *D sky130_fd_sc_hd__a221o_1
*I *2157:X O *D sky130_fd_sc_hd__o21a_1
*CAP
1 *2158:C1 0.000152161
2 *2157:X 0.000152161
3 *2158:C1 *579:26 0
4 *2089:B *2158:C1 3.86529e-05
5 *2089:C *2158:C1 0
6 *2155:A3 *2158:C1 8.53113e-06
7 *2157:A2 *2158:C1 7.40446e-05
8 *415:16 *2158:C1 0.000187537
*RES
1 *2157:X *2158:C1 9.975 
*END

*D_NET *419 0.000481222
*CONN
*I *2159:A2 I *D sky130_fd_sc_hd__o21a_1
*I *2158:X O *D sky130_fd_sc_hd__a221o_1
*CAP
1 *2159:A2 0.000139114
2 *2158:X 0.000139114
3 *2159:A2 *2164:B1 4.82863e-05
4 *2159:A2 *615:177 0
5 *2159:A2 *621:203 7.06865e-05
6 *2158:B1 *2159:A2 8.40213e-05
*RES
1 *2158:X *2159:A2 9.315 
*END

*D_NET *420 0.00142872
*CONN
*I *2161:A3 I *D sky130_fd_sc_hd__o32a_1
*I *2160:X O *D sky130_fd_sc_hd__or3_1
*CAP
1 *2161:A3 0.000380215
2 *2160:X 0.000380215
3 *2161:A3 *540:69 0
4 *2161:A3 *546:23 4.82863e-05
5 *2161:A3 *546:31 0.000262012
6 *2161:A3 *554:59 5.53249e-06
7 *2076:A3 *2161:A3 0
8 *2092:B1_N *2161:A3 0.000159269
9 *2161:A1 *2161:A3 0.000102411
10 *2164:A1 *2161:A3 0
11 *367:12 *2161:A3 9.07769e-05
*RES
1 *2160:X *2161:A3 15.15 
*END

*D_NET *421 0.00233719
*CONN
*I *2162:A_N I *D sky130_fd_sc_hd__and2b_1
*I *2161:X O *D sky130_fd_sc_hd__o32a_1
*CAP
1 *2162:A_N 0.000413034
2 *2161:X 0.000413034
3 *2162:A_N *2053:B 0.000108432
4 *2162:A_N *2084:A 3.74161e-05
5 *2162:A_N *2084:B 2.0514e-05
6 *2162:A_N *621:167 0.00039046
7 *2162:A_N *621:203 0.000233004
8 *2162:A_N *648:21 0.000428764
9 *2090:C_N *2162:A_N 4.82863e-05
10 *2093:A2 *2162:A_N 0.000147093
11 *2342:D *2162:A_N 7.4027e-05
12 *320:6 *2162:A_N 2.31229e-05
*RES
1 *2161:X *2162:A_N 18.165 
*END

*D_NET *422 0.00148164
*CONN
*I *2164:B1 I *D sky130_fd_sc_hd__a31o_1
*I *2163:X O *D sky130_fd_sc_hd__a32o_1
*CAP
1 *2164:B1 0.00033119
2 *2163:X 0.00033119
3 *2164:B1 *615:177 0.000353972
4 *2076:A3 *2164:B1 0.000165222
5 *2159:A1 *2164:B1 4.82863e-05
6 *2159:A2 *2164:B1 4.82863e-05
7 *2159:B1 *2164:B1 0.000159867
8 *286:69 *2164:B1 4.36241e-05
*RES
1 *2163:X *2164:B1 15.12 
*END

*D_NET *423 0.000483773
*CONN
*I *2165:B1 I *D sky130_fd_sc_hd__a31o_1
*I *2164:X O *D sky130_fd_sc_hd__a31o_1
*CAP
1 *2165:B1 0.000103621
2 *2164:X 0.000103621
3 *2165:B1 *2155:A1 9.50342e-06
4 *2165:B1 *2156:B1 0.000116158
5 *2165:B1 *540:52 8.40213e-05
6 *2165:B1 *554:96 9.50342e-06
7 *2082:A *2165:B1 5.7344e-05
*RES
1 *2164:X *2165:B1 9.375 
*END

*D_NET *424 0.00296768
*CONN
*I *2166:C I *D sky130_fd_sc_hd__and3_1
*I *2165:X O *D sky130_fd_sc_hd__a31o_1
*CAP
1 *2166:C 0.000865686
2 *2165:X 0.000865686
3 *2166:C *2155:A1 0
4 *2166:C *2156:B1 8.97915e-05
5 *2166:C *554:96 2.04591e-05
6 *2166:C *615:177 2.25075e-05
7 *2076:B1 *2166:C 1.72077e-05
8 *2078:B *2166:C 2.15594e-05
9 *2164:A1 *2166:C 4.9968e-05
10 *2164:A2 *2166:C 3.23391e-05
11 *2164:A3 *2166:C 5.16418e-05
12 *2165:A2 *2166:C 8.34281e-06
13 *2165:A3 *2166:C 1.08758e-05
14 *2166:A *2166:C 0.000120655
15 *2166:B *2166:C 6.37488e-06
16 *355:21 *2166:C 7.15931e-05
17 *375:12 *2166:C 0.00071299
*RES
1 *2165:X *2166:C 19.86 
*END

*D_NET *425 0.000723817
*CONN
*I *2170:B1 I *D sky130_fd_sc_hd__a2111o_1
*I *2167:X O *D sky130_fd_sc_hd__a2bb2o_1
*CAP
1 *2170:B1 0.000111261
2 *2167:X 0.000111261
3 *2170:B1 *2169:B2 3.67779e-05
4 *2170:B1 *2170:C1 4.82919e-05
5 *2170:B1 *2172:C1 0.000162325
6 *2170:B1 *621:36 0.00024756
7 *2170:B1 *651:55 6.34101e-06
*RES
1 *2167:X *2170:B1 10.56 
*END

*D_NET *426 0.000409921
*CONN
*I *2172:B1 I *D sky130_fd_sc_hd__a211o_1
*I *2168:Y O *D sky130_fd_sc_hd__o22ai_1
*CAP
1 *2172:B1 9.30737e-05
2 *2168:Y 9.30737e-05
3 *2172:B1 *2172:C1 6.95814e-05
4 *2172:B1 *621:36 0.000135808
5 *2168:B2 *2172:B1 1.83847e-05
*RES
1 *2168:Y *2172:B1 9.285 
*END

*D_NET *427 0.000556015
*CONN
*I *2170:C1 I *D sky130_fd_sc_hd__a2111o_1
*I *2169:Y O *D sky130_fd_sc_hd__o22ai_1
*CAP
1 *2170:C1 0.000179124
2 *2169:Y 0.000179124
3 *2170:C1 *2169:B2 8.17697e-05
4 *2170:C1 *2170:D1 2.75145e-05
5 *2169:B1 *2170:C1 4.01904e-05
6 *2170:B1 *2170:C1 4.82919e-05
*RES
1 *2169:Y *2170:C1 6.185 
*END

*D_NET *428 0.000361964
*CONN
*I *2171:C1 I *D sky130_fd_sc_hd__a221o_1
*I *2170:X O *D sky130_fd_sc_hd__a2111o_1
*CAP
1 *2171:C1 0.000153858
2 *2170:X 0.000153858
3 *2171:C1 *465:129 0
4 *2171:C1 *651:27 0
5 *2171:B1 *2171:C1 5.42473e-05
*RES
1 *2170:X *2171:C1 9.285 
*END

*D_NET *429 0.00191472
*CONN
*I *2172:C1 I *D sky130_fd_sc_hd__a211o_1
*I *2171:X O *D sky130_fd_sc_hd__a221o_1
*CAP
1 *2172:C1 0.000295641
2 *2171:X 0.000295641
3 *2172:C1 *465:171 1.1392e-05
4 *2172:C1 *472:55 2.75145e-05
5 *2172:C1 *621:36 0.000235523
6 *2172:C1 *651:40 4.82919e-05
7 *2172:C1 *651:55 0.000741299
8 *2170:B1 *2172:C1 0.000162325
9 *2172:B1 *2172:C1 6.95814e-05
10 *273:42 *2172:C1 2.75145e-05
*RES
1 *2171:X *2172:C1 16.875 
*END

*D_NET *430 0.00385286
*CONN
*I *2386:A I *D sky130_fd_sc_hd__clkbuf_2
*I *2385:A I *D sky130_fd_sc_hd__buf_2
*I *2172:X O *D sky130_fd_sc_hd__a211o_1
*CAP
1 *2386:A 0.000373638
2 *2385:A 0.000136779
3 *2172:X 0.000714537
4 *430:10 0.00122495
5 *2385:A *604:122 0.000184858
6 *2386:A *2208:B1 0.000243067
7 *2386:A *2213:A 0
8 *2386:A *603:16 0.000237243
9 *2386:A *604:122 0.00010804
10 *2386:A *605:25 1.71013e-05
11 *430:10 *1933:A 0.000138551
12 *430:10 *2424:A 0
13 *430:10 *490:65 0.000132713
14 *430:10 *621:36 0
15 *2000:A2 *430:10 0.000226104
16 *2176:C *430:10 0
17 *2278:D *430:10 2.97291e-05
18 *272:10 *430:10 3.39064e-05
19 *291:99 *2386:A 0
20 *296:48 *430:10 5.16348e-05
21 *360:16 *430:10 0
*RES
1 *2172:X *430:10 19.475 
2 *430:10 *2385:A 4.465 
3 *430:10 *2386:A 13.625 
*END

*D_NET *431 0.00125624
*CONN
*I *2187:B I *D sky130_fd_sc_hd__nor2_1
*I *2185:A I *D sky130_fd_sc_hd__or2_1
*I *2173:X O *D sky130_fd_sc_hd__and3_1
*CAP
1 *2187:B 7.0414e-05
2 *2185:A 0.000290865
3 *2173:X 0
4 *431:6 0.000361279
5 *2185:A *1971:A 6.28765e-05
6 *2185:A *2173:B 5.53249e-06
7 *2185:A *2185:B 0
8 *2185:A *2186:A1 0.000148334
9 *2185:A *486:49 3.50033e-05
10 *2187:B *2173:B 7.26629e-05
11 *2187:B *2184:A2 4.80285e-05
12 *2187:B *2186:B1 8.49205e-05
13 *2187:B *486:49 7.63204e-05
*RES
1 *2173:X *431:6 3.6 
2 *431:6 *2185:A 8.28 
3 *431:6 *2187:B 6.03 
*END

*D_NET *432 0.00783122
*CONN
*I *2190:B I *D sky130_fd_sc_hd__xnor2_1
*I *2176:D I *D sky130_fd_sc_hd__and4_1
*I *2192:A2 I *D sky130_fd_sc_hd__a21oi_1
*I *2175:C I *D sky130_fd_sc_hd__and3_1
*I *2188:A I *D sky130_fd_sc_hd__or2_1
*I *2174:X O *D sky130_fd_sc_hd__and4_1
*CAP
1 *2190:B 9.71182e-05
2 *2176:D 0.000358056
3 *2192:A2 1.55346e-05
4 *2175:C 0
5 *2188:A 4.00625e-05
6 *2174:X 0.000147646
7 *432:47 0.000700725
8 *432:36 0.000405371
9 *432:25 0.00102507
10 *432:12 0.00106849
11 *2176:D *2176:B 0
12 *2176:D *2204:A_N 0.000114515
13 *2176:D *489:14 2.92496e-05
14 *2176:D *560:100 0
15 *2188:A *2189:A2 5.83121e-06
16 *2188:A *2346:CLK 8.40213e-05
17 *2190:B *2191:A2 0
18 *2190:B *489:14 0.00019996
19 *2190:B *490:55 0
20 *2192:A2 *2175:B 9.53428e-06
21 *432:12 *2189:A2 0.000112123
22 *432:12 *479:40 9.37731e-05
23 *432:12 *603:70 0.000158297
24 *432:12 *603:83 0.000137571
25 *432:25 *1983:A 0.00015141
26 *432:25 *2189:A2 1.91597e-05
27 *432:25 *2346:CLK 4.82919e-05
28 *432:25 *488:10 2.49909e-05
29 *432:36 *1983:A 9.49276e-05
30 *432:36 *2175:B 6.18016e-05
31 *432:36 *2192:A1 4.82863e-05
32 *432:36 *490:16 3.83041e-05
33 *432:47 *2175:B 0.000104535
34 *432:47 *2176:B 4.66108e-05
35 *432:47 *2192:A1 0.00010978
36 *432:47 *2201:A 0.000313852
37 *432:47 *2201:B 0.00022257
38 *432:47 *489:16 0.00118035
39 *432:47 *490:55 6.76188e-05
40 *432:47 *493:12 0.000338716
41 *2176:C *2176:D 5.30673e-05
42 *2272:D *432:12 4.13443e-05
43 *2278:D *2190:B 0
44 *2346:D *432:25 1.43717e-05
45 *291:63 *432:12 4.82863e-05
*RES
1 *2174:X *432:12 9.47 
2 *432:12 *2188:A 2.395 
3 *432:12 *432:25 12.495 
4 *432:25 *2175:C 1.6 
5 *432:25 *432:36 2.7 
6 *432:36 *2192:A2 1.96 
7 *432:36 *432:47 14.18 
8 *432:47 *2176:D 9.6 
9 *432:47 *2190:B 6 
*END

*D_NET *433 0.00354731
*CONN
*I *2193:A I *D sky130_fd_sc_hd__or2_1
*I *2197:C I *D sky130_fd_sc_hd__and3_1
*I *2195:B I *D sky130_fd_sc_hd__xnor2_1
*I *2198:A2 I *D sky130_fd_sc_hd__a21oi_1
*I *2175:X O *D sky130_fd_sc_hd__and3_1
*CAP
1 *2193:A 0.000140892
2 *2197:C 0.000357541
3 *2195:B 0.000196455
4 *2198:A2 4.90469e-05
5 *2175:X 0
6 *433:19 0.000553996
7 *433:8 0.000218299
8 *433:6 0.000310144
9 *2193:A *706:DIODE 7.35813e-05
10 *2193:A *2194:A2 8.65961e-05
11 *2193:A *465:81 0.000143266
12 *2193:A *490:10 0
13 *2193:A *541:12 0
14 *2195:B *2196:A1 0.000160218
15 *2195:B *2196:A2 8.26509e-05
16 *2195:B *603:47 0.000113234
17 *2197:C *2197:A 1.34594e-05
18 *2197:C *2199:A 0.000122331
19 *2197:C *2200:A2 3.29047e-05
20 *2197:C *603:47 2.36981e-05
21 *2198:A2 *1983:A 6.28843e-05
22 *2198:A2 *465:81 0.000116151
23 *433:8 *1983:A 0.000202654
24 *433:8 *465:81 0.000468926
25 *433:8 *541:12 0
26 *2349:D *2195:B 1.83847e-05
*RES
1 *2175:X *433:6 3.6 
2 *433:6 *433:8 5.46 
3 *433:8 *2198:A2 4.98 
4 *433:8 *433:19 2 
5 *433:19 *2195:B 6.235 
6 *433:19 *2197:C 5.7475 
7 *433:6 *2193:A 6.975 
*END

*D_NET *434 0.0042989
*CONN
*I *2211:A3 I *D sky130_fd_sc_hd__a31oi_1
*I *2178:D I *D sky130_fd_sc_hd__and4_1
*I *2177:B I *D sky130_fd_sc_hd__nand2_1
*I *2206:B I *D sky130_fd_sc_hd__or2_1
*I *2204:A_N I *D sky130_fd_sc_hd__nand2b_1
*I *2176:X O *D sky130_fd_sc_hd__and4_1
*CAP
1 *2211:A3 0
2 *2178:D 5.43725e-05
3 *2177:B 6.41633e-05
4 *2206:B 0.000212979
5 *2204:A_N 0.000256797
6 *2176:X 0
7 *434:60 0.000144848
8 *434:47 0.000397565
9 *434:25 0.000579307
10 *434:4 0.00067783
11 *2177:B *2211:A1 2.66586e-05
12 *2177:B *2211:A2 4.82919e-05
13 *2177:B *2212:A2 5.1511e-05
14 *2177:B *2212:B1 0
15 *2177:B *435:10 1.37328e-05
16 *2178:D *2211:A2 7.00225e-05
17 *2178:D *2211:B1 0
18 *2178:D *2212:A1 1.01851e-05
19 *2178:D *2212:B1 1.44809e-05
20 *2204:A_N *490:55 0
21 *2204:A_N *560:100 0
22 *2206:B *2008:A1 0
23 *2206:B *2208:B1 0.000155444
24 *2206:B *2212:A1 3.1705e-07
25 *2206:B *480:44 8.49205e-05
26 *2206:B *603:16 0.000146484
27 *434:25 *2176:A 4.66108e-05
28 *434:25 *2213:A 0.000231508
29 *434:25 *2213:B 0.000176268
30 *434:47 *2211:A1 4.87772e-05
31 *434:47 *2211:A2 9.80032e-06
32 *434:47 *2211:B1 5.0279e-05
33 *434:47 *2212:A2 0.00012657
34 *434:47 *2212:B1 1.08758e-05
35 *434:47 *2213:B 0.000148329
36 *434:47 *605:25 0
37 *434:60 *2008:A1 0
38 *434:60 *2212:A1 1.52184e-05
39 *434:60 *2212:B1 5.53249e-06
40 *2176:C *2204:A_N 6.53854e-05
41 *2176:C *434:25 0.00012657
42 *2176:D *2204:A_N 0.000114515
43 *291:99 *2204:A_N 0.000112751
*RES
1 *2176:X *434:4 1.6 
2 *434:4 *2204:A_N 10.715 
3 *434:4 *434:25 8.16 
4 *434:25 *434:47 6.7625 
5 *434:47 *2206:B 8.4225 
6 *434:47 *434:60 0.4575 
7 *434:60 *2177:B 5.1 
8 *434:60 *2178:D 4.725 
9 *434:25 *2211:A3 1.6 
*END

*D_NET *435 0.00173881
*CONN
*I *2209:B I *D sky130_fd_sc_hd__xor2_1
*I *2207:A I *D sky130_fd_sc_hd__nand2_1
*I *2177:Y O *D sky130_fd_sc_hd__nand2_1
*CAP
1 *2209:B 0
2 *2207:A 0.000263569
3 *2177:Y 0.000151125
4 *435:10 0.000414694
5 *2207:A *2070:B 0.00015829
6 *2207:A *2178:B 0.000113511
7 *2207:A *2207:B 2.10583e-05
8 *2207:A *2208:A2 1.17309e-05
9 *2207:A *2211:A1 2.92496e-05
10 *2207:A *465:191 0.000203629
11 *2207:A *489:75 0.000247272
12 *435:10 *2209:A 1.35948e-05
13 *435:10 *2210:A2 0
14 *435:10 *2211:A1 6.16184e-05
15 *435:10 *2212:A2 0
16 *435:10 *481:52 3.57349e-05
17 *2177:B *435:10 1.37328e-05
*RES
1 *2177:Y *435:10 4.15 
2 *435:10 *2207:A 12.35 
3 *435:10 *2209:B 1.6 
*END

*D_NET *436 0.0036779
*CONN
*I *2212:A1 I *D sky130_fd_sc_hd__o21a_1
*I *2214:B I *D sky130_fd_sc_hd__xnor2_1
*I *2179:C I *D sky130_fd_sc_hd__and3_1
*I *2216:A2 I *D sky130_fd_sc_hd__a21oi_1
*I *2178:X O *D sky130_fd_sc_hd__and4_1
*CAP
1 *2212:A1 0.000212285
2 *2214:B 0.000110291
3 *2179:C 6.10794e-05
4 *2216:A2 0
5 *2178:X 0
6 *436:14 0.0001866
7 *436:10 0.000726796
8 *436:4 0.000703269
9 *2179:C *2179:B 4.85494e-05
10 *2179:C *2217:B1 7.20649e-05
11 *2179:C *605:49 0.000210153
12 *2212:A1 *2008:A1 9.26665e-05
13 *2212:A1 *2211:A2 7.00225e-05
14 *2212:A1 *473:24 4.21666e-05
15 *2212:A1 *480:16 0.000142051
16 *2212:A1 *483:23 2.23407e-05
17 *2214:B *2214:A 9.27326e-05
18 *2214:B *2215:A2 0.000154481
19 *2214:B *473:48 9.66021e-05
20 *2214:B *483:21 0
21 *436:10 *2215:A1 0.000116151
22 *436:10 *2215:A2 9.50342e-06
23 *436:10 *473:24 3.72916e-05
24 *436:10 *483:23 0
25 *436:10 *605:25 0
26 *436:14 *2179:B 1.83847e-05
27 *436:14 *605:34 8.65961e-05
28 *436:14 *605:49 0.000277223
29 *2178:D *2212:A1 1.01851e-05
30 *2206:B *2212:A1 3.1705e-07
31 *2356:D *2214:B 6.28765e-05
32 *434:60 *2212:A1 1.52184e-05
*RES
1 *2178:X *436:4 1.6 
2 *436:4 *436:10 10.295 
3 *436:10 *436:14 5.21 
4 *436:14 *2216:A2 1.6 
5 *436:14 *2179:C 4.3 
6 *436:10 *2214:B 7.23 
7 *436:4 *2212:A1 9.74 
*END

*D_NET *437 0.00255572
*CONN
*I *2217:A2 I *D sky130_fd_sc_hd__a211oi_1
*I *2218:A2 I *D sky130_fd_sc_hd__o21ba_1
*I *2180:B I *D sky130_fd_sc_hd__nand2_2
*I *2179:X O *D sky130_fd_sc_hd__and3_1
*CAP
1 *2217:A2 2.86595e-05
2 *2218:A2 0.00037595
3 *2180:B 0
4 *2179:X 0.000184758
5 *437:18 0.000457858
6 *437:12 0.000295326
7 *2218:A2 *2218:A1 0
8 *2218:A2 *484:14 0.000383041
9 *2218:A2 *485:10 0.000106402
10 *2218:A2 *485:14 0.000393024
11 *437:12 *2210:B1 3.54521e-05
12 *437:12 *605:49 2.30292e-05
13 *437:18 *2210:B1 5.16348e-05
14 *437:18 *484:14 4.99619e-05
15 *437:18 *485:14 4.82919e-05
16 *2357:D *437:12 0.000122331
17 *2358:D *2218:A2 0
*RES
1 *2179:X *437:12 6.1125 
2 *437:12 *437:18 3.7025 
3 *437:18 *2180:B 1.6 
4 *437:18 *2218:A2 15.125 
5 *437:12 *2217:A2 4.0875 
*END

*D_NET *438 0.00852482
*CONN
*I *2212:B1 I *D sky130_fd_sc_hd__o21a_1
*I *2205:A1 I *D sky130_fd_sc_hd__a21oi_1
*I *2210:A1 I *D sky130_fd_sc_hd__a21oi_1
*I *2384:A I *D sky130_fd_sc_hd__buf_2
*I *2215:A1 I *D sky130_fd_sc_hd__a21oi_1
*I *2180:Y O *D sky130_fd_sc_hd__nand2_2
*CAP
1 *2212:B1 5.90215e-05
2 *2205:A1 0.00161896
3 *2210:A1 0
4 *2384:A 0.000182571
5 *2215:A1 0.000346343
6 *2180:Y 0
7 *438:49 0.00233701
8 *438:25 0.000211815
9 *438:23 0.000978237
10 *438:4 0.000636309
11 *2205:A1 *2352:CLK 4.06489e-05
12 *2205:A1 *471:125 2.39473e-05
13 *2205:A1 *604:12 8.53113e-06
14 *2212:B1 *2211:A2 2.75229e-05
15 *2212:B1 *2211:B1 1.81461e-05
16 *2212:B1 *2212:A2 2.77287e-05
17 *2215:A1 *2216:B1 0.000184858
18 *2215:A1 *483:23 0
19 *2215:A1 *484:14 0.000276441
20 *2215:A1 *489:75 0.000228401
21 *2215:A1 *605:34 4.66108e-05
22 *2384:A *2208:A2 0.000116629
23 *2384:A *2208:B1 2.7919e-05
24 *2384:A *2354:CLK 4.18603e-06
25 *2384:A *481:12 0
26 *2384:A *603:6 8.8266e-05
27 *438:23 *2070:A 0.000564301
28 *438:23 *2070:B 0
29 *438:23 *2208:A2 0.000119559
30 *438:23 *2210:B1 4.91659e-05
31 *438:23 *465:191 0
32 *438:25 *2208:A2 2.67941e-05
33 *438:25 *2210:B1 2.04531e-05
34 *438:25 *2354:CLK 9.29751e-06
35 *2177:B *2212:B1 0
36 *2178:D *2212:B1 1.44809e-05
37 *2273:D *2205:A1 6.10352e-05
38 *2352:D *2205:A1 2.37414e-05
39 *2353:D *2384:A 1.33293e-05
40 *356:10 *2384:A 0
41 *434:47 *2212:B1 1.08758e-05
42 *434:60 *2212:B1 5.53249e-06
43 *436:10 *2215:A1 0.000116151
*RES
1 *2180:Y *438:4 1.6 
2 *438:4 *2215:A1 14.09 
3 *438:4 *438:23 9.6275 
4 *438:23 *438:25 0.7425 
5 *438:25 *2384:A 7.41 
6 *438:25 *2210:A1 3.6 
7 *438:23 *438:49 1.5868 
8 *438:49 *2205:A1 8.1273 
9 *438:49 *2212:B1 5.3975 
*END

*D_NET *439 0.00112197
*CONN
*I *2183:A2 I *D sky130_fd_sc_hd__a21oi_1
*I *2182:Y O *D sky130_fd_sc_hd__xnor2_1
*CAP
1 *2183:A2 0.000323475
2 *2182:Y 0.000323475
3 *2183:A2 *2182:A 0
4 *2183:A2 *471:36 4.99619e-05
5 *2183:A2 *486:25 1.43521e-05
6 *2183:A2 *560:76 1.36296e-05
7 *2343:D *2183:A2 9.54469e-05
8 *2344:D *2183:A2 0.000301633
*RES
1 *2182:Y *2183:A2 13.725 
*END

*D_NET *440 0.00086148
*CONN
*I *2185:B I *D sky130_fd_sc_hd__or2_1
*I *2184:Y O *D sky130_fd_sc_hd__a21oi_1
*CAP
1 *2185:B 0.00023822
2 *2184:Y 0.00023822
3 *2185:B *1974:A 0
4 *2185:B *2173:B 3.67779e-05
5 *2185:B *2184:A2 8.23457e-05
6 *2185:B *560:76 0.000265917
7 *2185:A *2185:B 0
*RES
1 *2184:Y *2185:B 11.16 
*END

*D_NET *441 8.4422e-05
*CONN
*I *2186:A2 I *D sky130_fd_sc_hd__a21oi_1
*I *2185:X O *D sky130_fd_sc_hd__or2_1
*CAP
1 *2186:A2 1.72301e-05
2 *2185:X 1.72301e-05
3 *2186:A2 *2186:A1 4.99619e-05
*RES
1 *2185:X *2186:A2 3.65 
*END

*D_NET *442 0.000199374
*CONN
*I *2188:B I *D sky130_fd_sc_hd__or2_1
*I *2187:Y O *D sky130_fd_sc_hd__nor2_1
*CAP
1 *2188:B 4.68683e-05
2 *2187:Y 4.68683e-05
3 *2188:B *479:25 9.71067e-05
4 *2188:B *486:49 8.53113e-06
5 *2188:B *560:76 0
*RES
1 *2187:Y *2188:B 8.325 
*END

*D_NET *443 0.000412266
*CONN
*I *2189:A2 I *D sky130_fd_sc_hd__a21oi_1
*I *2188:X O *D sky130_fd_sc_hd__or2_1
*CAP
1 *2189:A2 8.0681e-05
2 *2188:X 8.0681e-05
3 *2188:A *2189:A2 5.83121e-06
4 *2272:D *2189:A2 0.00011379
5 *432:12 *2189:A2 0.000112123
6 *432:25 *2189:A2 1.91597e-05
*RES
1 *2188:X *2189:A2 9.03 
*END

*D_NET *444 0.000407205
*CONN
*I *2191:A2 I *D sky130_fd_sc_hd__a21oi_1
*I *2190:Y O *D sky130_fd_sc_hd__xnor2_1
*CAP
1 *2191:A2 0.000141994
2 *2190:Y 0.000141994
3 *2191:A2 *473:44 1.83756e-05
4 *2191:A2 *489:8 5.062e-06
5 *2191:A2 *490:55 5.39961e-05
6 *2190:B *2191:A2 0
7 *2278:D *2191:A2 4.5783e-05
*RES
1 *2190:Y *2191:A2 9.63 
*END

*D_NET *445 0.000409902
*CONN
*I *2193:B I *D sky130_fd_sc_hd__or2_1
*I *2192:Y O *D sky130_fd_sc_hd__a21oi_1
*CAP
1 *2193:B 8.13605e-05
2 *2192:Y 8.13605e-05
3 *2193:B *2175:B 2.75229e-05
4 *2193:B *490:10 0.000139245
5 *2193:B *490:55 8.53113e-06
6 *2277:D *2193:B 7.18817e-05
*RES
1 *2192:Y *2193:B 9.285 
*END

*D_NET *446 0.000452609
*CONN
*I *2194:A2 I *D sky130_fd_sc_hd__a21oi_1
*I *2193:X O *D sky130_fd_sc_hd__or2_1
*CAP
1 *2194:A2 0.000183006
2 *2193:X 0.000183006
3 *2194:A2 *490:10 0
4 *2194:A2 *541:12 0
5 *2193:A *2194:A2 8.65961e-05
6 *2277:D *2194:A2 0
*RES
1 *2193:X *2194:A2 9.72 
*END

*D_NET *447 0.000175254
*CONN
*I *2196:A2 I *D sky130_fd_sc_hd__a21oi_1
*I *2195:Y O *D sky130_fd_sc_hd__xnor2_1
*CAP
1 *2196:A2 3.57474e-05
2 *2195:Y 3.57474e-05
3 *2196:A2 *603:47 2.11084e-05
4 *2195:B *2196:A2 8.26509e-05
*RES
1 *2195:Y *2196:A2 4.265 
*END

*D_NET *448 0.00382082
*CONN
*I *2201:B I *D sky130_fd_sc_hd__xnor2_1
*I *2199:A I *D sky130_fd_sc_hd__or2_1
*I *2203:A2 I *D sky130_fd_sc_hd__a21o_1
*I *2197:X O *D sky130_fd_sc_hd__and3_1
*CAP
1 *2201:B 0.000200395
2 *2199:A 2.77378e-05
3 *2203:A2 0.000570784
4 *2197:X 0
5 *448:8 0.000621064
6 *448:6 0.000222937
7 *2199:A *2197:A 4.21973e-05
8 *2199:A *2200:A2 4.82863e-05
9 *2201:B *1980:A 0.000268278
10 *2201:B *2175:B 8.80477e-05
11 *2201:B *490:55 0.000395699
12 *2203:A2 *1980:A 0.000358944
13 *2203:A2 *604:12 0.000131054
14 *448:8 *1980:A 7.23602e-05
15 *2197:C *2199:A 0.000122331
16 *2277:D *2201:B 0.000175782
17 *2277:D *2203:A2 0.000200063
18 *2277:D *448:8 3.68862e-05
19 *2350:D *2203:A2 1.54049e-05
20 *432:47 *2201:B 0.00022257
*RES
1 *2197:X *448:6 3.6 
2 *448:6 *448:8 0.87 
3 *448:8 *2203:A2 14.91 
4 *448:8 *2199:A 4.74 
5 *448:6 *2201:B 11.43 
*END

*D_NET *449 0.000494756
*CONN
*I *2199:B I *D sky130_fd_sc_hd__or2_1
*I *2198:Y O *D sky130_fd_sc_hd__a21oi_1
*CAP
1 *2199:B 0.000136096
2 *2198:Y 0.000136096
3 *2199:B *2197:A 9.30787e-05
4 *2199:B *465:81 0
5 *2199:B *491:30 0.000129485
*RES
1 *2198:Y *2199:B 9.49125 
*END

*D_NET *450 0.0005028
*CONN
*I *2200:A2 I *D sky130_fd_sc_hd__a21oi_1
*I *2199:X O *D sky130_fd_sc_hd__or2_1
*CAP
1 *2200:A2 6.89335e-05
2 *2199:X 6.89335e-05
3 *2200:A2 *2197:A 0.000283742
4 *2197:C *2200:A2 3.29047e-05
5 *2199:A *2200:A2 4.82863e-05
*RES
1 *2199:X *2200:A2 5.375 
*END

*D_NET *451 0.000671441
*CONN
*I *2202:A2 I *D sky130_fd_sc_hd__a21oi_1
*I *2201:Y O *D sky130_fd_sc_hd__xnor2_1
*CAP
1 *2202:A2 0.000175185
2 *2201:Y 0.000175185
3 *2202:A2 *471:123 0
4 *2202:A2 *471:125 0
5 *2202:A2 *603:39 2.49909e-05
6 *2273:D *2202:A2 0.000296081
*RES
1 *2201:Y *2202:A2 11.07 
*END

*D_NET *452 0.000643826
*CONN
*I *2204:B I *D sky130_fd_sc_hd__nand2b_1
*I *2203:X O *D sky130_fd_sc_hd__a21o_1
*CAP
1 *2204:B 0.000101669
2 *2203:X 0.000101669
3 *2204:B *494:10 0.000104395
4 *2204:B *560:100 0.000293338
5 *2204:B *620:18 3.89736e-05
6 *291:99 *2204:B 3.78034e-06
*RES
1 *2203:X *2204:B 10.7288 
*END

*D_NET *453 0.000667367
*CONN
*I *2205:A2 I *D sky130_fd_sc_hd__a21oi_1
*I *2204:Y O *D sky130_fd_sc_hd__nand2b_1
*CAP
1 *2205:A2 0.000230065
2 *2204:Y 0.000230065
3 *2205:A2 *2352:CLK 1.33232e-05
4 *2205:A2 *493:23 0
5 *2273:D *2205:A2 0.000113423
6 *2352:D *2205:A2 5.80286e-05
7 *291:99 *2205:A2 2.24631e-05
*RES
1 *2204:Y *2205:A2 10.53 
*END

*D_NET *454 0.00147108
*CONN
*I *2207:B I *D sky130_fd_sc_hd__nand2_1
*I *2206:X O *D sky130_fd_sc_hd__or2_1
*CAP
1 *2207:B 0.000262802
2 *2206:X 0.000262802
3 *2207:B *2208:A2 0.000217434
4 *2207:B *2374:A 2.49909e-05
5 *2207:B *465:191 0.000435413
6 *2207:A *2207:B 2.10583e-05
7 *356:10 *2207:B 0.000246579
*RES
1 *2206:X *2207:B 14.505 
*END

*D_NET *455 0.0015534
*CONN
*I *2208:A2 I *D sky130_fd_sc_hd__a21oi_1
*I *2207:Y O *D sky130_fd_sc_hd__nand2_1
*CAP
1 *2208:A2 0.000446248
2 *2207:Y 0.000446248
3 *2207:A *2208:A2 1.17309e-05
4 *2207:B *2208:A2 0.000217434
5 *2384:A *2208:A2 0.000116629
6 *356:10 *2208:A2 0.000168759
7 *438:23 *2208:A2 0.000119559
8 *438:25 *2208:A2 2.67941e-05
*RES
1 *2207:Y *2208:A2 15.78 
*END

*D_NET *456 0.000277657
*CONN
*I *2210:A2 I *D sky130_fd_sc_hd__a21oi_1
*I *2209:X O *D sky130_fd_sc_hd__xor2_1
*CAP
1 *2210:A2 7.2204e-05
2 *2209:X 7.2204e-05
3 *2210:A2 *481:52 0.000133249
4 *435:10 *2210:A2 0
*RES
1 *2209:X *2210:A2 4.7 
*END

*D_NET *457 0.000583789
*CONN
*I *2212:A2 I *D sky130_fd_sc_hd__o21a_1
*I *2211:Y O *D sky130_fd_sc_hd__a31oi_1
*CAP
1 *2212:A2 7.70336e-05
2 *2211:Y 7.70336e-05
3 *2212:A2 *2211:A1 0.000216238
4 *2212:A2 *2211:A2 7.67415e-06
5 *2177:B *2212:A2 5.1511e-05
6 *2212:B1 *2212:A2 2.77287e-05
7 *434:47 *2212:A2 0.00012657
8 *435:10 *2212:A2 0
*RES
1 *2211:Y *2212:A2 6.095 
*END

*D_NET *458 0.000892926
*CONN
*I *2213:B I *D sky130_fd_sc_hd__nor2_1
*I *2212:X O *D sky130_fd_sc_hd__o21a_1
*CAP
1 *2213:B 0.000159714
2 *2212:X 0.000159714
3 *2213:B *2211:A2 0.000200615
4 *2213:B *2211:B1 4.82863e-05
5 *434:25 *2213:B 0.000176268
6 *434:47 *2213:B 0.000148329
*RES
1 *2212:X *2213:B 7.565 
*END

*D_NET *459 0.000320262
*CONN
*I *2215:A2 I *D sky130_fd_sc_hd__a21oi_1
*I *2214:Y O *D sky130_fd_sc_hd__xnor2_1
*CAP
1 *2215:A2 7.81386e-05
2 *2214:Y 7.81386e-05
3 *2214:B *2215:A2 0.000154481
4 *436:10 *2215:A2 9.50342e-06
*RES
1 *2214:Y *2215:A2 9.09 
*END

*D_NET *460 0.000525209
*CONN
*I *2217:B1 I *D sky130_fd_sc_hd__a211oi_1
*I *2216:Y O *D sky130_fd_sc_hd__a21oi_1
*CAP
1 *2217:B1 0.000115656
2 *2216:Y 0.000115656
3 *2217:B1 *2179:B 0.00012657
4 *2217:B1 *605:49 8.05273e-05
5 *2179:C *2217:B1 7.20649e-05
6 *2357:D *2217:B1 1.47347e-05
*RES
1 *2216:Y *2217:B1 6.065 
*END

*D_NET *461 0.00169335
*CONN
*I *2224:C1 I *D sky130_fd_sc_hd__o211a_1
*I *2222:B1 I *D sky130_fd_sc_hd__o211a_1
*I *2219:X O *D sky130_fd_sc_hd__o21a_1
*CAP
1 *2224:C1 0
2 *2222:B1 0.000241148
3 *2219:X 0.000348874
4 *461:10 0.000590022
5 *2222:B1 *2220:A1 3.60364e-05
6 *2222:B1 *2221:A2 0
7 *2222:B1 *2222:A2 9.50342e-06
8 *2222:B1 *2222:C1 5.53249e-06
9 *2222:B1 *2223:B 0
10 *2222:B1 *462:12 0
11 *461:10 *2223:B 0
12 *461:10 *554:59 3.00381e-05
13 *363:10 *461:10 0.000432198
*RES
1 *2219:X *461:10 10.455 
2 *461:10 *2222:B1 6.735 
3 *461:10 *2224:C1 3.6 
*END

*D_NET *462 0.00161486
*CONN
*I *2221:A2 I *D sky130_fd_sc_hd__o21ai_1
*I *2224:A2 I *D sky130_fd_sc_hd__o211a_1
*I *2220:Y O *D sky130_fd_sc_hd__a21boi_1
*CAP
1 *2221:A2 0.000182663
2 *2224:A2 2.07379e-05
3 *2220:Y 0.000122677
4 *462:12 0.000326077
5 *2221:A2 *2220:A1 0.000188957
6 *2221:A2 *2222:A1 0
7 *2221:A2 *2222:A2 0
8 *2221:A2 *2223:B 6.9117e-05
9 *2221:A2 *2224:B1 9.66021e-05
10 *2221:A2 *2360:CLK 4.00541e-06
11 *2221:A2 *469:115 0.000120655
12 *2221:A2 *559:34 1.34594e-05
13 *2221:A2 *641:16 4.82863e-05
14 *2224:A2 *2224:B1 9.39681e-06
15 *462:12 *2053:B 0
16 *462:12 *2220:A1 0.000123225
17 *462:12 *559:34 1.34503e-05
18 *2222:B1 *2221:A2 0
19 *2222:B1 *462:12 0
20 *2224:A1 *462:12 0.000163204
21 *2359:D *2221:A2 3.83194e-05
22 *2360:D *462:12 7.4027e-05
23 *289:35 *2224:A2 0
*RES
1 *2220:Y *462:12 8.555 
2 *462:12 *2224:A2 1.96 
3 *462:12 *2221:A2 10.565 
*END

*D_NET *463 0.00140062
*CONN
*I *2223:B I *D sky130_fd_sc_hd__nand2b_1
*I *2222:C1 I *D sky130_fd_sc_hd__o211a_1
*I *2221:Y O *D sky130_fd_sc_hd__o21ai_1
*CAP
1 *2223:B 0.000116612
2 *2222:C1 0.000258644
3 *2221:Y 0
4 *463:4 0.000375256
5 *2222:C1 *2220:A1 5.53249e-06
6 *2222:C1 *2220:A2 0.000163835
7 *2222:C1 *2220:B1_N 0
8 *2222:C1 *2222:A2 1.53032e-05
9 *2222:C1 *641:16 9.26286e-05
10 *2223:B *2220:A1 1.20789e-05
11 *2223:B *2221:A1 4.62396e-05
12 *2223:B *2222:A2 0
13 *2223:B *2359:CLK 9.37731e-05
14 *2223:B *559:34 1.20789e-05
15 *2223:B *641:14 4.9968e-05
16 *2221:A2 *2223:B 6.9117e-05
17 *2222:B1 *2222:C1 5.53249e-06
18 *2222:B1 *2223:B 0
19 *2359:D *2222:C1 8.40213e-05
20 *461:10 *2223:B 0
*RES
1 *2221:Y *463:4 1.6 
2 *463:4 *2222:C1 9.89 
3 *463:4 *2223:B 8.4725 
*END

*D_NET *464 0.000363835
*CONN
*I *2224:B1 I *D sky130_fd_sc_hd__o211a_1
*I *2223:Y O *D sky130_fd_sc_hd__nand2b_1
*CAP
1 *2224:B1 4.77629e-05
2 *2223:Y 4.77629e-05
3 *2224:B1 *559:34 0.000162311
4 *2221:A2 *2224:B1 9.66021e-05
5 *2224:A2 *2224:B1 9.39681e-06
*RES
1 *2223:Y *2224:B1 5.045 
*END

*D_NET *465 0.033401
*CONN
*I *2374:A I *D sky130_fd_sc_hd__clkbuf_16
*I *708:DIODE I *D sky130_fd_sc_hd__diode_2
*I *2373:A I *D sky130_fd_sc_hd__clkbuf_16
*I *707:DIODE I *D sky130_fd_sc_hd__diode_2
*I *2370:A I *D sky130_fd_sc_hd__clkbuf_16
*I *704:DIODE I *D sky130_fd_sc_hd__diode_2
*I *703:DIODE I *D sky130_fd_sc_hd__diode_2
*I *2369:A I *D sky130_fd_sc_hd__clkbuf_16
*I *700:DIODE I *D sky130_fd_sc_hd__diode_2
*I *2371:A I *D sky130_fd_sc_hd__clkbuf_16
*I *2372:A I *D sky130_fd_sc_hd__clkbuf_16
*I *706:DIODE I *D sky130_fd_sc_hd__diode_2
*I *705:DIODE I *D sky130_fd_sc_hd__diode_2
*I *702:DIODE I *D sky130_fd_sc_hd__diode_2
*I *701:DIODE I *D sky130_fd_sc_hd__diode_2
*I *2367:A I *D sky130_fd_sc_hd__clkbuf_16
*I *2368:A I *D sky130_fd_sc_hd__clkbuf_16
*I *2366:X O *D sky130_fd_sc_hd__clkbuf_16
*CAP
1 *2374:A 2.70832e-05
2 *708:DIODE 0
3 *2373:A 0
4 *707:DIODE 0
5 *2370:A 0.000167654
6 *704:DIODE 0
7 *703:DIODE 0
8 *2369:A 7.80739e-05
9 *700:DIODE 0
10 *2371:A 0.000324992
11 *2372:A 0
12 *706:DIODE 0.000155814
13 *705:DIODE 0
14 *702:DIODE 0
15 *701:DIODE 0.000178589
16 *2367:A 0.000225754
17 *2368:A 4.08668e-05
18 *2366:X 0
19 *465:191 0.000711874
20 *465:178 0.000701897
21 *465:171 0.00144599
22 *465:135 0.000593932
23 *465:129 0.00171039
24 *465:117 0.00255978
25 *465:110 0.000194035
26 *465:81 0.00163663
27 *465:68 0.00185801
28 *465:64 0.00201472
29 *465:33 0.0014079
30 *465:20 0.00111368
31 *465:18 0.000274596
32 *465:16 0.00324551
33 *465:4 0.00181766
34 *701:DIODE *600:93 0.000276441
35 *2367:A *2025:A 0.000121094
36 *2367:A *2407:A 0.000176511
37 *2367:A *466:8 4.82863e-05
38 *2367:A *466:40 5.16418e-05
39 *2367:A *600:93 0.000801214
40 *2368:A *467:148 8.65905e-05
41 *2370:A *2053:B 3.08727e-05
42 *2371:A *1966:A 0
43 *2371:A *1974:A 8.53113e-06
44 *2371:A *470:6 0.00014366
45 *2371:A *560:76 0
46 *465:16 *615:124 0
47 *465:16 *634:21 0.000101386
48 *465:18 *1955:A2 5.21046e-05
49 *465:18 *2264:A 0
50 *465:18 *640:25 0
51 *465:33 *2021:A 0.000307737
52 *465:33 *2308:CLK 0
53 *465:33 *2329:CLK 0.000259521
54 *465:33 *466:40 0.00015046
55 *465:33 *467:159 0
56 *465:33 *500:26 0.000137195
57 *465:33 *622:32 0
58 *465:64 *1966:A 0
59 *465:64 *2034:A 0
60 *465:64 *2034:B 0
61 *465:64 *2034:C 0.000148092
62 *465:64 *2267:A 0
63 *465:64 *560:40 0
64 *465:64 *560:76 0
65 *465:64 *608:65 0
66 *465:64 *608:71 0
67 *465:64 *636:10 0
68 *465:64 *636:23 0
69 *465:64 *639:10 0.000138551
70 *465:64 *640:25 0
71 *465:81 *1983:A 0.000178416
72 *465:81 *1990:B2 0
73 *465:81 *2197:A 0
74 *465:81 *490:10 0
75 *465:81 *490:14 0
76 *465:81 *492:8 0
77 *465:81 *492:45 0
78 *465:129 *2053:B 1.23391e-05
79 *465:129 *2171:A1 0
80 *465:129 *2310:CLK 0
81 *465:129 *2463:A 6.10014e-05
82 *465:129 *607:53 0
83 *465:129 *651:10 0.000207512
84 *465:129 *651:27 0.000213878
85 *465:135 *2463:A 0.000395615
86 *465:135 *509:36 0
87 *465:135 *514:18 0
88 *465:135 *621:52 0
89 *465:171 *1947:B 3.63701e-06
90 *465:171 *1996:A 0.000164686
91 *465:171 *2171:B2 7.25921e-06
92 *465:171 *2341:CLK 0.000118879
93 *465:171 *472:10 8.6099e-05
94 *465:171 *472:12 4.50017e-05
95 *465:171 *472:14 4.75905e-05
96 *465:171 *648:76 2.61946e-05
97 *465:171 *649:45 0.000334789
98 *465:171 *651:27 2.21696e-05
99 *465:171 *651:40 2.63094e-05
100 *465:191 *2070:B 0.000136877
101 *465:191 *2072:B 0
102 *465:191 *2211:A1 2.42236e-05
103 *465:191 *480:48 0.000337517
104 *465:191 *480:54 0.000185405
105 *465:191 *489:75 5.34443e-05
106 *465:191 *615:212 0.00013994
107 *1973:A2 *465:64 0
108 *2000:A2 *465:171 0
109 *2000:A2 *465:178 8.65961e-05
110 *2000:A2 *465:191 0.000163199
111 *2080:A1 *465:191 9.16237e-05
112 *2081:A3 *465:191 0.000266618
113 *2087:A2 *465:191 0
114 *2087:A3 *465:191 5.21046e-05
115 *2126:A *465:135 0.000197407
116 *2126:B *2370:A 3.00381e-05
117 *2127:A_N *465:135 0.000330454
118 *2171:A2 *465:171 6.8725e-06
119 *2171:C1 *465:129 0
120 *2172:C1 *465:171 1.1392e-05
121 *2193:A *706:DIODE 7.35813e-05
122 *2193:A *465:81 0.000143266
123 *2198:A2 *465:81 0.000116151
124 *2199:B *465:81 0
125 *2207:A *465:191 0.000203629
126 *2207:B *2374:A 2.49909e-05
127 *2207:B *465:191 0.000435413
128 *2277:D *465:81 0
129 *2294:D *465:135 0
130 *2295:D *465:33 0
131 *2296:D *465:33 3.39064e-05
132 *2312:RESET_B *465:64 3.39151e-05
133 *2314:RESET_B *465:64 0
134 *2329:D *465:33 3.68769e-05
135 *2331:D *2367:A 4.60922e-05
136 *2334:D *465:129 0
137 *2341:D *465:171 2.97291e-05
138 *170:21 *465:18 0.000136877
139 *170:21 *465:20 5.16418e-05
140 *170:42 *465:16 0.00100501
141 *170:70 *465:171 0
142 *284:19 *465:171 0.000133268
143 *285:12 *465:171 0
144 *287:25 *465:171 0
145 *288:14 *465:171 0.000266612
146 *289:27 *465:129 0
147 *289:35 *465:129 0
148 *295:101 *465:178 5.05521e-05
149 *295:101 *465:191 0.000291658
150 *335:16 *465:171 0
151 *356:10 *465:191 0.000228533
152 *433:8 *465:81 0.000468926
153 *438:23 *465:191 0
*RES
1 *2366:X *465:4 1.6 
2 *465:4 *465:16 10.9278 
3 *465:16 *465:18 3.8025 
4 *465:18 *465:20 1.125 
5 *465:20 *2368:A 4.395 
6 *465:20 *465:33 19.935 
7 *465:33 *2367:A 11.925 
8 *465:33 *701:DIODE 6.12 
9 *465:18 *702:DIODE 3.6 
10 *465:16 *465:64 21.6525 
11 *465:64 *465:68 5.9 
12 *465:68 *705:DIODE 1.6 
13 *465:68 *465:81 26.185 
14 *465:81 *706:DIODE 4.135 
15 *465:81 *2372:A 1.6 
16 *465:64 *2371:A 9.21 
17 *465:4 *465:110 1.155 
18 *465:110 *700:DIODE 1.6 
19 *465:110 *465:117 1.14 
20 *465:117 *465:129 22.465 
21 *465:129 *465:135 16.345 
22 *465:135 *2369:A 2.755 
23 *465:135 *703:DIODE 1.6 
24 *465:129 *704:DIODE 1.6 
25 *465:129 *2370:A 3.79 
26 *465:117 *465:171 26.545 
27 *465:171 *707:DIODE 1.6 
28 *465:171 *465:178 0.795 
29 *465:178 *2373:A 1.6 
30 *465:178 *465:191 24.76 
31 *465:191 *708:DIODE 1.6 
32 *465:191 *2374:A 2.05 
*END

*D_NET *466 0.0130852
*CONN
*I *2329:CLK I *D sky130_fd_sc_hd__dfxtp_1
*I *2375:A I *D sky130_fd_sc_hd__clkbuf_8
*I *2298:CLK I *D sky130_fd_sc_hd__dfrtp_1
*I *2293:CLK I *D sky130_fd_sc_hd__dfrtp_1
*I *2330:CLK I *D sky130_fd_sc_hd__dfxtp_1
*I *2331:CLK I *D sky130_fd_sc_hd__dfxtp_1
*I *2299:CLK I *D sky130_fd_sc_hd__dfrtp_1
*I *2332:CLK I *D sky130_fd_sc_hd__dfxtp_1
*I *2286:CLK I *D sky130_fd_sc_hd__dfrtp_1
*I *2300:CLK I *D sky130_fd_sc_hd__dfrtp_1
*I *2290:CLK I *D sky130_fd_sc_hd__dfrtp_1
*I *2285:CLK I *D sky130_fd_sc_hd__dfrtp_1
*I *2318:CLK I *D sky130_fd_sc_hd__dfxtp_1
*I *2367:X O *D sky130_fd_sc_hd__clkbuf_16
*CAP
1 *2329:CLK 0.000289995
2 *2375:A 0
3 *2298:CLK 0.000247169
4 *2293:CLK 0.000136143
5 *2330:CLK 0
6 *2331:CLK 2.11528e-05
7 *2299:CLK 0.000383644
8 *2332:CLK 0
9 *2286:CLK 0
10 *2300:CLK 0.00037225
11 *2290:CLK 0.00026816
12 *2285:CLK 0.000300211
13 *2318:CLK 0
14 *2367:X 9.73191e-06
15 *466:128 0.000146791
16 *466:124 0.000414343
17 *466:75 0.000577909
18 *466:69 0.000525097
19 *466:61 0.000801936
20 *466:59 0.000354723
21 *466:57 0.000391244
22 *466:46 0.000297498
23 *466:44 0.000376177
24 *466:40 0.000764187
25 *466:20 0.000624648
26 *466:8 0.00046152
27 *2285:CLK *506:12 0.000182431
28 *2285:CLK *584:22 0.000114179
29 *2285:CLK *600:26 0.000160658
30 *2285:CLK *606:23 0
31 *2285:CLK *622:32 0
32 *2293:CLK *2250:A 9.91257e-05
33 *2298:CLK *2137:A 0.000208608
34 *2298:CLK *611:26 0
35 *2299:CLK *2256:A 0.0001249
36 *2300:CLK *2484:A 6.69608e-06
37 *2300:CLK *581:14 9.67691e-05
38 *2329:CLK *2039:A 0
39 *2329:CLK *500:26 0.00013521
40 *2331:CLK *2025:A 2.49909e-05
41 *2331:CLK *584:22 1.56428e-05
42 *466:8 *2407:A 4.82863e-05
43 *466:20 *2039:B 0
44 *466:20 *2101:B 4.66108e-05
45 *466:20 *499:49 0.000185405
46 *466:20 *506:12 2.55546e-05
47 *466:20 *506:16 4.82919e-05
48 *466:20 *506:37 1.01661e-05
49 *466:20 *584:22 0.000111909
50 *466:20 *622:32 0
51 *466:40 *2039:B 0
52 *466:44 *2039:A 8.49205e-05
53 *466:44 *504:36 4.66108e-05
54 *466:59 *2139:C 0.000196671
55 *466:69 *576:24 4.34223e-05
56 *466:75 *2026:B 4.8854e-05
57 *466:75 *2026:C 4.9968e-05
58 *466:75 *2243:A 0
59 *466:75 *576:24 0.000197826
60 *466:124 *2137:A 5.18317e-06
61 wb_dat_o[23] *2300:CLK 1.03423e-05
62 *2103:C *2285:CLK 4.19967e-05
63 *2136:A_N *2329:CLK 1.15688e-05
64 *2137:B *2293:CLK 1.7611e-05
65 *2139:B *2298:CLK 0
66 *2140:B *466:44 0.000237243
67 *2142:C *2299:CLK 2.75145e-05
68 *2142:C *466:59 0.00010596
69 *2142:C *466:61 0.000137571
70 *2143:B *466:59 3.39944e-05
71 *2143:B *466:61 2.05661e-05
72 *2143:B *466:69 0.000113964
73 *2144:B *466:69 7.06865e-05
74 *2290:D *2290:CLK 0.000687806
75 *2290:D *466:44 0.000227816
76 *2290:D *466:46 4.30228e-05
77 *2293:D *2293:CLK 0.000251332
78 *2293:D *466:128 1.34503e-05
79 *2318:D *2285:CLK 5.01066e-05
80 *2329:D *2329:CLK 1.22464e-05
81 *2330:D *2290:CLK 8.52055e-05
82 *2330:D *2293:CLK 4.25177e-05
83 *2330:D *466:46 4.77757e-05
84 *2330:D *466:128 4.99619e-05
85 *2367:A *466:8 4.82863e-05
86 *2367:A *466:40 5.16418e-05
87 *329:20 *2329:CLK 2.67022e-05
88 *329:20 *466:44 0.000124895
89 *465:33 *2329:CLK 0.000259521
90 *465:33 *466:40 0.00015046
*RES
1 *2367:X *466:8 4.05 
2 *466:8 *466:20 8.675 
3 *466:20 *2318:CLK 1.6 
4 *466:20 *2285:CLK 12.395 
5 *466:8 *466:40 2.655 
6 *466:40 *466:44 9.005 
7 *466:44 *466:46 0.795 
8 *466:46 *2290:CLK 8.275 
9 *466:46 *466:57 2 
10 *466:57 *466:59 4.44 
11 *466:59 *466:61 2.145 
12 *466:61 *466:69 7.43 
13 *466:69 *466:75 5.975 
14 *466:75 *2300:CLK 9.405 
15 *466:75 *2286:CLK 3.6 
16 *466:69 *2332:CLK 1.6 
17 *466:61 *2299:CLK 9.57 
18 *466:59 *2331:CLK 4.05 
19 *466:57 *466:124 2.19 
20 *466:124 *466:128 2.45 
21 *466:128 *2330:CLK 1.6 
22 *466:128 *2293:CLK 5.86 
23 *466:124 *2298:CLK 7.92 
24 *466:44 *2375:A 1.6 
25 *466:40 *2329:CLK 8.865 
*END

*D_NET *467 0.0137973
*CONN
*I *2309:CLK I *D sky130_fd_sc_hd__dfxtp_1
*I *2308:CLK I *D sky130_fd_sc_hd__dfxtp_1
*I *2307:CLK I *D sky130_fd_sc_hd__dfxtp_1
*I *2311:CLK I *D sky130_fd_sc_hd__dfrtp_1
*I *2275:CLK I *D sky130_fd_sc_hd__dfrtp_1
*I *2313:CLK I *D sky130_fd_sc_hd__dfrtp_1
*I *2276:CLK I *D sky130_fd_sc_hd__dfrtp_1
*I *2361:CLK I *D sky130_fd_sc_hd__dfxtp_1
*I *2302:CLK I *D sky130_fd_sc_hd__dfrtp_1
*I *2362:CLK I *D sky130_fd_sc_hd__dfxtp_1
*I *2297:CLK I *D sky130_fd_sc_hd__dfrtp_1
*I *2295:CLK I *D sky130_fd_sc_hd__dfrtp_1
*I *2289:CLK I *D sky130_fd_sc_hd__dfrtp_1
*I *2296:CLK I *D sky130_fd_sc_hd__dfrtp_1
*I *2376:A I *D sky130_fd_sc_hd__clkbuf_4
*I *2368:X O *D sky130_fd_sc_hd__clkbuf_16
*CAP
1 *2309:CLK 0
2 *2308:CLK 0.000257151
3 *2307:CLK 0
4 *2311:CLK 0.000280461
5 *2275:CLK 0
6 *2313:CLK 0.000115322
7 *2276:CLK 0
8 *2361:CLK 1.3091e-05
9 *2302:CLK 0.000456031
10 *2362:CLK 0
11 *2297:CLK 0.000103266
12 *2295:CLK 8.61467e-05
13 *2289:CLK 0.000265147
14 *2296:CLK 0.000499874
15 *2376:A 8.85585e-05
16 *2368:X 0
17 *467:159 0.000364235
18 *467:148 0.000492447
19 *467:114 0.000293179
20 *467:108 0.000440565
21 *467:89 0.000450559
22 *467:76 0.00091855
23 *467:74 0.00066459
24 *467:36 0.000952481
25 *467:32 0.000704453
26 *467:19 0.00063089
27 *467:17 0.000207549
28 *467:15 0.000172902
29 *467:6 0.000110775
30 *467:4 0.00040758
31 *2289:CLK *616:20 0
32 *2289:CLK *616:24 0
33 *2289:CLK *616:37 9.24049e-05
34 *2295:CLK *616:20 0
35 *2296:CLK *2023:A 0.00011201
36 *2296:CLK *2023:B 2.01504e-05
37 *2296:CLK *2488:A 0.000197826
38 *2296:CLK *617:33 0.000119221
39 *2296:CLK *617:37 0.000116158
40 *2296:CLK *617:54 0.000253224
41 *2297:CLK *2253:A 1.1728e-05
42 *2302:CLK *617:20 5.25374e-05
43 *2308:CLK *606:17 6.27347e-05
44 *2308:CLK *607:53 0.000237249
45 *2308:CLK *622:32 0.000150019
46 *2311:CLK *2264:A 0.000196669
47 *2311:CLK *2425:A 0
48 *2311:CLK *617:31 0
49 *2361:CLK *615:36 1.83756e-05
50 *467:17 *617:33 0.000155176
51 *467:19 *617:33 0.000285202
52 *467:36 *2253:A 3.1562e-06
53 *467:36 *2489:A 5.36384e-06
54 *467:74 *617:33 0.000149766
55 *467:76 *2264:A 4.66108e-05
56 *467:76 *617:20 7.2601e-05
57 *467:76 *617:31 9.80032e-06
58 *467:89 *2225:B1 4.43871e-06
59 *467:89 *617:20 0
60 *467:89 *617:31 0
61 *467:89 *617:33 0
62 *467:89 *622:14 0
63 *467:89 *622:30 0
64 *467:108 *2225:B1 4.02905e-05
65 *467:108 *2425:A 0
66 *467:108 *615:49 0.000115391
67 *467:114 *615:49 0
68 *467:114 *615:60 0
69 *467:114 *622:14 0.000362264
70 *467:148 *622:30 6.90876e-05
71 *467:159 *622:30 2.04592e-05
72 *467:159 *622:32 6.73665e-05
73 *2276:D *2313:CLK 0.000161837
74 *2296:D *2296:CLK 6.97202e-05
75 *2297:D *467:36 1.56428e-05
76 *2297:RESET_B *2289:CLK 0
77 *2302:D *2302:CLK 3.94592e-05
78 *2302:RESET_B *467:76 2.09305e-05
79 *2361:D *2361:CLK 4.82863e-05
80 *2362:D *467:17 1.23437e-05
81 *2362:D *467:19 4.22574e-05
82 *2368:A *467:148 8.65905e-05
83 *59:21 *467:108 0.00010856
84 *170:21 *2376:A 9.10368e-05
85 *170:21 *467:6 2.01565e-05
86 *170:21 *467:148 0.000840408
87 *291:33 *2311:CLK 0.000217008
88 *465:33 *2308:CLK 0
89 *465:33 *467:159 0
*RES
1 *2368:X *467:4 1.6 
2 *467:4 *467:6 0.45 
3 *467:6 *2376:A 3.085 
4 *467:6 *467:15 2 
5 *467:15 *467:17 1.89 
6 *467:17 *467:19 3.42 
7 *467:19 *2296:CLK 14.64 
8 *467:19 *467:32 2 
9 *467:32 *467:36 8.315 
10 *467:36 *2289:CLK 8.295 
11 *467:36 *2295:CLK 4.98 
12 *467:32 *2297:CLK 3.01 
13 *467:17 *2362:CLK 3.6 
14 *467:15 *467:74 3.89 
15 *467:74 *467:76 3.555 
16 *467:76 *2302:CLK 7.15 
17 *467:76 *467:89 4.655 
18 *467:89 *2361:CLK 4.05 
19 *467:89 *467:108 7.22 
20 *467:108 *467:114 8.185 
21 *467:114 *2276:CLK 1.6 
22 *467:114 *2313:CLK 4.12 
23 *467:108 *2275:CLK 1.6 
24 *467:74 *2311:CLK 10.085 
25 *467:4 *467:148 9.09 
26 *467:148 *2307:CLK 1.6 
27 *467:148 *467:159 4.34 
28 *467:159 *2308:CLK 9.96 
29 *467:159 *2309:CLK 3.6 
*END

*D_NET *468 0.0157053
*CONN
*I *2324:CLK I *D sky130_fd_sc_hd__dfxtp_1
*I *2323:CLK I *D sky130_fd_sc_hd__dfxtp_1
*I *2322:CLK I *D sky130_fd_sc_hd__dfxtp_1
*I *2321:CLK I *D sky130_fd_sc_hd__dfxtp_1
*I *2377:A I *D sky130_fd_sc_hd__clkbuf_4
*I *2294:CLK I *D sky130_fd_sc_hd__dfrtp_1
*I *2320:CLK I *D sky130_fd_sc_hd__dfxtp_1
*I *2317:CLK I *D sky130_fd_sc_hd__dfxtp_1
*I *2327:CLK I *D sky130_fd_sc_hd__dfxtp_1
*I *2319:CLK I *D sky130_fd_sc_hd__dfxtp_1
*I *2287:CLK I *D sky130_fd_sc_hd__dfrtp_1
*I *2292:CLK I *D sky130_fd_sc_hd__dfrtp_1
*I *2291:CLK I *D sky130_fd_sc_hd__dfrtp_1
*I *2288:CLK I *D sky130_fd_sc_hd__dfrtp_1
*I *2369:X O *D sky130_fd_sc_hd__clkbuf_16
*CAP
1 *2324:CLK 0
2 *2323:CLK 0.000347743
3 *2322:CLK 1.81446e-05
4 *2321:CLK 0
5 *2377:A 0
6 *2294:CLK 0.000176484
7 *2320:CLK 0
8 *2317:CLK 0
9 *2327:CLK 0.000556975
10 *2319:CLK 0
11 *2287:CLK 0.000165071
12 *2292:CLK 9.5848e-05
13 *2291:CLK 0
14 *2288:CLK 1.90984e-05
15 *2369:X 0
16 *468:148 0.000550587
17 *468:138 0.0010811
18 *468:130 0.000721936
19 *468:72 0.000752741
20 *468:57 0.000408266
21 *468:53 0.000298713
22 *468:49 0.000560439
23 *468:33 0.000783784
24 *468:20 0.00088048
25 *468:14 0.000591938
26 *468:12 0.000395215
27 *468:10 0.000619343
28 *468:4 0.00103097
29 *2287:CLK *2013:A 1.0183e-05
30 *2287:CLK *610:26 0
31 *2322:CLK *510:8 2.30292e-05
32 *2323:CLK *511:8 0.0001249
33 *2323:CLK *621:106 0.00046026
34 *2327:CLK *499:41 2.84137e-05
35 *2327:CLK *610:26 0
36 *2327:CLK *610:95 0
37 *2327:CLK *613:57 5.2478e-05
38 *468:10 *2463:A 0
39 *468:12 *2463:A 0
40 *468:12 *621:64 0
41 *468:14 *2463:A 0
42 *468:14 *621:64 0
43 *468:20 *2463:A 0
44 *468:20 *581:14 3.07153e-05
45 *468:20 *621:64 0
46 *468:33 *581:14 5.062e-06
47 *468:49 *2014:A 8.40269e-05
48 *468:49 *2415:A 0.000426195
49 *468:49 *499:18 5.83121e-06
50 *468:49 *508:10 0.000228011
51 *468:49 *611:76 0.000143924
52 *468:49 *611:83 0.000138311
53 *468:53 *2100:A_N 0
54 *468:53 *499:10 7.35729e-05
55 *468:53 *499:18 0.000345625
56 *468:57 *2013:A 0.000120655
57 *468:57 *2100:B 4.82919e-05
58 *468:57 *499:18 8.82557e-05
59 *468:72 *2013:A 4.19967e-05
60 *468:72 *2100:B 0
61 *468:72 *499:24 2.25161e-05
62 *468:72 *610:26 0
63 *468:130 *512:12 7.68475e-05
64 *468:130 *512:38 0
65 *468:138 *2017:A 7.60965e-05
66 *468:138 *2408:A 0.000114492
67 *468:138 *511:35 1.14559e-05
68 *468:138 *621:106 0.000309612
69 *468:148 *2111:A 9.78082e-05
70 *468:148 *2118:A 0
71 *468:148 *509:14 7.06865e-05
72 *468:148 *510:8 0.000390466
73 *468:148 *511:23 0.000114492
74 *468:148 *602:33 0.000161529
75 *468:148 *602:35 0
76 *2106:B *2327:CLK 5.92191e-05
77 *2106:B *468:72 9.50114e-05
78 *2106:C *468:72 7.23602e-05
79 *2117:B *468:148 8.5225e-05
80 *2121:C *468:130 3.64998e-06
81 *2287:D *2287:CLK 3.39064e-05
82 *2288:D *2288:CLK 4.00541e-06
83 *2288:D *468:33 9.72742e-06
84 *2293:D *2327:CLK 6.54766e-05
85 *2294:D *468:10 9.23971e-05
86 *2294:D *468:12 9.16315e-05
87 *2294:RESET_B *2294:CLK 6.77162e-05
88 *2317:D *468:53 9.83884e-05
89 *2317:D *468:57 1.61831e-05
90 *2319:D *468:72 3.47837e-05
91 *2320:D *468:49 1.43717e-05
92 *2321:D *468:148 0.000465688
93 *2323:D *2323:CLK 1.43717e-05
94 *2324:D *468:130 0.000111988
95 *2324:D *468:138 8.53113e-06
96 *2327:D *2327:CLK 5.49875e-05
97 *392:10 *468:148 0.000225068
*RES
1 *2369:X *468:4 1.6 
2 *468:4 *468:10 8.48 
3 *468:10 *468:12 2.4 
4 *468:12 *468:14 1.635 
5 *468:14 *468:20 4.43 
6 *468:20 *2288:CLK 1.96 
7 *468:20 *468:33 7.98 
8 *468:33 *2291:CLK 1.6 
9 *468:33 *2292:CLK 3.085 
10 *468:14 *468:49 11.075 
11 *468:49 *468:53 6.675 
12 *468:53 *468:57 3.83 
13 *468:57 *2287:CLK 6.3 
14 *468:57 *468:72 4.185 
15 *468:72 *2319:CLK 3.6 
16 *468:72 *2327:CLK 13.2 
17 *468:53 *2317:CLK 1.6 
18 *468:49 *2320:CLK 1.6 
19 *468:12 *2294:CLK 6.045 
20 *468:10 *2377:A 3.6 
21 *468:4 *468:130 11.365 
22 *468:130 *468:138 8.755 
23 *468:138 *468:148 18.16 
24 *468:148 *2321:CLK 1.6 
25 *468:148 *2322:CLK 2.05 
26 *468:138 *2323:CLK 9.19 
27 *468:130 *2324:CLK 1.6 
*END

*D_NET *469 0.0162178
*CONN
*I *2360:CLK I *D sky130_fd_sc_hd__dfxtp_1
*I *2359:CLK I *D sky130_fd_sc_hd__dfxtp_1
*I *2337:CLK I *D sky130_fd_sc_hd__dfxtp_1
*I *2310:CLK I *D sky130_fd_sc_hd__dfxtp_1
*I *2342:CLK I *D sky130_fd_sc_hd__dfxtp_1
*I *2315:CLK I *D sky130_fd_sc_hd__dfxtp_2
*I *2334:CLK I *D sky130_fd_sc_hd__dfxtp_1
*I *2378:A I *D sky130_fd_sc_hd__bufinv_16
*I *2326:CLK I *D sky130_fd_sc_hd__dfxtp_1
*I *2325:CLK I *D sky130_fd_sc_hd__dfxtp_1
*I *2328:CLK I *D sky130_fd_sc_hd__dfxtp_1
*I *2370:X O *D sky130_fd_sc_hd__clkbuf_16
*CAP
1 *2360:CLK 4.98036e-05
2 *2359:CLK 0.000123967
3 *2337:CLK 0
4 *2310:CLK 0.000592867
5 *2342:CLK 0.000147834
6 *2315:CLK 0.000189454
7 *2334:CLK 0.000198983
8 *2378:A 2.90958e-05
9 *2326:CLK 6.98709e-05
10 *2325:CLK 0.000188677
11 *2328:CLK 0.000816675
12 *2370:X 0
13 *469:115 0.000866812
14 *469:93 0.00113149
15 *469:76 0.000868851
16 *469:60 0.000388437
17 *469:58 0.000377418
18 *469:47 0.000294802
19 *469:14 0.0010656
20 *469:10 0.000284319
21 *469:8 0.000447965
22 *469:4 0.000916119
23 *2310:CLK *1960:D_N 0.000105654
24 *2310:CLK *1993:A1 1.47347e-05
25 *2310:CLK *2058:B 0.000186401
26 *2310:CLK *498:6 0.000118361
27 *2310:CLK *615:102 0
28 *2310:CLK *615:124 0
29 *2310:CLK *634:21 4.82863e-05
30 *2325:CLK *2122:A 8.5101e-05
31 *2325:CLK *602:8 4.58166e-05
32 *2326:CLK *2127:C 4.86533e-05
33 *2326:CLK *514:10 7.89269e-05
34 *2328:CLK *1936:A 4.82863e-05
35 *2328:CLK *2015:C 3.49688e-05
36 *2328:CLK *2054:A1 4.66108e-05
37 *2328:CLK *513:10 0.000526597
38 *2328:CLK *602:8 4.51031e-05
39 *2328:CLK *606:118 8.31082e-05
40 *2328:CLK *606:131 2.8185e-05
41 *2359:CLK *2221:A1 1.52184e-05
42 *2359:CLK *641:14 5.98621e-05
43 *2359:CLK *641:53 0
44 *2360:CLK *2221:A1 4.82863e-05
45 *2378:A *559:8 0.000160635
46 *469:8 *2053:B 1.29866e-05
47 *469:10 *621:52 0.000144537
48 *469:14 *2127:C 3.47837e-05
49 *469:14 *513:43 2.92496e-05
50 *469:14 *621:52 4.31189e-05
51 *469:47 *621:52 5.7344e-05
52 *469:58 *621:46 8.78813e-05
53 *469:58 *621:52 0.000110315
54 *469:76 *1938:A 0
55 *469:76 *621:46 0.000200937
56 *469:93 *1940:A 4.99619e-05
57 *469:93 *2149:A 0.000427088
58 *469:93 *2149:B 4.00541e-06
59 *469:93 *621:42 8.65905e-05
60 *469:93 *621:46 0.000127181
61 *469:93 *621:158 7.40446e-05
62 *469:115 *2053:B 0.000240987
63 *469:115 *2220:A2 0.000113844
64 *469:115 *641:16 6.90876e-05
65 *2041:C *2328:CLK 7.68414e-06
66 *2051:A2 *2328:CLK 0.000562337
67 *2054:B1 *2328:CLK 7.60314e-05
68 *2054:C1 *2328:CLK 4.00541e-06
69 *2093:A1 *2342:CLK 0.000136901
70 *2126:B *469:8 0.000117116
71 *2126:B *469:10 0
72 *2126:B *469:14 0
73 *2221:A2 *2360:CLK 4.00541e-06
74 *2221:A2 *469:115 0.000120655
75 *2223:B *2359:CLK 9.37731e-05
76 *2310:D *2310:CLK 5.20335e-05
77 *2325:D *2325:CLK 0.000166951
78 *2326:D *2326:CLK 0.000112853
79 *2334:D *2334:CLK 1.43717e-05
80 *2337:D *469:93 0.000112503
81 *2342:D *2342:CLK 0.000112859
82 *2359:D *2359:CLK 7.44453e-05
83 *2359:D *2360:CLK 9.80943e-06
84 *2360:D *2360:CLK 0.000131871
85 *2360:D *469:115 0.000457696
86 *2383:A *2328:CLK 4.21757e-05
87 *170:48 *469:76 0
88 *276:12 *469:76 0
89 *276:12 *469:93 0
90 *278:10 *469:93 4.99619e-05
91 *289:35 *2378:A 0.000160635
92 *329:24 *2328:CLK 0.000450605
93 *398:8 *2325:CLK 0.000354725
94 *465:129 *2310:CLK 0
*RES
1 *2370:X *469:4 1.6 
2 *469:4 *469:8 4.865 
3 *469:8 *469:10 3.165 
4 *469:10 *469:14 3.38 
5 *469:14 *2328:CLK 19.42 
6 *469:14 *2325:CLK 6.895 
7 *469:10 *2326:CLK 5.79 
8 *469:8 *469:47 1.38 
9 *469:47 *2378:A 5.085 
10 *469:47 *469:58 4.185 
11 *469:58 *469:60 2 
12 *469:60 *2334:CLK 4.465 
13 *469:60 *2315:CLK 4.465 
14 *469:58 *469:76 4.185 
15 *469:76 *2342:CLK 6.81 
16 *469:76 *469:93 13.745 
17 *469:93 *2310:CLK 16.565 
18 *469:93 *2337:CLK 1.6 
19 *469:4 *469:115 13.92 
20 *469:115 *2359:CLK 8.45 
21 *469:115 *2360:CLK 3.1 
*END

*D_NET *470 0.0159951
*CONN
*I *2379:A I *D sky130_fd_sc_hd__clkinv_2
*I *2345:CLK I *D sky130_fd_sc_hd__dfxtp_1
*I *2270:CLK I *D sky130_fd_sc_hd__dfrtp_1
*I *2305:CLK I *D sky130_fd_sc_hd__dfrtp_1
*I *2306:CLK I *D sky130_fd_sc_hd__dfrtp_1
*I *2271:CLK I *D sky130_fd_sc_hd__dfrtp_1
*I *2314:CLK I *D sky130_fd_sc_hd__dfrtp_1
*I *2363:CLK I *D sky130_fd_sc_hd__dfrtp_1
*I *2304:CLK I *D sky130_fd_sc_hd__dfrtp_1
*I *2339:CLK I *D sky130_fd_sc_hd__dfxtp_1
*I *2312:CLK I *D sky130_fd_sc_hd__dfrtp_1
*I *2269:CLK I *D sky130_fd_sc_hd__dfrtp_1
*I *2371:X O *D sky130_fd_sc_hd__clkbuf_16
*CAP
1 *2379:A 3.55506e-05
2 *2345:CLK 2.00963e-05
3 *2270:CLK 0.000204184
4 *2305:CLK 0
5 *2306:CLK 0.000349372
6 *2271:CLK 0
7 *2314:CLK 6.05382e-05
8 *2363:CLK 0
9 *2304:CLK 0.00101723
10 *2339:CLK 0.00081962
11 *2312:CLK 7.97717e-05
12 *2269:CLK 9.98288e-05
13 *2371:X 0.000160142
14 *470:139 0.000310612
15 *470:115 0.000763598
16 *470:96 0.000811277
17 *470:92 0.000563387
18 *470:39 0.000959127
19 *470:37 0.00141614
20 *470:22 0.000532051
21 *470:18 0.000306049
22 *470:12 0.000461776
23 *470:10 0.000409963
24 *470:6 0.000337415
25 *2269:CLK *697:DIODE 1.16854e-05
26 *2304:CLK *2403:A 1.19928e-05
27 *2306:CLK *2461:A 0.000349592
28 *2312:CLK *2312:D 4.22574e-05
29 *2312:CLK *618:91 2.85764e-05
30 *2339:CLK *1975:A1 3.65279e-05
31 *2339:CLK *1975:B2 0.000604875
32 *2339:CLK *1990:B1 0.00015639
33 *2339:CLK *1990:B2 2.16917e-05
34 *2339:CLK *2312:D 0.000237243
35 *2339:CLK *637:29 1.19928e-05
36 *470:6 *1952:B1_N 1.03323e-05
37 *470:6 *1974:A 6.42013e-05
38 *470:10 *1952:B1_N 2.77283e-05
39 *470:10 *2428:A 4.41506e-05
40 *470:12 *2428:A 4.04613e-05
41 *470:12 *618:30 0
42 *470:18 *1946:B1_N 0.000122687
43 *470:22 *1946:B1_N 8.82858e-05
44 *470:37 *1946:B1_N 7.33706e-05
45 *470:37 *1954:B1_N 8.65037e-05
46 *470:37 *556:48 1.08758e-05
47 *470:92 *618:30 0
48 *470:115 *618:43 7.45881e-05
49 *470:115 *622:14 1.61546e-05
50 *470:139 *618:24 0
51 *470:139 *618:30 0
52 group_error *2306:CLK 4.05569e-05
53 *736:DIODE *2306:CLK 0
54 *2032:B *2306:CLK 2.75145e-05
55 *2269:D *2269:CLK 4.6368e-06
56 *2269:D *470:18 1.05631e-05
57 *2269:D *470:22 4.67481e-05
58 *2270:D *2270:CLK 0.00024195
59 *2270:D *2345:CLK 4.66108e-05
60 *2271:D *470:6 0.000694329
61 *2271:D *470:10 0.000419675
62 *2271:D *470:115 4.91189e-05
63 *2304:RESET_B *2304:CLK 0.00019311
64 *2305:D *2306:CLK 6.69341e-05
65 *2371:A *470:6 0.00014366
66 *2405:A *470:37 3.45117e-05
67 *2405:A *470:39 2.85764e-05
68 *2431:A *470:37 3.04767e-05
69 *273:22 *2304:CLK 0.000201542
70 *273:22 *2339:CLK 0.000840738
71 *273:22 *470:115 0
72 *291:33 *2312:CLK 0
73 *291:33 *470:12 0.000331691
74 *291:33 *470:18 0.000127181
75 *291:33 *470:22 2.82477e-05
76 *291:33 *470:37 0
77 *291:33 *470:39 0
78 *291:33 *470:92 0.000160651
79 *291:33 *470:139 0.000160658
80 *291:63 *2345:CLK 3.64998e-06
81 *292:31 *2339:CLK 4.82919e-05
82 *292:44 *2339:CLK 0.000123607
83 *324:22 *2306:CLK 0
*RES
1 *2371:X *470:6 7.915 
2 *470:6 *470:10 5.9 
3 *470:10 *470:12 4.695 
4 *470:12 *470:18 4.74 
5 *470:18 *470:22 4.4 
6 *470:22 *2269:CLK 3.1 
7 *470:22 *470:37 8.03 
8 *470:37 *470:39 1.125 
9 *470:39 *2312:CLK 5.235 
10 *470:39 *2339:CLK 20.625 
11 *470:37 *2304:CLK 16.26 
12 *470:18 *2363:CLK 3.6 
13 *470:12 *2314:CLK 4.395 
14 *470:10 *470:92 1.89 
15 *470:92 *470:96 7.625 
16 *470:96 *2271:CLK 1.6 
17 *470:96 *470:115 11.44 
18 *470:115 *2306:CLK 12.845 
19 *470:115 *2305:CLK 1.6 
20 *470:92 *470:139 3.89 
21 *470:139 *2270:CLK 5.86 
22 *470:139 *2345:CLK 2.05 
23 *470:6 *2379:A 2.215 
*END

*D_NET *471 0.0157756
*CONN
*I *2273:CLK I *D sky130_fd_sc_hd__dfrtp_1
*I *2351:CLK I *D sky130_fd_sc_hd__dfxtp_1
*I *2352:CLK I *D sky130_fd_sc_hd__dfxtp_1
*I *2349:CLK I *D sky130_fd_sc_hd__dfxtp_1
*I *2350:CLK I *D sky130_fd_sc_hd__dfxtp_1
*I *2277:CLK I *D sky130_fd_sc_hd__dfrtp_1
*I *2272:CLK I *D sky130_fd_sc_hd__dfrtp_1
*I *2344:CLK I *D sky130_fd_sc_hd__dfxtp_1
*I *2343:CLK I *D sky130_fd_sc_hd__dfxtp_1
*I *2303:CLK I *D sky130_fd_sc_hd__dfrtp_1
*I *2301:CLK I *D sky130_fd_sc_hd__dfrtp_1
*I *2346:CLK I *D sky130_fd_sc_hd__dfxtp_1
*I *2274:CLK I *D sky130_fd_sc_hd__dfrtp_1
*I *2348:CLK I *D sky130_fd_sc_hd__dfxtp_1
*I *2372:X O *D sky130_fd_sc_hd__clkbuf_16
*CAP
1 *2273:CLK 0
2 *2351:CLK 7.95201e-05
3 *2352:CLK 0.00014417
4 *2349:CLK 0.000576838
5 *2350:CLK 5.41109e-05
6 *2277:CLK 0
7 *2272:CLK 0
8 *2344:CLK 2.22788e-05
9 *2343:CLK 0
10 *2303:CLK 0
11 *2301:CLK 0.000338307
12 *2346:CLK 0.000317444
13 *2274:CLK 0
14 *2348:CLK 0.000243878
15 *2372:X 4.8602e-05
16 *471:136 0.000721009
17 *471:125 0.000490129
18 *471:123 0.000938375
19 *471:115 0.000876308
20 *471:108 0.000899689
21 *471:63 0.00115032
22 *471:48 0.00123218
23 *471:46 0.000248238
24 *471:42 0.000327855
25 *471:36 0.000684466
26 *471:21 0.0005244
27 *471:19 0.000497556
28 *471:8 0.000343817
29 *2301:CLK *1962:C 0
30 *2301:CLK *1963:A_N 0.000201407
31 *2301:CLK *2402:A 5.05521e-05
32 *2301:CLK *553:10 0.00016163
33 *2301:CLK *618:20 6.88211e-05
34 *2301:CLK *622:14 0.000167535
35 *2346:CLK *479:25 0
36 *2346:CLK *560:76 6.73665e-05
37 *2348:CLK *2194:A1 0.000500245
38 *2349:CLK *2198:B1 7.35729e-05
39 *2349:CLK *491:21 7.02097e-05
40 *2349:CLK *491:30 0.000109998
41 *2349:CLK *604:18 5.05437e-05
42 *2350:CLK *604:12 6.55328e-05
43 *2352:CLK *604:18 4.80285e-05
44 *471:8 *542:12 7.36562e-05
45 *471:19 *542:12 0.000105849
46 *471:36 *2181:A1 0
47 *471:36 *2181:A2 5.21714e-05
48 *471:36 *2183:B1 4.66108e-05
49 *471:36 *2462:A 4.99619e-05
50 *471:42 *2181:A1 7.23533e-05
51 *471:42 *2181:A2 0.000314745
52 *471:46 *2413:A 0
53 *471:46 *560:76 6.24814e-05
54 *471:48 *2413:A 0
55 *471:48 *479:25 0
56 *471:48 *560:76 6.44789e-05
57 *471:63 *1954:B1_N 0.000221115
58 *471:108 *2027:A 0.000158072
59 *471:108 *2027:B 2.75145e-05
60 *471:108 *2231:A 8.65961e-05
61 *471:108 *2462:A 0
62 *471:108 *542:10 1.1561e-05
63 *471:108 *542:12 8.89829e-05
64 *471:123 *603:39 0
65 *471:125 *603:39 0
66 *471:125 *604:12 2.86623e-05
67 *471:125 *604:18 9.05377e-05
68 *471:125 *604:33 0.00012819
69 *1961:A *471:8 0.000138551
70 *1961:A *471:19 0.000178255
71 *1961:A *471:36 0.000124895
72 *2028:C *471:42 0.000290985
73 *2028:C *471:108 4.21973e-05
74 *2183:A2 *471:36 4.99619e-05
75 *2188:A *2346:CLK 8.40213e-05
76 *2202:A2 *471:123 0
77 *2202:A2 *471:125 0
78 *2205:A1 *2352:CLK 4.06489e-05
79 *2205:A1 *471:125 2.39473e-05
80 *2205:A2 *2352:CLK 1.33232e-05
81 *2273:D *2350:CLK 0
82 *2273:D *471:123 0
83 *2273:D *471:125 0
84 *2274:RESET_B *471:108 1.47347e-05
85 *2277:D *471:115 6.97118e-05
86 *2277:RESET_B *471:123 0
87 *2301:RESET_B *2301:CLK 0.000123854
88 *2303:D *2301:CLK 0
89 *2303:D *471:63 7.10578e-05
90 *2303:RESET_B *471:63 0.000112532
91 *2343:D *471:42 0
92 *2343:D *471:46 0
93 *2344:D *2344:CLK 4.82863e-05
94 *2344:D *471:36 2.97473e-05
95 *2348:D *2348:CLK 4.21973e-05
96 *2350:D *2350:CLK 5.72004e-05
97 *2350:D *471:125 1.52862e-05
98 *2352:D *2352:CLK 2.5289e-05
99 *137:12 *2301:CLK 5.21458e-05
100 *432:25 *2346:CLK 4.82919e-05
*RES
1 *2372:X *471:8 5.235 
2 *471:8 *2348:CLK 8.88 
3 *471:8 *471:19 2.145 
4 *471:19 *471:21 2 
5 *471:21 *2274:CLK 1.6 
6 *471:21 *471:36 12.655 
7 *471:36 *471:42 7.01 
8 *471:42 *471:46 2.595 
9 *471:46 *471:48 2.145 
10 *471:48 *2346:CLK 9.045 
11 *471:48 *471:63 15.56 
12 *471:63 *2301:CLK 14.6 
13 *471:63 *2303:CLK 1.6 
14 *471:46 *2343:CLK 3.6 
15 *471:42 *2344:CLK 4.05 
16 *471:36 *2272:CLK 1.6 
17 *471:19 *471:108 10.115 
18 *471:108 *2277:CLK 1.6 
19 *471:108 *471:115 7.005 
20 *471:115 *471:123 9.035 
21 *471:123 *471:125 8.52 
22 *471:125 *2350:CLK 5.235 
23 *471:125 *471:136 2 
24 *471:136 *2349:CLK 10.705 
25 *471:136 *2352:CLK 4.24 
26 *471:123 *2351:CLK 4.74 
27 *471:115 *2273:CLK 1.6 
*END

*D_NET *472 0.0155162
*CONN
*I *2279:CLK I *D sky130_fd_sc_hd__dfrtp_1
*I *2280:CLK I *D sky130_fd_sc_hd__dfrtp_1
*I *2380:A I *D sky130_fd_sc_hd__clkinvlp_4
*I *2338:CLK I *D sky130_fd_sc_hd__dfxtp_1
*I *2316:CLK I *D sky130_fd_sc_hd__dfxtp_1
*I *2333:CLK I *D sky130_fd_sc_hd__dfxtp_1
*I *2335:CLK I *D sky130_fd_sc_hd__dfxtp_1
*I *2340:CLK I *D sky130_fd_sc_hd__dfxtp_1
*I *2336:CLK I *D sky130_fd_sc_hd__dfxtp_1
*I *2341:CLK I *D sky130_fd_sc_hd__dfxtp_1
*I *2373:X O *D sky130_fd_sc_hd__clkbuf_16
*CAP
1 *2279:CLK 9.45709e-05
2 *2280:CLK 0.000138129
3 *2380:A 0
4 *2338:CLK 3.55506e-05
5 *2316:CLK 0.000203814
6 *2333:CLK 5.84138e-05
7 *2335:CLK 0.000184664
8 *2340:CLK 9.5848e-05
9 *2336:CLK 0
10 *2341:CLK 0.000214783
11 *2373:X 0
12 *472:114 0.00115611
13 *472:61 0.000361025
14 *472:59 0.000491593
15 *472:55 0.00135304
16 *472:39 0.000623704
17 *472:14 0.000868765
18 *472:12 0.00131863
19 *472:10 0.000500941
20 *472:4 0.0013795
21 *2280:CLK *620:66 0
22 *2280:CLK *620:84 0
23 *2280:CLK *621:203 0.000298442
24 *2316:CLK *1969:B2 9.37731e-05
25 *2316:CLK *1978:B2 4.82863e-05
26 *2316:CLK *1993:A1 0
27 *2316:CLK *1999:A1 0
28 *2333:CLK *1975:B2 0.0001947
29 *2335:CLK *1969:B2 1.88904e-05
30 *2335:CLK *615:142 0.000183971
31 *2338:CLK *1999:A1 0
32 *2341:CLK *1996:A 5.4003e-05
33 *472:14 *1996:A 0.000109016
34 *472:39 *1932:A 1.08758e-05
35 *472:39 *613:89 0.00107212
36 *472:39 *650:18 0
37 *472:55 *1949:A 2.75229e-05
38 *472:55 *647:8 7.35729e-05
39 *472:59 *1999:A1 0.000185393
40 *472:61 *1969:B2 0.00024728
41 *472:61 *1993:A1 0
42 *472:61 *615:142 6.26028e-05
43 *472:61 *615:226 9.58678e-06
44 *472:61 *615:239 3.96467e-05
45 *472:114 *2003:A1 0.000103606
46 *472:114 *2003:A2 1.33293e-05
47 *472:114 *2004:A 2.75229e-05
48 *472:114 *613:113 7.06865e-05
49 *1950:C *472:55 5.90459e-05
50 *2000:A2 *472:10 0
51 *2004:B *472:114 6.66464e-05
52 *2045:A *472:14 0.000295895
53 *2045:A *472:55 4.60584e-05
54 *2045:B *472:55 3.43427e-05
55 *2172:C1 *472:55 2.75145e-05
56 *2279:D *2279:CLK 2.66586e-05
57 *2279:D *472:114 2.61299e-05
58 *2316:D *2316:CLK 7.89689e-05
59 *2336:D *472:39 7.70553e-06
60 *2338:D *472:55 0.000144913
61 *2341:D *2341:CLK 5.961e-05
62 *271:16 *2341:CLK 0.000196729
63 *271:16 *472:14 9.50342e-06
64 *271:53 *472:39 0.000682383
65 *273:42 *2333:CLK 7.20129e-05
66 *273:42 *472:55 4.92341e-05
67 *284:19 *472:14 0.000133268
68 *285:12 *472:55 0.000223144
69 *286:46 *2341:CLK 8.75591e-05
70 *288:14 *472:55 4.66108e-05
71 *288:25 *472:55 8.49205e-05
72 *295:101 *472:10 0.000316657
73 *295:101 *472:114 0.000316648
74 *316:8 *472:10 0
75 *316:8 *472:12 0
76 *414:10 *2341:CLK 4.41795e-05
77 *414:10 *472:12 3.67779e-05
78 *414:10 *472:14 2.15594e-05
79 *465:171 *2341:CLK 0.000118879
80 *465:171 *472:10 8.6099e-05
81 *465:171 *472:12 4.50017e-05
82 *465:171 *472:14 4.75905e-05
*RES
1 *2373:X *472:4 1.6 
2 *472:4 *472:10 8.825 
3 *472:10 *472:12 1.125 
4 *472:12 *472:14 4.185 
5 *472:14 *2341:CLK 8.955 
6 *472:14 *472:39 14.93 
7 *472:39 *2336:CLK 1.6 
8 *472:39 *2340:CLK 3.085 
9 *472:12 *472:55 16.25 
10 *472:55 *472:59 4.175 
11 *472:59 *472:61 2.91 
12 *472:61 *2335:CLK 7.53 
13 *472:61 *2333:CLK 5.43 
14 *472:59 *2316:CLK 7.725 
15 *472:55 *2338:CLK 2.215 
16 *472:10 *2380:A 3.6 
17 *472:4 *472:114 16.12 
18 *472:114 *2280:CLK 9.02 
19 *472:114 *2279:CLK 3.01 
*END

*D_NET *473 0.0131802
*CONN
*I *2284:CLK I *D sky130_fd_sc_hd__dfrtp_1
*I *2283:CLK I *D sky130_fd_sc_hd__dfrtp_1
*I *2282:CLK I *D sky130_fd_sc_hd__dfrtp_1
*I *2281:CLK I *D sky130_fd_sc_hd__dfrtp_1
*I *2353:CLK I *D sky130_fd_sc_hd__dfxtp_2
*I *2354:CLK I *D sky130_fd_sc_hd__dfxtp_1
*I *2381:A I *D sky130_fd_sc_hd__clkbuf_8
*I *2355:CLK I *D sky130_fd_sc_hd__dfxtp_1
*I *2347:CLK I *D sky130_fd_sc_hd__dfxtp_2
*I *2278:CLK I *D sky130_fd_sc_hd__dfrtp_1
*I *2358:CLK I *D sky130_fd_sc_hd__dfxtp_1
*I *2357:CLK I *D sky130_fd_sc_hd__dfxtp_1
*I *2356:CLK I *D sky130_fd_sc_hd__dfxtp_1
*I *2374:X O *D sky130_fd_sc_hd__clkbuf_16
*CAP
1 *2284:CLK 0
2 *2283:CLK 0.000245893
3 *2282:CLK 3.37454e-05
4 *2281:CLK 0.000398458
5 *2353:CLK 0
6 *2354:CLK 8.39094e-05
7 *2381:A 0
8 *2355:CLK 0
9 *2347:CLK 0
10 *2278:CLK 5.94662e-05
11 *2358:CLK 0
12 *2357:CLK 0.000198627
13 *2356:CLK 2.08101e-05
14 *2374:X 0.000109768
15 *473:123 0.000645986
16 *473:121 0.000459675
17 *473:119 0.000297517
18 *473:59 0.000688209
19 *473:48 0.00109083
20 *473:44 0.000908473
21 *473:38 0.000672482
22 *473:24 0.000951321
23 *473:16 0.000704137
24 *473:14 0.000380289
25 *473:10 0.000546935
26 *2278:CLK *621:10 7.07801e-05
27 *2281:CLK *620:100 0
28 *2281:CLK *620:122 0
29 *2281:CLK *621:203 0.000365327
30 *2283:CLK *2009:A 0
31 *2283:CLK *609:53 0
32 *2283:CLK *620:122 0
33 *2354:CLK *2210:B1 0.000116158
34 *2354:CLK *481:10 0
35 *2354:CLK *481:12 0
36 *2356:CLK *2214:A 0
37 *2357:CLK *1931:A 0.00012657
38 *2357:CLK *2218:B1_N 6.65066e-05
39 *473:10 *2210:B1 0
40 *473:10 *613:135 0
41 *473:14 *480:10 7.69887e-05
42 *473:16 *2070:A 0.000234685
43 *473:16 *480:10 1.90662e-05
44 *473:24 *2070:A 0.000119756
45 *473:24 *2070:C 8.40269e-05
46 *473:24 *2178:B 5.99393e-05
47 *473:24 *2422:A 4.66108e-05
48 *473:24 *480:10 3.03151e-05
49 *473:24 *480:16 6.1357e-05
50 *473:24 *482:23 0.000293492
51 *473:24 *482:30 4.66108e-05
52 *473:38 *2191:B1 1.37895e-05
53 *473:38 *489:8 0.000234674
54 *473:38 *603:16 0.000291104
55 *473:38 *603:31 0.000153279
56 *473:38 *621:36 0
57 *473:44 *489:8 4.35432e-05
58 *473:44 *489:14 0
59 *473:44 *620:188 0
60 *473:44 *621:10 1.71013e-05
61 *473:48 *2214:A 2.50702e-05
62 *473:48 *621:36 6.0011e-05
63 *473:59 *2214:A 6.0892e-05
64 *473:59 *483:6 0.000107704
65 *473:119 *480:10 0.000199295
66 *473:123 *609:53 0
67 *473:123 *620:122 0
68 *473:123 *621:203 0.000109009
69 *2191:A2 *473:44 1.83756e-05
70 *2212:A1 *473:24 4.21666e-05
71 *2214:B *473:48 9.66021e-05
72 *2278:D *2278:CLK 4.7043e-05
73 *2278:D *473:44 0.000146288
74 *2281:D *2281:CLK 7.60965e-05
75 *2281:RESET_B *2281:CLK 3.50445e-06
76 *2282:D *2281:CLK 0.000361361
77 *2283:D *2283:CLK 3.68682e-05
78 *2284:D *2283:CLK 0
79 *2284:D *473:119 0.000201503
80 *2347:D *473:38 6.94875e-05
81 *2353:D *2354:CLK 0
82 *2353:D *473:119 1.43717e-05
83 *2355:D *473:24 5.20335e-05
84 *2356:D *473:59 7.82691e-05
85 *2357:D *2357:CLK 0.00014259
86 *2384:A *2354:CLK 4.18603e-06
87 *291:99 *473:24 3.03684e-05
88 *356:10 *473:16 3.57349e-05
89 *356:10 *473:24 4.66108e-05
90 *436:10 *473:24 3.72916e-05
91 *438:25 *2354:CLK 9.29751e-06
*RES
1 *2374:X *473:10 7.235 
2 *473:10 *473:14 2.535 
3 *473:14 *473:16 2.865 
4 *473:16 *473:24 11.28 
5 *473:24 *473:38 13.57 
6 *473:38 *473:44 7.235 
7 *473:44 *473:48 10.73 
8 *473:48 *2356:CLK 1.96 
9 *473:48 *473:59 7.965 
10 *473:59 *2357:CLK 10.01 
11 *473:59 *2358:CLK 1.6 
12 *473:44 *2278:CLK 5.235 
13 *473:38 *2347:CLK 1.6 
14 *473:24 *2355:CLK 1.6 
15 *473:16 *2381:A 1.6 
16 *473:14 *2354:CLK 7.235 
17 *473:10 *2353:CLK 1.6 
18 *473:10 *473:119 6.315 
19 *473:119 *473:121 2 
20 *473:121 *473:123 3.93 
21 *473:123 *2281:CLK 13.41 
22 *473:123 *2282:CLK 4.05 
23 *473:121 *2283:CLK 7.785 
24 *473:119 *2284:CLK 1.6 
*END

*D_NET *474 0.00101003
*CONN
*I *2425:A I *D sky130_fd_sc_hd__dlygate4sd3_1
*I *2302:Q O *D sky130_fd_sc_hd__dfrtp_1
*CAP
1 *2425:A 0.000407124
2 *2302:Q 0.000407124
3 *2425:A *617:20 2.26739e-05
4 *2425:A *617:31 7.00889e-06
5 *2302:RESET_B *2425:A 8.64421e-05
6 *2311:CLK *2425:A 0
7 *59:21 *2425:A 7.96553e-05
8 *291:33 *2425:A 0
9 *467:108 *2425:A 0
*RES
1 *2302:Q *2425:A 13.59 
*END

*D_NET *475 0.00409737
*CONN
*I *1954:B1_N I *D sky130_fd_sc_hd__o21ba_1
*I *2303:Q O *D sky130_fd_sc_hd__dfrtp_1
*CAP
1 *1954:B1_N 0.00125828
2 *2303:Q 0.00125828
3 *1954:B1_N *1952:B1_N 7.33378e-05
4 *1954:B1_N *1954:A2 4.18603e-06
5 *1954:B1_N *2034:A 0
6 *1954:B1_N *2184:B1 0
7 *1954:B1_N *2186:B1 0.00018559
8 *1954:B1_N *2461:A 0.000201422
9 *1954:B1_N *486:25 0.000252275
10 *1954:B1_N *560:76 0
11 *1954:B1_N *636:23 0
12 *1954:B1_N *638:8 0
13 *2270:D *1954:B1_N 0
14 *2345:D *1954:B1_N 9.30717e-05
15 *2429:A *1954:B1_N 0.000169591
16 *2431:A *1954:B1_N 0.000293726
17 *291:33 *1954:B1_N 0
18 *470:37 *1954:B1_N 8.65037e-05
19 *471:63 *1954:B1_N 0.000221115
*RES
1 *2303:Q *1954:B1_N 32.79 
*END

*D_NET *476 0.000201791
*CONN
*I *2403:A I *D sky130_fd_sc_hd__dlygate4sd3_1
*I *2304:Q O *D sky130_fd_sc_hd__dfrtp_1
*CAP
1 *2403:A 3.38433e-05
2 *2304:Q 3.38433e-05
3 *2304:CLK *2403:A 1.19928e-05
4 *2304:RESET_B *2403:A 5.05437e-05
5 *273:22 *2403:A 7.15674e-05
*RES
1 *2304:Q *2403:A 4.34 
*END

*D_NET *477 0.000490771
*CONN
*I *2428:A I *D sky130_fd_sc_hd__dlygate4sd3_1
*I *2305:Q O *D sky130_fd_sc_hd__dfrtp_1
*CAP
1 *2428:A 0.000181842
2 *2305:Q 0.000181842
3 *2271:D *2428:A 4.24744e-05
4 *470:10 *2428:A 4.41506e-05
5 *470:12 *2428:A 4.04613e-05
*RES
1 *2305:Q *2428:A 10.41 
*END

*D_NET *478 0.000288941
*CONN
*I *2430:A I *D sky130_fd_sc_hd__dlygate4sd3_1
*I *2306:Q O *D sky130_fd_sc_hd__dfrtp_1
*CAP
1 *2430:A 0.000144471
2 *2306:Q 0.000144471
*RES
1 *2306:Q *2430:A 5.375 
*END

*D_NET *479 0.00760927
*CONN
*I *2413:A I *D sky130_fd_sc_hd__dlygate4sd3_1
*I *2173:C I *D sky130_fd_sc_hd__and3_1
*I *2174:D I *D sky130_fd_sc_hd__and4_1
*I *1966:A I *D sky130_fd_sc_hd__and3_1
*I *2184:A2 I *D sky130_fd_sc_hd__a21oi_1
*I *2182:B I *D sky130_fd_sc_hd__xnor2_1
*I *2343:Q O *D sky130_fd_sc_hd__dfxtp_1
*CAP
1 *2413:A 0.000119902
2 *2173:C 0.000116059
3 *2174:D 0
4 *1966:A 0.000410399
5 *2184:A2 0.000298939
6 *2182:B 0.000223528
7 *2343:Q 0.000143458
8 *479:53 0.000136454
9 *479:40 0.000573819
10 *479:25 0.00067821
11 *479:21 0.000894767
12 *479:6 0.000905604
13 *1966:A *1974:A 0
14 *1966:A *2186:A1 6.28843e-05
15 *1966:A *603:70 2.78732e-05
16 *2173:C *2174:A 4.82919e-05
17 *2173:C *2174:C 0.0001249
18 *2173:C *2184:B1 1.10189e-05
19 *2173:C *487:32 6.4199e-05
20 *2182:B *2182:A 0.000116165
21 *2182:B *486:25 0.000164059
22 *2184:A2 *2174:A 2.49909e-05
23 *2184:A2 *2184:B1 6.45599e-06
24 *2184:A2 *2186:B1 0.00013594
25 *2413:A *603:83 4.67396e-05
26 *2413:A *603:96 6.02189e-05
27 *479:25 *2174:A 5.23362e-05
28 *479:25 *486:49 1.71207e-05
29 *479:25 *560:76 0
30 *479:25 *603:70 3.9442e-05
31 *479:25 *603:83 0.000247502
32 *479:40 *2174:A 5.83121e-06
33 *479:40 *488:63 0.000102137
34 *479:40 *603:70 2.79004e-05
35 *479:53 *603:53 8.49205e-05
36 *1973:A2 *1966:A 0.00069432
37 *2185:B *2184:A2 8.23457e-05
38 *2187:B *2184:A2 4.80285e-05
39 *2188:B *479:25 9.71067e-05
40 *2272:D *1966:A 0.000127424
41 *2272:D *479:40 0.000158297
42 *2343:D *2182:B 0
43 *2343:D *479:21 9.00863e-05
44 *2346:CLK *479:25 0
45 *2371:A *1966:A 0
46 *291:63 *2173:C 0.000203628
47 *291:63 *479:53 4.21973e-05
48 *432:12 *479:40 9.37731e-05
49 *465:64 *1966:A 0
50 *471:46 *2413:A 0
51 *471:48 *2413:A 0
52 *471:48 *479:25 0
*RES
1 *2343:Q *479:6 3.085 
2 *479:6 *2182:B 10.55 
3 *479:6 *479:21 7.97 
4 *479:21 *479:25 7.97 
5 *479:25 *2184:A2 6.805 
6 *479:25 *479:40 5.375 
7 *479:40 *1966:A 13.395 
8 *479:40 *479:53 2.795 
9 *479:53 *2174:D 1.6 
10 *479:53 *2173:C 5.47 
11 *479:21 *2413:A 6.255 
*END

*D_NET *480 0.00924652
*CONN
*I *2177:A I *D sky130_fd_sc_hd__nand2_1
*I *2206:A I *D sky130_fd_sc_hd__or2_1
*I *2079:B1 I *D sky130_fd_sc_hd__a41o_1
*I *2075:A1 I *D sky130_fd_sc_hd__a31o_1
*I *2087:A1 I *D sky130_fd_sc_hd__o31a_1
*I *2003:A1 I *D sky130_fd_sc_hd__a22o_1
*I *2178:C I *D sky130_fd_sc_hd__and4_1
*I *2211:A2 I *D sky130_fd_sc_hd__a31oi_1
*I *2353:Q O *D sky130_fd_sc_hd__dfxtp_2
*CAP
1 *2177:A 0
2 *2206:A 0
3 *2079:B1 0
4 *2075:A1 2.08635e-05
5 *2087:A1 0
6 *2003:A1 0.000482331
7 *2178:C 0
8 *2211:A2 0.000269723
9 *2353:Q 0.000948432
10 *480:58 0.000589019
11 *480:54 0.000247555
12 *480:48 0.000220773
13 *480:44 0.000198582
14 *480:38 0.000175273
15 *480:16 0.000397762
16 *480:10 0.00115393
17 *2003:A1 *2003:A2 5.59861e-05
18 *2003:A1 *2005:A1 0
19 *2003:A1 *2005:B2 0
20 *2003:A1 *554:123 0
21 *2003:A1 *613:113 0
22 *2075:A1 *609:29 1.47347e-05
23 *480:10 *2070:A 0.000140689
24 *480:10 *2070:B 4.82919e-05
25 *480:10 *2070:C 3.74161e-05
26 *480:16 *2070:C 4.66108e-05
27 *480:38 *2008:A1 0.000165468
28 *480:38 *2422:A 0.000133535
29 *480:38 *483:23 2.92496e-05
30 *480:38 *489:75 3.23391e-05
31 *480:44 *2008:A1 0.000228515
32 *480:44 *2208:B1 2.8185e-05
33 *480:44 *2422:A 0.00018471
34 *480:44 *489:75 2.23485e-05
35 *480:44 *603:16 0.000160635
36 *480:48 *489:75 0.000181087
37 *480:54 *2072:B 0
38 *480:54 *489:75 2.97561e-05
39 *480:54 *489:79 6.47516e-05
40 *480:54 *609:29 5.28932e-05
41 *480:58 *2005:A1 0
42 *2003:B2 *2003:A1 0.000351647
43 *2075:A2 *480:58 7.21296e-06
44 *2075:A3 *2075:A1 7.3151e-05
45 *2075:A3 *480:54 0.000163199
46 *2080:A1 *480:54 4.99619e-05
47 *2080:B1 *2075:A1 4.66108e-05
48 *2080:B1 *480:54 8.65905e-05
49 *2081:A3 *2003:A1 0
50 *2081:A3 *480:58 0
51 *2087:A2 *480:58 0.000137578
52 *2094:A *2003:A1 2.03645e-06
53 *2177:B *2211:A2 4.82919e-05
54 *2178:D *2211:A2 7.00225e-05
55 *2206:B *480:44 8.49205e-05
56 *2212:A1 *2211:A2 7.00225e-05
57 *2212:A1 *480:16 0.000142051
58 *2212:A2 *2211:A2 7.67415e-06
59 *2212:B1 *2211:A2 2.75229e-05
60 *2213:B *2211:A2 0.000200615
61 *2284:D *480:10 5.05521e-05
62 *316:16 *2003:A1 4.66108e-05
63 *316:28 *2003:A1 2.92496e-05
64 *319:76 *2003:A1 4.21973e-05
65 *360:29 *480:54 0.000124007
66 *434:47 *2211:A2 9.80032e-06
67 *465:191 *480:48 0.000337517
68 *465:191 *480:54 0.000185405
69 *472:114 *2003:A1 0.000103606
70 *473:14 *480:10 7.69887e-05
71 *473:16 *480:10 1.90662e-05
72 *473:24 *480:10 3.03151e-05
73 *473:24 *480:16 6.1357e-05
74 *473:119 *480:10 0.000199295
*RES
1 *2353:Q *480:10 14.245 
2 *480:10 *480:16 4.61 
3 *480:16 *2211:A2 7.68 
4 *480:16 *2178:C 3.6 
5 *480:10 *480:38 4.4 
6 *480:38 *480:44 6.14 
7 *480:44 *480:48 5.93 
8 *480:48 *480:54 6.665 
9 *480:54 *480:58 4.145 
10 *480:58 *2003:A1 13.545 
11 *480:58 *2087:A1 3.6 
12 *480:54 *2075:A1 2.395 
13 *480:48 *2079:B1 3.6 
14 *480:44 *2206:A 1.6 
15 *480:38 *2177:A 3.6 
*END

*D_NET *481 0.00687283
*CONN
*I *2178:B I *D sky130_fd_sc_hd__and4_1
*I *2211:A1 I *D sky130_fd_sc_hd__a31oi_1
*I *2209:A I *D sky130_fd_sc_hd__xor2_1
*I *2071:A I *D sky130_fd_sc_hd__or2_1
*I *2005:A1 I *D sky130_fd_sc_hd__a22o_1
*I *2354:Q O *D sky130_fd_sc_hd__dfxtp_1
*CAP
1 *2178:B 0.00021287
2 *2211:A1 0.000465524
3 *2209:A 7.61956e-06
4 *2071:A 7.95387e-05
5 *2005:A1 0.000410647
6 *2354:Q 0.000296799
7 *481:61 0.000678394
8 *481:52 0.00044641
9 *481:12 0.000862197
10 *481:10 0.0011076
11 *2005:A1 *2005:B2 4.99619e-05
12 *2005:A1 *613:124 1.47347e-05
13 *2005:A1 *613:135 0
14 *2178:B *2422:A 3.57349e-05
15 *2178:B *482:23 8.49205e-05
16 *2178:B *482:30 3.57349e-05
17 *2178:B *489:75 0.000105667
18 *2211:A1 *2213:A 1.37328e-05
19 *2211:A1 *489:75 7.47284e-05
20 *481:12 *613:135 0
21 *2003:A1 *2005:A1 0
22 *2075:A2 *2005:A1 0
23 *2076:A3 *2005:A1 0.000149749
24 *2177:B *2211:A1 2.66586e-05
25 *2207:A *2178:B 0.000113511
26 *2207:A *2211:A1 2.92496e-05
27 *2210:A2 *481:52 0.000133249
28 *2212:A2 *2211:A1 0.000216238
29 *2281:D *2071:A 0.000469632
30 *2282:D *2071:A 0.00019639
31 *2353:D *481:10 2.86623e-05
32 *2353:D *481:12 7.70938e-05
33 *2354:CLK *481:10 0
34 *2354:CLK *481:12 0
35 *2354:D *481:52 0.000144407
36 *2384:A *481:12 0
37 *295:101 *2005:A1 6.12852e-05
38 *357:10 *2005:A1 0
39 *434:47 *2211:A1 4.87772e-05
40 *435:10 *2209:A 1.35948e-05
41 *435:10 *2211:A1 6.16184e-05
42 *435:10 *481:52 3.57349e-05
43 *465:191 *2211:A1 2.42236e-05
44 *473:24 *2178:B 5.99393e-05
45 *480:58 *2005:A1 0
*RES
1 *2354:Q *481:10 7.08 
2 *481:10 *481:12 6.48 
3 *481:12 *2005:A1 10.8 
4 *481:12 *2071:A 7.845 
5 *481:10 *481:52 10.175 
6 *481:52 *2209:A 1.73125 
7 *481:52 *481:61 2 
8 *481:61 *2211:A1 10.365 
9 *481:61 *2178:B 7.155 
*END

*D_NET *482 0.00210415
*CONN
*I *2422:A I *D sky130_fd_sc_hd__dlygate4sd3_1
*I *2070:D I *D sky130_fd_sc_hd__or4_1
*I *2178:A I *D sky130_fd_sc_hd__and4_1
*I *2211:B1 I *D sky130_fd_sc_hd__a31oi_1
*I *2355:Q O *D sky130_fd_sc_hd__dfxtp_1
*CAP
1 *2422:A 0.00012163
2 *2070:D 0
3 *2178:A 0
4 *2211:B1 0.000109805
5 *2355:Q 0
6 *482:30 0.00013369
7 *482:23 0.000178417
8 *482:4 0.000276161
9 *2211:B1 *605:25 0
10 *2422:A *489:75 0.000306387
11 *2178:B *2422:A 3.57349e-05
12 *2178:B *482:23 8.49205e-05
13 *2178:B *482:30 3.57349e-05
14 *2178:D *2211:B1 0
15 *2212:B1 *2211:B1 1.81461e-05
16 *2213:B *2211:B1 4.82863e-05
17 *434:47 *2211:B1 5.0279e-05
18 *473:24 *2422:A 4.66108e-05
19 *473:24 *482:23 0.000293492
20 *473:24 *482:30 4.66108e-05
21 *480:38 *2422:A 0.000133535
22 *480:44 *2422:A 0.00018471
*RES
1 *2355:Q *482:4 1.6 
2 *482:4 *2211:B1 7.43 
3 *482:4 *482:23 3.33 
4 *482:23 *2178:A 1.6 
5 *482:23 *482:30 0.45 
6 *482:30 *2070:D 1.6 
7 *482:30 *2422:A 9.725 
*END

*D_NET *483 0.00621607
*CONN
*I *2179:B I *D sky130_fd_sc_hd__and3_1
*I *2216:A1 I *D sky130_fd_sc_hd__a21oi_1
*I *2070:C I *D sky130_fd_sc_hd__or4_1
*I *2008:A1 I *D sky130_fd_sc_hd__o221a_1
*I *2214:A I *D sky130_fd_sc_hd__xnor2_1
*I *2356:Q O *D sky130_fd_sc_hd__dfxtp_1
*CAP
1 *2179:B 0.000184296
2 *2216:A1 5.74715e-05
3 *2070:C 2.01864e-05
4 *2008:A1 0.000471234
5 *2214:A 0.00040991
6 *2356:Q 0.000210994
7 *483:23 0.000843472
8 *483:21 0.00049951
9 *483:19 0.0003333
10 *483:6 0.00067992
11 *2008:A1 *2007:A1 0.000107253
12 *2008:A1 *2079:A1 2.8185e-05
13 *2008:A1 *489:75 0.000112373
14 *2216:A1 *605:49 8.65961e-05
15 *483:23 *489:75 0.00023057
16 *2007:A2 *2008:A1 0.000241483
17 *2007:B2 *2008:A1 1.85343e-05
18 *2008:B2 *2008:A1 5.17271e-06
19 *2079:A4 *2008:A1 2.0514e-05
20 *2179:C *2179:B 4.85494e-05
21 *2206:B *2008:A1 0
22 *2212:A1 *2008:A1 9.26665e-05
23 *2212:A1 *483:23 2.23407e-05
24 *2214:B *2214:A 9.27326e-05
25 *2214:B *483:21 0
26 *2215:A1 *483:23 0
27 *2217:B1 *2179:B 0.00012657
28 *2281:D *2008:A1 4.99619e-05
29 *2282:D *2008:A1 0.000387891
30 *2356:CLK *2214:A 0
31 *2356:D *2214:A 3.10498e-05
32 *2356:D *483:19 0
33 *2356:D *483:21 0
34 *434:60 *2008:A1 0
35 *436:10 *483:23 0
36 *436:14 *2179:B 1.83847e-05
37 *473:24 *2070:C 8.40269e-05
38 *473:48 *2214:A 2.50702e-05
39 *473:59 *2214:A 6.0892e-05
40 *473:59 *483:6 0.000107704
41 *480:10 *2070:C 3.74161e-05
42 *480:16 *2070:C 4.66108e-05
43 *480:38 *2008:A1 0.000165468
44 *480:38 *483:23 2.92496e-05
45 *480:44 *2008:A1 0.000228515
*RES
1 *2356:Q *483:6 4.465 
2 *483:6 *2214:A 7.06 
3 *483:6 *483:19 2.87 
4 *483:19 *483:21 1.38 
5 *483:21 *483:23 7.5 
6 *483:23 *2008:A1 16.6425 
7 *483:23 *2070:C 4.395 
8 *483:21 *2216:A1 4.395 
9 *483:19 *2179:B 6.12 
*END

*D_NET *484 0.00381892
*CONN
*I *2410:A I *D sky130_fd_sc_hd__dlygate4sd3_1
*I *2179:A I *D sky130_fd_sc_hd__and3_1
*I *2070:B I *D sky130_fd_sc_hd__or4_1
*I *2357:Q O *D sky130_fd_sc_hd__dfxtp_1
*CAP
1 *2410:A 0.000141073
2 *2179:A 9.06165e-05
3 *2070:B 0.000241937
4 *2357:Q 7.61767e-05
5 *484:14 0.000831627
6 *484:10 0.000716323
7 *2070:B *489:75 0.000176722
8 *2179:A *2210:B1 0
9 *2179:A *2216:B1 9.30787e-05
10 *2179:A *489:75 3.13459e-05
11 *2410:A *522:6 3.64998e-06
12 *484:10 *2009:A 7.5416e-05
13 *484:10 *2426:A 3.4222e-05
14 *484:14 *2216:B1 2.17931e-05
15 *484:14 *2426:A 0.000111285
16 *484:14 *485:14 0.000108761
17 *484:14 *522:6 1.19928e-05
18 *2207:A *2070:B 0.00015829
19 *2215:A1 *484:14 0.000276441
20 *2218:A2 *484:14 0.000383041
21 *437:18 *484:14 4.99619e-05
22 *438:23 *2070:B 0
23 *465:191 *2070:B 0.000136877
24 *480:10 *2070:B 4.82919e-05
*RES
1 *2357:Q *484:10 7.235 
2 *484:10 *484:14 12.8 
3 *484:14 *2070:B 9.51 
4 *484:14 *2179:A 5.49 
5 *484:10 *2410:A 3.775 
*END

*D_NET *485 0.00558038
*CONN
*I *2411:A I *D sky130_fd_sc_hd__dlygate4sd3_1
*I *2426:A I *D sky130_fd_sc_hd__dlygate4sd3_1
*I *2180:A I *D sky130_fd_sc_hd__nand2_2
*I *2070:A I *D sky130_fd_sc_hd__or4_1
*I *2358:Q O *D sky130_fd_sc_hd__dfxtp_1
*CAP
1 *2411:A 0.000211401
2 *2426:A 0.00031498
3 *2180:A 0
4 *2070:A 0.000231847
5 *2358:Q 0
6 *485:14 0.000352476
7 *485:10 0.000540329
8 *485:4 0.000316121
9 *2070:A *2210:B1 0.000565974
10 *2426:A *1931:A 0
11 *2426:A *2009:A 2.92496e-05
12 *2426:A *2010:A 9.25488e-05
13 *2426:A *2216:B1 0.000197269
14 *2426:A *2218:A1 1.70935e-05
15 *2426:A *537:6 3.00381e-05
16 *485:10 *1931:A 0.000141606
17 *485:10 *2010:A 6.28765e-05
18 *485:14 *2216:B1 0.000615152
19 *2218:A2 *485:10 0.000106402
20 *2218:A2 *485:14 0.000393024
21 *437:18 *485:14 4.82919e-05
22 *438:23 *2070:A 0.000564301
23 *473:16 *2070:A 0.000234685
24 *473:24 *2070:A 0.000119756
25 *480:10 *2070:A 0.000140689
26 *484:10 *2426:A 3.4222e-05
27 *484:14 *2426:A 0.000111285
28 *484:14 *485:14 0.000108761
*RES
1 *2358:Q *485:4 1.6 
2 *485:4 *485:10 7.165 
3 *485:10 *485:14 5.985 
4 *485:14 *2070:A 15.29 
5 *485:14 *2180:A 1.6 
6 *485:10 *2426:A 12.53 
7 *485:4 *2411:A 4.735 
*END

*D_NET *486 0.00552477
*CONN
*I *2174:C I *D sky130_fd_sc_hd__and4_1
*I *1971:A I *D sky130_fd_sc_hd__and3_1
*I *2173:B I *D sky130_fd_sc_hd__and3_1
*I *2184:A1 I *D sky130_fd_sc_hd__a21oi_1
*I *2182:A I *D sky130_fd_sc_hd__xnor2_1
*I *2344:Q O *D sky130_fd_sc_hd__dfxtp_1
*CAP
1 *2174:C 3.50271e-05
2 *1971:A 0.00043031
3 *2173:B 7.92558e-05
4 *2184:A1 0
5 *2182:A 6.08504e-05
6 *2344:Q 0.000226463
7 *486:49 0.000671403
8 *486:32 0.00044127
9 *486:25 0.000647911
10 *486:8 0.000779275
11 *1971:A *1971:C 5.49479e-05
12 *1971:A *1973:B1 0.000200759
13 *1971:A *1974:A 3.67779e-05
14 *1971:A *2186:A1 9.2741e-05
15 *1971:A *603:70 0
16 *2173:B *560:76 4.19797e-05
17 *2174:C *487:32 4.80285e-05
18 *486:8 *560:76 3.00869e-05
19 *486:25 *2186:B1 0.00012657
20 *486:25 *560:76 0
21 *486:32 *2186:B1 0.000225586
22 *486:49 *2174:A 0.000158297
23 *486:49 *2186:B1 0.000150653
24 *1954:B1_N *486:25 0.000252275
25 *2173:C *2174:C 0.0001249
26 *2182:B *2182:A 0.000116165
27 *2182:B *486:25 0.000164059
28 *2183:A2 *2182:A 0
29 *2183:A2 *486:25 1.43521e-05
30 *2185:A *1971:A 6.28765e-05
31 *2185:A *2173:B 5.53249e-06
32 *2185:A *486:49 3.50033e-05
33 *2185:B *2173:B 3.67779e-05
34 *2187:B *2173:B 7.26629e-05
35 *2187:B *486:49 7.63204e-05
36 *2188:B *486:49 8.53113e-06
37 *2343:D *2182:A 0
38 *2343:D *486:25 0
39 *479:25 *486:49 1.71207e-05
*RES
1 *2344:Q *486:8 6.12 
2 *486:8 *2182:A 4.98 
3 *486:8 *486:25 11.855 
4 *486:25 *2184:A1 1.6 
5 *486:25 *486:32 2.175 
6 *486:32 *2173:B 7.745 
7 *486:32 *486:49 6.395 
8 *486:49 *1971:A 9.93 
9 *486:49 *2174:C 4.74 
*END

*D_NET *487 0.00310827
*CONN
*I *2174:B I *D sky130_fd_sc_hd__and4_1
*I *1974:A I *D sky130_fd_sc_hd__and3_1
*I *2184:B1 I *D sky130_fd_sc_hd__a21oi_1
*I *2173:A I *D sky130_fd_sc_hd__and3_1
*I *2345:Q O *D sky130_fd_sc_hd__dfxtp_1
*CAP
1 *2174:B 0
2 *1974:A 0.000596065
3 *2184:B1 0.00016286
4 *2173:A 0
5 *2345:Q 3.49704e-05
6 *487:32 0.000818743
7 *487:8 0.00018367
8 *487:6 0.000278458
9 *1974:A *1974:B 2.31329e-05
10 *1974:A *1974:C 0.000299513
11 *1974:A *1976:B1 4.82919e-05
12 *1974:A *2186:A1 6.10014e-05
13 *1974:A *560:76 0
14 *2184:B1 *2186:B1 1.20411e-05
15 *2184:B1 *560:76 0.000202095
16 *1954:B1_N *2184:B1 0
17 *1966:A *1974:A 0
18 *1971:A *1974:A 3.67779e-05
19 *1976:A1 *1974:A 3.00381e-05
20 *2173:C *2184:B1 1.10189e-05
21 *2173:C *487:32 6.4199e-05
22 *2174:C *487:32 4.80285e-05
23 *2184:A2 *2184:B1 6.45599e-06
24 *2185:B *1974:A 0
25 *2270:D *2184:B1 5.83121e-06
26 *2271:D *1974:A 6.61995e-05
27 *2371:A *1974:A 8.53113e-06
28 *291:63 *2184:B1 2.76356e-05
29 *291:63 *487:32 1.85101e-05
30 *470:6 *1974:A 6.42013e-05
*RES
1 *2345:Q *487:6 2.05 
2 *487:6 *487:8 0.36 
3 *487:8 *2173:A 1.6 
4 *487:8 *2184:B1 9.27125 
5 *487:6 *487:32 2.865 
6 *487:32 *1974:A 16.535 
7 *487:32 *2174:B 1.6 
*END

*D_NET *488 0.0122958
*CONN
*I *2187:A I *D sky130_fd_sc_hd__nor2_1
*I *2174:A I *D sky130_fd_sc_hd__and4_1
*I *2086:A2 I *D sky130_fd_sc_hd__o211a_1
*I *2079:A3 I *D sky130_fd_sc_hd__a41o_1
*I *1977:A I *D sky130_fd_sc_hd__and3_1
*I *2346:Q O *D sky130_fd_sc_hd__dfxtp_1
*CAP
1 *2187:A 0
2 *2174:A 8.94901e-05
3 *2086:A2 0
4 *2079:A3 0.000119706
5 *1977:A 0
6 *2346:Q 0.000115588
7 *488:63 0.000333238
8 *488:37 0.00198978
9 *488:16 0.00243816
10 *488:10 0.000927424
11 *2079:A3 *2072:B 9.50342e-06
12 *2079:A3 *2079:A1 4.82919e-05
13 *2079:A3 *489:79 3.69334e-05
14 *2174:A *2186:B1 4.66108e-05
15 *2174:A *603:70 3.90266e-05
16 *488:16 *1971:C 0
17 *488:16 *1973:B1 0
18 *488:16 *542:22 1.4399e-05
19 *488:16 *542:24 2.65814e-06
20 *488:16 *608:10 0
21 *488:37 *1943:A 4.82919e-05
22 *488:37 *1967:A 6.71882e-05
23 *488:37 *1968:A 1.12578e-05
24 *488:37 *1968:B 5.68717e-05
25 *488:37 *2073:B 8.65961e-05
26 *488:37 *542:22 5.57027e-05
27 *488:37 *542:82 2.56106e-05
28 *488:37 *560:10 1.12578e-05
29 *488:63 *2186:B1 7.77011e-05
30 *488:63 *2189:A1 8.88081e-05
31 *488:63 *604:35 0.000255291
32 *488:63 *604:44 9.80032e-06
33 *1961:A *488:10 0.000137578
34 *1961:A *488:16 0.0010136
35 *1976:A2 *488:16 0
36 *1979:A1 *488:37 0
37 *1982:B1 *488:37 0.000313852
38 *2007:B1 *488:37 0.000465398
39 *2079:A4 *2079:A3 2.97438e-05
40 *2173:C *2174:A 4.82919e-05
41 *2184:A2 *2174:A 2.49909e-05
42 *2389:A *488:16 0
43 *280:6 *488:37 0.000163199
44 *280:25 *488:37 0.000300412
45 *281:14 *488:37 1.47256e-05
46 *291:63 *2174:A 4.66108e-05
47 *291:99 *488:16 0
48 *291:99 *488:63 0.000140145
49 *296:6 *488:37 8.37704e-05
50 *296:15 *488:37 0.000365761
51 *296:40 *488:37 0.000300412
52 *360:16 *488:37 0.00144109
53 *360:29 *488:37 5.74368e-05
54 *432:25 *488:10 2.49909e-05
55 *479:25 *2174:A 5.23362e-05
56 *479:40 *2174:A 5.83121e-06
57 *479:40 *488:63 0.000102137
58 *486:49 *2174:A 0.000158297
*RES
1 *2346:Q *488:10 5.685 
2 *488:10 *488:16 14.285 
3 *488:16 *1977:A 1.6 
4 *488:16 *488:37 35.055 
5 *488:37 *2079:A3 7.43 
6 *488:37 *2086:A2 1.6 
7 *488:10 *488:63 8.78 
8 *488:63 *2174:A 8.39 
9 *488:63 *2187:A 1.6 
*END

*D_NET *489 0.0148024
*CONN
*I *2079:A2 I *D sky130_fd_sc_hd__a41o_1
*I *2086:A1 I *D sky130_fd_sc_hd__o211a_1
*I *2072:B I *D sky130_fd_sc_hd__or2_1
*I *2190:A I *D sky130_fd_sc_hd__xnor2_1
*I *2176:B I *D sky130_fd_sc_hd__and4_1
*I *2175:B I *D sky130_fd_sc_hd__and3_1
*I *1980:A I *D sky130_fd_sc_hd__or2_1
*I *2192:A1 I *D sky130_fd_sc_hd__a21oi_1
*I *2347:Q O *D sky130_fd_sc_hd__dfxtp_2
*CAP
1 *2079:A2 0
2 *2086:A1 0
3 *2072:B 0.000195125
4 *2190:A 0
5 *2176:B 0.000349966
6 *2175:B 0.000199489
7 *1980:A 0.000427492
8 *2192:A1 0.000114142
9 *2347:Q 0
10 *489:79 0.000314775
11 *489:75 0.00117008
12 *489:25 0.000626981
13 *489:16 0.000879457
14 *489:14 0.00122448
15 *489:8 0.000776208
16 *489:4 0.00171744
17 *1980:A *1987:B2 0.000311382
18 *1980:A *1990:B2 0
19 *1980:A *2197:B 0.000191202
20 *1980:A *491:32 0.000420354
21 *1980:A *603:39 0
22 *2072:B *2072:A 4.82863e-05
23 *2175:B *1983:A 5.30673e-05
24 *2175:B *490:16 2.75145e-05
25 *2175:B *490:55 5.90065e-05
26 *2176:B *490:55 0.000475789
27 *489:14 *493:12 5.42646e-05
28 *489:14 *560:100 0
29 *489:75 *2007:A1 0
30 *489:75 *2216:B1 8.53113e-06
31 *1994:B1 *1980:A 0.00011852
32 *1995:A *1980:A 3.23391e-05
33 *2008:A1 *489:75 0.000112373
34 *2070:B *489:75 0.000176722
35 *2079:A3 *2072:B 9.50342e-06
36 *2079:A3 *489:79 3.69334e-05
37 *2079:A4 *489:75 0
38 *2087:A3 *2072:B 3.89528e-05
39 *2176:D *2176:B 0
40 *2176:D *489:14 2.92496e-05
41 *2178:B *489:75 0.000105667
42 *2179:A *489:75 3.13459e-05
43 *2190:B *489:14 0.00019996
44 *2191:A2 *489:8 5.062e-06
45 *2192:A2 *2175:B 9.53428e-06
46 *2193:B *2175:B 2.75229e-05
47 *2201:B *1980:A 0.000268278
48 *2201:B *2175:B 8.80477e-05
49 *2203:A2 *1980:A 0.000358944
50 *2207:A *489:75 0.000247272
51 *2211:A1 *489:75 7.47284e-05
52 *2215:A1 *489:75 0.000228401
53 *2277:D *1980:A 0.000103067
54 *2278:D *489:14 0
55 *2422:A *489:75 0.000306387
56 *291:99 *1980:A 3.23391e-05
57 *432:36 *2175:B 6.18016e-05
58 *432:36 *2192:A1 4.82863e-05
59 *432:47 *2175:B 0.000104535
60 *432:47 *2176:B 4.66108e-05
61 *432:47 *2192:A1 0.00010978
62 *432:47 *489:16 0.00118035
63 *448:8 *1980:A 7.23602e-05
64 *465:191 *2072:B 0
65 *465:191 *489:75 5.34443e-05
66 *473:38 *489:8 0.000234674
67 *473:44 *489:8 4.35432e-05
68 *473:44 *489:14 0
69 *480:38 *489:75 3.23391e-05
70 *480:44 *489:75 2.23485e-05
71 *480:48 *489:75 0.000181087
72 *480:54 *2072:B 0
73 *480:54 *489:75 2.97561e-05
74 *480:54 *489:79 6.47516e-05
75 *483:23 *489:75 0.00023057
*RES
1 *2347:Q *489:4 1.6 
2 *489:4 *489:8 7.965 
3 *489:8 *489:14 6.91 
4 *489:14 *489:16 10.8 
5 *489:16 *2192:A1 3.085 
6 *489:16 *489:25 2 
7 *489:25 *1980:A 17.22 
8 *489:25 *2175:B 8.505 
9 *489:14 *2176:B 12.38 
10 *489:8 *2190:A 1.6 
11 *489:4 *489:75 23.975 
12 *489:75 *489:79 2.175 
13 *489:79 *2072:B 6.705 
14 *489:79 *2086:A1 3.6 
15 *489:75 *2079:A2 3.6 
*END

*D_NET *490 0.0125022
*CONN
*I *2176:A I *D sky130_fd_sc_hd__and4_1
*I *2079:A1 I *D sky130_fd_sc_hd__a41o_1
*I *2086:C1 I *D sky130_fd_sc_hd__o211a_1
*I *2072:A I *D sky130_fd_sc_hd__or2_1
*I *2192:B1 I *D sky130_fd_sc_hd__a21oi_1
*I *2175:A I *D sky130_fd_sc_hd__and3_1
*I *1983:A I *D sky130_fd_sc_hd__and3_1
*I *2348:Q O *D sky130_fd_sc_hd__dfxtp_1
*CAP
1 *2176:A 2.89988e-05
2 *2079:A1 0.000171804
3 *2086:C1 9.71884e-06
4 *2072:A 0.000295643
5 *2192:B1 0
6 *2175:A 0
7 *1983:A 0.000623992
8 *2348:Q 0.000479701
9 *490:67 0.000394054
10 *490:65 0.00132624
11 *490:55 0.00222887
12 *490:16 0.000633106
13 *490:14 4.77658e-05
14 *490:10 0.00165247
15 *1983:A *1990:B2 0
16 *1983:A *2196:B1 0.000226834
17 *1983:A *541:12 0
18 *1983:A *542:82 0
19 *1983:A *614:10 0
20 *2086:C1 *609:29 4.82919e-05
21 *490:55 *2191:A1 2.65814e-06
22 *490:55 *2201:A 0.000184858
23 *490:55 *493:12 0.000201502
24 *490:65 *2007:A1 0.00013687
25 *711:DIODE *490:65 5.35969e-06
26 *2007:B1 *2072:A 0
27 *2007:B1 *490:65 0
28 *2007:B1 *490:67 0
29 *2008:A1 *2079:A1 2.8185e-05
30 *2072:B *2072:A 4.82863e-05
31 *2079:A3 *2079:A1 4.82919e-05
32 *2079:A4 *2079:A1 8.65961e-05
33 *2079:A4 *490:65 1.15688e-05
34 *2079:A4 *490:67 7.90993e-05
35 *2175:B *1983:A 5.30673e-05
36 *2175:B *490:16 2.75145e-05
37 *2175:B *490:55 5.90065e-05
38 *2176:B *490:55 0.000475789
39 *2176:C *490:55 0
40 *2176:C *490:65 0
41 *2190:B *490:55 0
42 *2191:A2 *490:55 5.39961e-05
43 *2193:A *490:10 0
44 *2193:B *490:10 0.000139245
45 *2193:B *490:55 8.53113e-06
46 *2194:A2 *490:10 0
47 *2198:A2 *1983:A 6.28843e-05
48 *2201:B *490:55 0.000395699
49 *2204:A_N *490:55 0
50 *2277:D *490:10 4.28396e-05
51 *2277:D *490:14 2.09942e-05
52 *2277:D *490:55 4.1977e-05
53 *2278:D *490:55 0.000604756
54 *2278:D *490:65 0.000384392
55 *2281:D *2079:A1 8.82557e-05
56 *2349:D *1983:A 8.15754e-05
57 *360:16 *2086:C1 4.82919e-05
58 *430:10 *490:65 0.000132713
59 *432:25 *1983:A 0.00015141
60 *432:36 *1983:A 9.49276e-05
61 *432:36 *490:16 3.83041e-05
62 *432:47 *490:55 6.76188e-05
63 *433:8 *1983:A 0.000202654
64 *434:25 *2176:A 4.66108e-05
65 *465:81 *1983:A 0.000178416
66 *465:81 *490:10 0
67 *465:81 *490:14 0
*RES
1 *2348:Q *490:10 10.4475 
2 *490:10 *490:14 2.7425 
3 *490:14 *490:16 0.45 
4 *490:16 *1983:A 20.12 
5 *490:16 *2175:A 1.6 
6 *490:14 *2192:B1 1.6 
7 *490:10 *490:55 26.9875 
8 *490:55 *490:65 19.405 
9 *490:65 *490:67 1.635 
10 *490:67 *2072:A 8.175 
11 *490:67 *2086:C1 4.05 
12 *490:65 *2079:A1 6.825 
13 *490:55 *2176:A 4.05 
*END

*D_NET *491 0.00904231
*CONN
*I *2197:B I *D sky130_fd_sc_hd__and3_1
*I *2074:D I *D sky130_fd_sc_hd__and4_1
*I *1987:B2 I *D sky130_fd_sc_hd__a22o_1
*I *2198:A1 I *D sky130_fd_sc_hd__a21oi_1
*I *2195:A I *D sky130_fd_sc_hd__xnor2_1
*I *2349:Q O *D sky130_fd_sc_hd__dfxtp_1
*CAP
1 *2197:B 0.000110043
2 *2074:D 0.000460466
3 *1987:B2 0.00112019
4 *2198:A1 0
5 *2195:A 4.99322e-05
6 *2349:Q 0.000226131
7 *491:32 0.0017855
8 *491:30 0.00050957
9 *491:21 0.000578022
10 *491:6 0.000659401
11 *1987:B2 *677:DIODE 1.52945e-05
12 *1987:B2 *1972:B2 2.0514e-05
13 *1987:B2 *1975:B2 0.000573644
14 *1987:B2 *1990:B2 0
15 *1987:B2 *1993:A1 0
16 *1987:B2 *2420:A 6.28843e-05
17 *1987:B2 *613:27 9.20116e-05
18 *1987:B2 *613:34 8.8266e-05
19 *1987:B2 *613:47 0.000313852
20 *2074:D *492:25 0.000362633
21 *2074:D *494:16 8.23457e-05
22 *2195:A *541:12 0.000113797
23 *2197:B *603:39 0
24 *491:6 *1971:B 5.85254e-05
25 *491:30 *2198:B1 0.000124895
26 *1980:A *1987:B2 0.000311382
27 *1980:A *2197:B 0.000191202
28 *1980:A *491:32 0.000420354
29 *1982:B1 *1987:B2 0
30 *2145:A2 *1987:B2 0
31 *2199:B *491:30 0.000129485
32 *2274:D *2195:A 0.000116165
33 *2333:D *1987:B2 0
34 *2349:CLK *491:21 7.02097e-05
35 *2349:CLK *491:30 0.000109998
36 *2349:D *491:21 4.55374e-05
37 *2350:D *2197:B 0
38 *2350:D *491:32 0
39 *280:51 *1987:B2 0
40 *291:99 *2197:B 9.50342e-06
41 *334:68 *1987:B2 0.000230551
*RES
1 *2349:Q *491:6 4.12 
2 *491:6 *2195:A 6.98 
3 *491:6 *491:21 4.605 
4 *491:21 *2198:A1 1.6 
5 *491:21 *491:30 5.9 
6 *491:30 *491:32 4.95 
7 *491:32 *1987:B2 25.935 
8 *491:32 *2074:D 12.12 
9 *491:30 *2197:B 6 
*END

*D_NET *492 0.00783686
*CONN
*I *2197:A I *D sky130_fd_sc_hd__and3_1
*I *2198:B1 I *D sky130_fd_sc_hd__a21oi_1
*I *2074:C I *D sky130_fd_sc_hd__and4_1
*I *2073:C I *D sky130_fd_sc_hd__and3_1
*I *1990:B2 I *D sky130_fd_sc_hd__a22o_1
*I *2350:Q O *D sky130_fd_sc_hd__dfxtp_1
*CAP
1 *2197:A 0.000223834
2 *2198:B1 2.24916e-05
3 *2074:C 0
4 *2073:C 0.000227971
5 *1990:B2 0.000830847
6 *2350:Q 0
7 *492:45 0.000367657
8 *492:25 0.000811464
9 *492:8 0.00146523
10 *492:6 0.000172217
11 *1990:B2 *677:DIODE 3.23391e-05
12 *1990:B2 *1975:B2 0.000192125
13 *1990:B2 *1981:A1 0.00022448
14 *1990:B2 *1981:B1 5.7344e-05
15 *1990:B2 *555:10 0.000270796
16 *1990:B2 *556:8 1.52184e-05
17 *1990:B2 *556:16 8.49205e-05
18 *1990:B2 *556:48 0.000166003
19 *1990:B2 *614:10 5.02217e-05
20 *1990:B2 *615:245 8.25609e-05
21 *2073:C *2073:A 4.82863e-05
22 *2073:C *2073:B 0.000130106
23 *2073:C *494:16 5.16418e-05
24 *2073:C *560:10 5.49535e-05
25 *2073:C *560:100 9.34411e-05
26 *2073:C *620:18 0.000132128
27 *2197:A *2200:A1 6.75014e-05
28 *2197:A *603:47 0.000302494
29 *492:25 *2074:B 8.23457e-05
30 *1980:A *1990:B2 0
31 *1983:A *1990:B2 0
32 *1987:B2 *1990:B2 0
33 *1994:B1 *1990:B2 0
34 *1995:A *1990:B2 2.25161e-05
35 *2074:D *492:25 0.000362633
36 *2197:C *2197:A 1.34594e-05
37 *2199:A *2197:A 4.21973e-05
38 *2199:B *2197:A 9.30787e-05
39 *2200:A2 *2197:A 0.000283742
40 *2277:D *1990:B2 9.24049e-05
41 *2277:D *2197:A 9.86611e-05
42 *2277:D *492:8 5.21046e-05
43 *2277:D *492:45 0.000143501
44 *2339:CLK *1990:B2 2.16917e-05
45 *2339:D *1990:B2 9.20132e-05
46 *2349:CLK *2198:B1 7.35729e-05
47 *280:25 *1990:B2 4.9968e-05
48 *296:40 *2073:C 9.80943e-06
49 *465:81 *1990:B2 0
50 *465:81 *2197:A 0
51 *465:81 *492:8 0
52 *465:81 *492:45 0
53 *491:30 *2198:B1 0.000124895
*RES
1 *2350:Q *492:6 3.6 
2 *492:6 *492:8 1.125 
3 *492:8 *1990:B2 22.17 
4 *492:8 *492:25 11.78 
5 *492:25 *2073:C 10.475 
6 *492:25 *2074:C 1.6 
7 *492:6 *492:45 2.91 
8 *492:45 *2198:B1 4.74 
9 *492:45 *2197:A 10.71 
*END

*D_NET *493 0.00625504
*CONN
*I *2203:A1 I *D sky130_fd_sc_hd__a21o_1
*I *2074:B I *D sky130_fd_sc_hd__and4_1
*I *2073:B I *D sky130_fd_sc_hd__and3_1
*I *1992:A1 I *D sky130_fd_sc_hd__a21o_1
*I *2201:A I *D sky130_fd_sc_hd__xnor2_1
*I *2351:Q O *D sky130_fd_sc_hd__dfxtp_1
*CAP
1 *2203:A1 0
2 *2074:B 6.52939e-05
3 *2073:B 0.000226127
4 *1992:A1 0.000113263
5 *2201:A 5.6605e-05
6 *2351:Q 0.00015391
7 *493:33 0.000515904
8 *493:25 0.00030058
9 *493:23 0.00040705
10 *493:12 0.000558794
11 *1992:A1 *1999:A1 5.83121e-06
12 *1992:A1 *1999:B1 0.000543676
13 *1992:A1 *560:24 3.09088e-05
14 *1992:A1 *614:103 3.26889e-05
15 *2073:B *1999:A1 7.21619e-05
16 *2073:B *1999:B1 0.000192125
17 *2073:B *560:10 0.000121148
18 *2073:B *560:100 3.14383e-05
19 *2073:B *620:18 5.54336e-05
20 *493:12 *560:100 0
21 *493:23 *620:18 0.000710022
22 *493:25 *620:18 0.00011852
23 *493:33 *494:20 0.00013521
24 *493:33 *620:18 6.47228e-05
25 *1999:B2 *2073:B 4.82863e-05
26 *2073:C *2073:B 0.000130106
27 *2205:A2 *493:23 0
28 *2273:D *493:23 0
29 *2273:D *493:25 0
30 *2273:D *493:33 0
31 *2352:D *493:23 2.09166e-05
32 *280:62 *1992:A1 0.000272379
33 *280:68 *1992:A1 9.80032e-06
34 *296:40 *2073:B 0
35 *432:47 *2201:A 0.000313852
36 *432:47 *493:12 0.000338716
37 *488:37 *2073:B 8.65961e-05
38 *489:14 *493:12 5.42646e-05
39 *490:55 *2201:A 0.000184858
40 *490:55 *493:12 0.000201502
41 *492:25 *2074:B 8.23457e-05
*RES
1 *2351:Q *493:12 10.445 
2 *493:12 *2201:A 4.465 
3 *493:12 *493:23 10.265 
4 *493:23 *493:25 1.38 
5 *493:25 *493:33 5.21 
6 *493:33 *1992:A1 6.895 
7 *493:33 *2073:B 11.135 
8 *493:25 *2074:B 4.395 
9 *493:23 *2203:A1 3.6 
*END

*D_NET *494 0.00292629
*CONN
*I *2203:B1 I *D sky130_fd_sc_hd__a21o_1
*I *2074:A I *D sky130_fd_sc_hd__and4_1
*I *1998:A I *D sky130_fd_sc_hd__or2_1
*I *2073:A I *D sky130_fd_sc_hd__and3_1
*I *2352:Q O *D sky130_fd_sc_hd__dfxtp_1
*CAP
1 *2203:B1 0
2 *2074:A 0
3 *1998:A 0
4 *2073:A 0.000131495
5 *2352:Q 0.000396128
6 *494:20 0.000186076
7 *494:16 0.000182382
8 *494:10 0.000523929
9 *2073:A *1999:A1 0.000115187
10 *2073:A *620:18 0.000134099
11 *494:10 *560:100 2.75538e-05
12 *494:10 *620:18 0.000245456
13 *494:16 *560:100 5.93588e-05
14 *494:16 *620:18 0.000203762
15 *494:20 *620:18 0.00015625
16 *2073:C *2073:A 4.82863e-05
17 *2073:C *494:16 5.16418e-05
18 *2074:D *494:16 8.23457e-05
19 *2176:C *494:10 4.80285e-05
20 *2204:B *494:10 0.000104395
21 *2273:D *494:20 0
22 *296:15 *2073:A 2.75145e-05
23 *296:40 *2073:A 6.71882e-05
24 *493:33 *494:20 0.00013521
*RES
1 *2352:Q *494:10 10.065 
2 *494:10 *494:16 5.195 
3 *494:16 *494:20 3.89 
4 *494:20 *2073:A 6.72 
5 *494:20 *1998:A 3.6 
6 *494:16 *2074:A 1.6 
7 *494:10 *2203:B1 3.6 
*END

*D_NET *495 0.00298564
*CONN
*I *2036:D_N I *D sky130_fd_sc_hd__or4b_2
*I *1958:A I *D sky130_fd_sc_hd__or4b_4
*I *1984:B2 I *D sky130_fd_sc_hd__a22o_1
*I *1960:A I *D sky130_fd_sc_hd__or4b_2
*I *2049:A I *D sky130_fd_sc_hd__or4b_2
*I *2307:Q O *D sky130_fd_sc_hd__dfxtp_1
*CAP
1 *2036:D_N 0.000138468
2 *1958:A 0
3 *1984:B2 0.00026584
4 *1960:A 0
5 *2049:A 3.56407e-05
6 *2307:Q 7.93192e-05
7 *495:51 0.000184993
8 *495:25 0.000349848
9 *495:21 0.000197227
10 *495:10 0.000181653
11 *1984:B2 *1986:A 5.45662e-05
12 *1984:B2 *496:41 7.13722e-05
13 *1984:B2 *635:40 4.82863e-05
14 *2036:D_N *496:8 0
15 *2036:D_N *496:21 4.04834e-05
16 *2036:D_N *496:30 2.15738e-05
17 *2036:D_N *498:46 8.65905e-05
18 *2036:D_N *613:57 0
19 *2049:A *2049:C 5.05437e-05
20 *495:10 *497:8 9.50342e-06
21 *495:10 *497:19 6.28498e-05
22 *495:10 *497:30 4.31106e-05
23 *495:10 *497:41 2.14129e-05
24 *495:10 *615:102 0
25 *495:21 *1958:D_N 2.0514e-05
26 *495:21 *2049:C 8.34281e-06
27 *495:21 *2049:D_N 0.000203178
28 *495:25 *496:41 0.000134141
29 *495:25 *497:41 0
30 *495:51 *2049:D_N 3.66286e-05
31 *495:51 *498:46 9.80943e-06
32 *1961:A *1984:B2 5.78724e-05
33 *1961:A *495:25 0
34 *1984:B1 *1984:B2 4.82863e-05
35 *1988:A1 *1984:B2 7.17811e-05
36 *338:10 *2036:D_N 5.95442e-05
37 *338:10 *495:21 0.000275548
38 *338:10 *495:51 0.000116716
*RES
1 *2307:Q *495:10 7.235 
2 *495:10 *2049:A 2.395 
3 *495:10 *495:21 2.88 
4 *495:21 *495:25 3.635 
5 *495:25 *1960:A 3.6 
6 *495:25 *1984:B2 9.135 
7 *495:21 *495:51 1.41 
8 *495:51 *1958:A 1.6 
9 *495:51 *2036:D_N 8.54 
*END

*D_NET *496 0.00285934
*CONN
*I *2098:A I *D sky130_fd_sc_hd__xnor2_1
*I *1986:A I *D sky130_fd_sc_hd__and2_1
*I *1960:B I *D sky130_fd_sc_hd__or4b_2
*I *2049:D_N I *D sky130_fd_sc_hd__or4b_2
*I *1958:B I *D sky130_fd_sc_hd__or4b_4
*I *2036:A I *D sky130_fd_sc_hd__or4b_2
*I *2308:Q O *D sky130_fd_sc_hd__dfxtp_1
*CAP
1 *2098:A 8.85217e-05
2 *1986:A 7.68488e-05
3 *1960:B 3.98087e-05
4 *2049:D_N 4.4888e-05
5 *1958:B 0
6 *2036:A 0
7 *2308:Q 0
8 *496:41 0.000270423
9 *496:30 0.000251352
10 *496:21 0.000166929
11 *496:8 0.000509616
12 *496:4 0.000483907
13 *1960:B *634:21 2.49909e-05
14 *1986:A *613:57 0
15 *2049:D_N *1958:D_N 4.99619e-05
16 *2049:D_N *2049:C 4.35348e-05
17 *2049:D_N *498:46 2.75145e-05
18 *2049:D_N *498:48 5.05521e-05
19 *2098:A *607:53 8.24704e-05
20 *496:8 *2036:C 5.53249e-06
21 *496:8 *497:8 0
22 *496:8 *617:71 0
23 *496:21 *2036:C 5.15024e-05
24 *496:30 *2036:C 8.08153e-06
25 *496:30 *497:41 0
26 *496:30 *613:57 0
27 *496:41 *497:41 0
28 *496:41 *613:57 0
29 *1984:B2 *1986:A 5.45662e-05
30 *1984:B2 *496:41 7.13722e-05
31 *2036:D_N *496:8 0
32 *2036:D_N *496:21 4.04834e-05
33 *2036:D_N *496:30 2.15738e-05
34 *2057:B *496:41 2.09578e-05
35 *2098:B *496:8 0
36 *2308:D *496:8 0
37 *495:21 *2049:D_N 0.000203178
38 *495:25 *496:41 0.000134141
39 *495:51 *2049:D_N 3.66286e-05
*RES
1 *2308:Q *496:4 1.6 
2 *496:4 *496:8 8.48 
3 *496:8 *2036:A 3.6 
4 *496:8 *496:21 2.19 
5 *496:21 *1958:B 3.6 
6 *496:21 *496:30 0.87 
7 *496:30 *2049:D_N 5.775 
8 *496:30 *496:41 2.655 
9 *496:41 *1960:B 4.05 
10 *496:41 *1986:A 5.235 
11 *496:4 *2098:A 3.355 
*END

*D_NET *497 0.00268628
*CONN
*I *1989:A I *D sky130_fd_sc_hd__and2_1
*I *1960:C I *D sky130_fd_sc_hd__or4b_2
*I *1958:D_N I *D sky130_fd_sc_hd__or4b_4
*I *2049:B I *D sky130_fd_sc_hd__or4b_2
*I *2036:B I *D sky130_fd_sc_hd__or4b_2
*I *2309:Q O *D sky130_fd_sc_hd__dfxtp_1
*CAP
1 *1989:A 0.000155814
2 *1960:C 3.61238e-05
3 *1958:D_N 1.59138e-05
4 *2049:B 8.58169e-05
5 *2036:B 0.00013301
6 *2309:Q 0.000135828
7 *497:41 0.000328572
8 *497:30 0.000181264
9 *497:19 0.000157404
10 *497:8 0.000311708
11 *1958:D_N *2049:C 8.65961e-05
12 *1960:C *634:21 0.000122331
13 *2036:B *615:102 0.000198945
14 *2049:B *2049:C 0.000122325
15 *497:8 *2036:C 0
16 *497:8 *615:102 0
17 *1961:A *1960:C 5.05521e-05
18 *1961:A *1989:A 0.000180395
19 *1961:A *497:41 5.39961e-05
20 *1986:B *1989:A 7.57202e-05
21 *2049:D_N *1958:D_N 4.99619e-05
22 *295:49 *1989:A 4.66108e-05
23 *495:10 *497:8 9.50342e-06
24 *495:10 *497:19 6.28498e-05
25 *495:10 *497:30 4.31106e-05
26 *495:10 *497:41 2.14129e-05
27 *495:21 *1958:D_N 2.0514e-05
28 *495:25 *497:41 0
29 *496:8 *497:8 0
30 *496:30 *497:41 0
31 *496:41 *497:41 0
*RES
1 *2309:Q *497:8 5.745 
2 *497:8 *2036:B 5.43 
3 *497:8 *497:19 0.87 
4 *497:19 *2049:B 4.74 
5 *497:19 *497:30 0.615 
6 *497:30 *1958:D_N 4.395 
7 *497:30 *497:41 2.145 
8 *497:41 *1960:C 4.74 
9 *497:41 *1989:A 6.885 
*END

*D_NET *498 0.00920517
*CONN
*I *1993:A1 I *D sky130_fd_sc_hd__o211a_1
*I *1958:C I *D sky130_fd_sc_hd__or4b_4
*I *2036:C I *D sky130_fd_sc_hd__or4b_2
*I *2049:C I *D sky130_fd_sc_hd__or4b_2
*I *2096:B1 I *D sky130_fd_sc_hd__a31o_1
*I *1960:D_N I *D sky130_fd_sc_hd__or4b_2
*I *2310:Q O *D sky130_fd_sc_hd__dfxtp_1
*CAP
1 *1993:A1 0.000904215
2 *1958:C 0
3 *2036:C 0.000125337
4 *2049:C 0.000188793
5 *2096:B1 0.000220122
6 *1960:D_N 0.00051276
7 *2310:Q 0
8 *498:48 0.000354272
9 *498:46 0.000529795
10 *498:21 0.000888284
11 *498:6 0.000917091
12 *498:4 0.00113004
13 *1960:D_N *634:21 0.000160541
14 *1993:A1 *1993:C1 7.3664e-05
15 *1993:A1 *1999:A1 0
16 *1993:A1 *2420:A 0
17 *1993:A1 *615:124 0.000165841
18 *1993:A1 *615:142 0.000256265
19 *1993:A1 *615:226 6.71803e-06
20 *1993:A1 *615:239 3.57768e-05
21 *2049:C *615:102 1.08758e-05
22 *498:21 *2058:A 0
23 *498:21 *2058:B 0
24 *1958:D_N *2049:C 8.65961e-05
25 *1982:B1 *1993:A1 0
26 *1987:B2 *1993:A1 0
27 *2036:D_N *498:46 8.65905e-05
28 *2049:A *2049:C 5.05437e-05
29 *2049:B *2049:C 0.000122325
30 *2049:D_N *2049:C 4.35348e-05
31 *2049:D_N *498:46 2.75145e-05
32 *2049:D_N *498:48 5.05521e-05
33 *2058:C *498:46 0.000183824
34 *2066:A2 *498:21 2.09027e-05
35 *2066:A3 *2096:B1 0.000109786
36 *2066:A3 *498:21 7.47215e-05
37 *2097:B *2096:B1 0
38 *2097:D_N *2096:B1 4.43871e-06
39 *2145:A2 *1993:A1 0.00077318
40 *2273:D *1993:A1 0
41 *2310:CLK *1960:D_N 0.000105654
42 *2310:CLK *1993:A1 1.47347e-05
43 *2310:CLK *498:6 0.000118361
44 *2316:CLK *1993:A1 0
45 *289:6 *498:46 4.99619e-05
46 *289:17 *498:46 0.000153986
47 *326:8 *2096:B1 4.00541e-06
48 *334:10 *498:21 0.000242763
49 *334:16 *2096:B1 6.58698e-05
50 *334:16 *498:21 1.79098e-05
51 *334:31 *2096:B1 9.58396e-05
52 *335:22 *2096:B1 0
53 *338:10 *498:46 3.7712e-05
54 *345:6 *2096:B1 1.61831e-05
55 *346:6 *498:46 8.40213e-05
56 *472:61 *1993:A1 0
57 *495:21 *2049:C 8.34281e-06
58 *495:51 *498:46 9.80943e-06
59 *496:8 *2036:C 5.53249e-06
60 *496:21 *2036:C 5.15024e-05
61 *496:30 *2036:C 8.08153e-06
62 *497:8 *2036:C 0
*RES
1 *2310:Q *498:4 1.6 
2 *498:4 *498:6 2.865 
3 *498:6 *1960:D_N 8.44 
4 *498:6 *498:21 5.87 
5 *498:21 *2096:B1 7.71 
6 *498:21 *498:46 9.47 
7 *498:46 *498:48 0.795 
8 *498:48 *2049:C 5.425 
9 *498:48 *2036:C 7.49 
10 *498:46 *1958:C 1.6 
11 *498:4 *1993:A1 24.8 
*END

*D_NET *499 0.00704579
*CONN
*I *2107:D I *D sky130_fd_sc_hd__and4_1
*I *2108:A3 I *D sky130_fd_sc_hd__a31o_1
*I *2100:A_N I *D sky130_fd_sc_hd__and2b_1
*I *2104:C I *D sky130_fd_sc_hd__nand3_1
*I *2102:B I *D sky130_fd_sc_hd__or2_1
*I *2101:B I *D sky130_fd_sc_hd__nand2_1
*I *2011:A I *D sky130_fd_sc_hd__and3_1
*I *2105:A2 I *D sky130_fd_sc_hd__a21o_1
*I *2317:Q O *D sky130_fd_sc_hd__dfxtp_1
*CAP
1 *2107:D 0.000129281
2 *2108:A3 0
3 *2100:A_N 3.55506e-05
4 *2104:C 0
5 *2102:B 0
6 *2101:B 2.42396e-05
7 *2011:A 0.000119938
8 *2105:A2 5.57467e-05
9 *2317:Q 0.000143978
10 *499:92 0.000200225
11 *499:49 0.000307986
12 *499:43 0.000512973
13 *499:41 0.00045339
14 *499:24 0.000377462
15 *499:18 0.000802565
16 *499:10 0.000764447
17 *2011:A *2011:B 2.65814e-06
18 *2011:A *2012:A 6.32507e-05
19 *2011:A *2039:B 0
20 *2011:A *606:31 0
21 *2011:A *606:60 1.4389e-05
22 *2011:A *610:49 2.92496e-05
23 *2011:A *610:57 4.82863e-05
24 *2105:A2 *506:56 2.30292e-05
25 *2105:A2 *506:69 4.99619e-05
26 *2105:A2 *584:22 3.45588e-05
27 *2105:A2 *610:26 0
28 *2107:D *2107:C 5.83121e-06
29 *2107:D *2108:A2 1.86911e-05
30 *2107:D *507:19 9.50342e-06
31 *2107:D *507:27 0.000138544
32 *2107:D *584:22 1.83847e-05
33 *499:18 *2013:A 9.80032e-06
34 *499:18 *2100:B 4.66108e-05
35 *499:18 *508:10 0.000124895
36 *499:24 *2013:A 3.72916e-05
37 *499:24 *610:26 0
38 *499:41 *610:26 0
39 *499:43 *2104:B 0.000835
40 *499:43 *506:37 8.40213e-05
41 *499:49 *2012:A 4.43871e-06
42 *499:49 *2039:B 0
43 *499:49 *506:37 0.000232559
44 *499:92 *2108:A2 2.10433e-05
45 *499:92 *508:10 3.77652e-05
46 *2106:B *499:24 0.000218843
47 *2106:B *499:41 0.000149604
48 *2109:A_N *2107:D 0
49 *2320:D *499:10 2.96553e-05
50 *2320:D *499:92 3.39151e-05
51 *2327:CLK *499:41 2.84137e-05
52 *466:20 *2101:B 4.66108e-05
53 *466:20 *499:49 0.000185405
54 *468:49 *499:18 5.83121e-06
55 *468:53 *2100:A_N 0
56 *468:53 *499:10 7.35729e-05
57 *468:53 *499:18 0.000345625
58 *468:57 *499:18 8.82557e-05
59 *468:72 *499:24 2.25161e-05
*RES
1 *2317:Q *499:10 5.865 
2 *499:10 *499:18 10.85 
3 *499:18 *499:24 6.0875 
4 *499:24 *2105:A2 5.0775 
5 *499:24 *499:41 4.5275 
6 *499:41 *499:43 8.385 
7 *499:43 *499:49 6.23 
8 *499:49 *2011:A 6.24 
9 *499:49 *2101:B 4.05 
10 *499:43 *2102:B 1.6 
11 *499:41 *2104:C 1.6 
12 *499:18 *2100:A_N 2.215 
13 *499:10 *499:92 1.635 
14 *499:92 *2108:A3 3.6 
15 *499:92 *2107:D 6.195 
*END

*D_NET *500 0.0104539
*CONN
*I *2129:A I *D sky130_fd_sc_hd__or2_1
*I *2134:C I *D sky130_fd_sc_hd__and4_1
*I *2021:A I *D sky130_fd_sc_hd__and3_1
*I *2041:B I *D sky130_fd_sc_hd__or3_1
*I *2054:A1 I *D sky130_fd_sc_hd__a311o_1
*I *2040:A I *D sky130_fd_sc_hd__nor2_1
*I *2128:A I *D sky130_fd_sc_hd__nand2_1
*I *2327:Q O *D sky130_fd_sc_hd__dfxtp_1
*CAP
1 *2129:A 0
2 *2134:C 2.01774e-05
3 *2021:A 0.000236656
4 *2041:B 7.58874e-05
5 *2054:A1 8.94172e-05
6 *2040:A 2.08101e-05
7 *2128:A 1.43747e-05
8 *2327:Q 0.000115574
9 *500:70 0.000528436
10 *500:49 0.000947624
11 *500:30 0.000834122
12 *500:26 0.000607019
13 *500:22 0.000580936
14 *500:16 0.000562034
15 *2021:A *2021:C 0.000198196
16 *2041:B *2042:A 1.91597e-05
17 *2134:C *2039:D 8.23457e-05
18 *500:16 *2130:A 2.97004e-06
19 *500:16 *2134:B 0.000363032
20 *500:16 *600:20 5.16418e-05
21 *500:22 *2039:D 0
22 *500:22 *2134:B 3.63661e-05
23 *500:30 *2136:C 0.000236506
24 *500:49 *1935:A 4.82919e-05
25 *2040:B *500:70 0
26 *2042:B *2041:B 4.82919e-05
27 *2042:B *500:70 4.82863e-05
28 *2051:A1 *500:49 4.37103e-05
29 *2051:A1 *500:70 7.88861e-05
30 *2051:A2 *2041:B 0.000148089
31 *2051:A2 *500:70 0.000195039
32 *2051:A4 *500:70 0.000160635
33 *2051:B1 *500:70 0.000109905
34 *2054:B1 *2054:A1 4.82863e-05
35 *2059:A2 *500:70 4.43871e-06
36 *2128:B *500:30 8.65961e-05
37 *2131:A *2128:A 9.44132e-06
38 *2131:A *500:49 0.000393572
39 *2131:B *2128:A 1.02153e-05
40 *2131:B *500:49 3.44374e-05
41 *2132:B *500:49 8.44338e-06
42 *2134:D *2134:C 4.66108e-05
43 *2134:D *500:22 0.00046026
44 *2136:A_N *500:26 0.000362271
45 *2136:B *500:30 0.000223177
46 *2289:D *500:70 9.37731e-05
47 *2293:D *500:16 0.000274602
48 *2327:D *500:22 0
49 *2328:CLK *2054:A1 4.66108e-05
50 *2329:CLK *500:26 0.00013521
51 *2383:A *2040:A 0
52 *2383:A *2054:A1 0.000114492
53 *2383:A *500:49 0.000203178
54 *2383:A *500:70 0.000227261
55 *274:6 *500:49 0.00044923
56 *331:6 *2041:B 7.40446e-05
57 *332:8 *2054:A1 4.5783e-05
58 *337:8 *2054:A1 0.000111316
59 *402:6 *500:30 3.00381e-05
60 *402:6 *500:49 1.12578e-05
61 *406:10 *500:22 0
62 *465:33 *2021:A 0.000307737
63 *465:33 *500:26 0.000137195
*RES
1 *2327:Q *500:16 9.89 
2 *500:16 *500:22 6.255 
3 *500:22 *500:26 6.44 
4 *500:26 *500:30 8.315 
5 *500:30 *2128:A 1.96 
6 *500:30 *500:49 15.445 
7 *500:49 *2040:A 1.96 
8 *500:49 *500:70 11.665 
9 *500:70 *2054:A1 8.45 
10 *500:70 *2041:B 3.79 
11 *500:26 *2021:A 10.08 
12 *500:22 *2134:C 2.395 
13 *500:16 *2129:A 1.6 
*END

*D_NET *501 0.00900445
*CONN
*I *1935:A I *D sky130_fd_sc_hd__inv_2
*I *2418:A I *D sky130_fd_sc_hd__dlygate4sd3_1
*I *2053:A I *D sky130_fd_sc_hd__or3_1
*I *2041:A I *D sky130_fd_sc_hd__or3_1
*I *2134:B I *D sky130_fd_sc_hd__and4_1
*I *2328:Q O *D sky130_fd_sc_hd__dfxtp_1
*CAP
1 *1935:A 0.000257171
2 *2418:A 8.62085e-05
3 *2053:A 0.000118305
4 *2041:A 0
5 *2134:B 0.000262528
6 *2328:Q 0
7 *501:31 0.00135017
8 *501:21 0.00139519
9 *501:19 0.000427909
10 *501:6 0.000356152
11 *2053:A *2042:A 0.000125118
12 *2134:B *2039:D 8.8266e-05
13 *2134:B *2130:A 4.82863e-05
14 *2134:B *502:12 0.000262996
15 *2134:B *610:95 0.000139245
16 *2418:A *610:95 0.00012524
17 *501:19 *610:95 0.000214984
18 *501:21 *610:95 0.000128353
19 *501:31 *607:53 0.000116853
20 *2041:C *2053:A 4.82863e-05
21 *2130:C *2134:B 4.8726e-05
22 *2133:B *501:19 6.14776e-05
23 *2134:D *2134:B 0.000387891
24 *2289:D *2418:A 0.000237238
25 *2289:D *501:31 0.00103226
26 *2293:D *2134:B 0.000117649
27 *2327:D *2134:B 0.000200615
28 *2382:A *1935:A 0.000163199
29 *2383:A *1935:A 0.000214965
30 *274:6 *1935:A 0.000425312
31 *343:8 *501:31 0.000116158
32 *383:10 *501:21 0
33 *500:16 *2134:B 0.000363032
34 *500:22 *2134:B 3.63661e-05
35 *500:49 *1935:A 4.82919e-05
*RES
1 *2328:Q *501:6 3.6 
2 *501:6 *2134:B 13.62 
3 *501:6 *501:19 2.655 
4 *501:19 *501:21 1.635 
5 *501:21 *501:31 22.32 
6 *501:31 *2041:A 1.6 
7 *501:31 *2053:A 4.12 
8 *501:21 *2418:A 6.39 
9 *501:19 *1935:A 9.33 
*END

*D_NET *502 0.00353822
*CONN
*I *2406:A I *D sky130_fd_sc_hd__dlygate4sd3_1
*I *2135:A I *D sky130_fd_sc_hd__or2_1
*I *2134:A I *D sky130_fd_sc_hd__and4_1
*I *2039:D I *D sky130_fd_sc_hd__or4_1
*I *2329:Q O *D sky130_fd_sc_hd__dfxtp_1
*CAP
1 *2406:A 0.000206766
2 *2135:A 5.80274e-05
3 *2134:A 0
4 *2039:D 0.000122598
5 *2329:Q 0
6 *502:30 0.000289782
7 *502:12 0.000215493
8 *502:6 0.000117883
9 *2039:D *2039:C 4.82863e-05
10 *2135:A *600:16 5.83121e-06
11 *2135:A *606:118 0.000120655
12 *2406:A *2021:C 7.20914e-05
13 *2406:A *2022:A 6.71882e-05
14 *2406:A *606:17 2.59981e-05
15 *2406:A *606:19 0.000154223
16 *2406:A *610:95 2.87979e-05
17 *502:12 *606:23 6.28843e-05
18 *502:30 *606:19 1.71013e-05
19 *502:30 *606:23 2.4997e-05
20 *2128:B *2406:A 2.50049e-05
21 *2128:B *502:12 6.28843e-05
22 *2128:B *502:30 4.13092e-05
23 *2134:B *2039:D 8.8266e-05
24 *2134:B *502:12 0.000262996
25 *2134:C *2039:D 8.23457e-05
26 *2134:D *2039:D 1.46828e-05
27 *2136:B *2406:A 0.00018305
28 *2289:D *2406:A 0.000311282
29 *2293:D *2039:D 0.000399111
30 *2293:D *502:12 0.000272978
31 *406:10 *2039:D 0.000155707
32 *500:22 *2039:D 0
*RES
1 *2329:Q *502:6 3.6 
2 *502:6 *502:12 5.9 
3 *502:12 *2039:D 6.31 
4 *502:12 *2134:A 1.6 
5 *502:6 *502:30 0.87 
6 *502:30 *2135:A 4.74 
7 *502:30 *2406:A 10.395 
*END

*D_NET *503 0.00185434
*CONN
*I *2432:A I *D sky130_fd_sc_hd__dlygate4sd3_1
*I *2138:A I *D sky130_fd_sc_hd__or2_1
*I *2137:A I *D sky130_fd_sc_hd__and2_1
*I *2039:C I *D sky130_fd_sc_hd__or4_1
*I *2330:Q O *D sky130_fd_sc_hd__dfxtp_1
*CAP
1 *2432:A 2.92427e-05
2 *2138:A 0
3 *2137:A 0.000313235
4 *2039:C 4.92143e-05
5 *2330:Q 0
6 *503:25 0.000525319
7 *503:21 0.000325529
8 *503:6 0.000133416
9 *2039:C *2039:B 2.7881e-05
10 *503:21 *2039:B 5.53249e-06
11 *2039:D *2039:C 4.82863e-05
12 *2136:A_N *503:21 0
13 *2138:B *2039:C 0
14 *2138:B *503:21 0
15 *2138:B *503:25 4.66108e-05
16 *2139:B *2137:A 2.93447e-05
17 *2139:B *503:25 5.83121e-06
18 *2293:D *2039:C 8.49205e-05
19 *2298:CLK *2137:A 0.000208608
20 *406:10 *2039:C 1.61831e-05
21 *466:124 *2137:A 5.18317e-06
*RES
1 *2330:Q *503:6 3.6 
2 *503:6 *2039:C 5.01 
3 *503:6 *503:21 3.38 
4 *503:21 *503:25 3.225 
5 *503:25 *2137:A 11.075 
6 *503:25 *2138:A 1.6 
7 *503:21 *2432:A 2.05 
*END

*D_NET *504 0.00339643
*CONN
*I *2039:A I *D sky130_fd_sc_hd__or4_1
*I *2140:A I *D sky130_fd_sc_hd__nand2_1
*I *2407:A I *D sky130_fd_sc_hd__dlygate4sd3_1
*I *2141:A I *D sky130_fd_sc_hd__or2_1
*I *2331:Q O *D sky130_fd_sc_hd__dfxtp_1
*CAP
1 *2039:A 9.72984e-05
2 *2140:A 0
3 *2407:A 0.000194107
4 *2141:A 0.000307323
5 *2331:Q 0
6 *504:36 0.000235156
7 *504:19 0.00042689
8 *504:6 0.000402249
9 *2039:A *2039:B 8.25609e-05
10 *2141:A *2039:B 0.000162325
11 *2141:A *584:22 8.50755e-05
12 *2407:A *2025:A 0.000312176
13 *2407:A *600:93 8.09157e-05
14 *504:19 *2039:B 0.00020847
15 *504:36 *2039:B 0.000220452
16 *2136:A_N *2039:A 1.22762e-05
17 *2141:B *2141:A 4.99619e-05
18 *2141:B *504:19 0
19 *2141:B *504:36 0
20 *2290:D *2039:A 7.57202e-05
21 *2290:D *504:36 4.66108e-05
22 *2329:CLK *2039:A 0
23 *2367:A *2407:A 0.000176511
24 *329:20 *2039:A 4.05358e-05
25 *466:8 *2407:A 4.82863e-05
26 *466:44 *2039:A 8.49205e-05
27 *466:44 *504:36 4.66108e-05
*RES
1 *2331:Q *504:6 3.6 
2 *504:6 *2141:A 9.045 
3 *504:6 *504:19 2.4 
4 *504:19 *2407:A 8.895 
5 *504:19 *504:36 5.105 
6 *504:36 *2140:A 1.6 
7 *504:36 *2039:A 8.285 
*END

*D_NET *505 0.00399958
*CONN
*I *2039:B I *D sky130_fd_sc_hd__or4_1
*I *2143:A I *D sky130_fd_sc_hd__xnor2_1
*I *2412:A I *D sky130_fd_sc_hd__dlygate4sd3_1
*I *2332:Q O *D sky130_fd_sc_hd__dfxtp_1
*CAP
1 *2039:B 0.000554632
2 *2143:A 0.000120385
3 *2412:A 0.000227441
4 *2332:Q 8.76197e-05
5 *505:21 0.000772134
6 *505:8 0.000412177
7 *2039:B *610:49 0
8 *2039:B *611:26 0
9 *2143:A *2476:A 0.000360094
10 *2143:A *606:60 0.000309896
11 *2143:A *610:57 0.000180373
12 *2412:A *2012:B 0
13 *2412:A *2144:A 0.000164874
14 *2412:A *2476:A 4.43871e-06
15 *2412:A *576:24 0
16 *505:8 *576:24 5.07419e-05
17 *505:21 *2476:A 4.75576e-05
18 *505:21 *606:60 0
19 *505:21 *610:49 0
20 *2011:A *2039:B 0
21 *2039:A *2039:B 8.25609e-05
22 *2039:C *2039:B 2.7881e-05
23 *2136:A_N *2039:B 0
24 *2138:B *2039:B 0
25 *2141:A *2039:B 0.000162325
26 *466:20 *2039:B 0
27 *466:40 *2039:B 0
28 *499:49 *2039:B 0
29 *503:21 *2039:B 5.53249e-06
30 *504:19 *2039:B 0.00020847
31 *504:36 *2039:B 0.000220452
*RES
1 *2332:Q *505:8 4.74 
2 *505:8 *2412:A 7.74 
3 *505:8 *505:21 1.635 
4 *505:21 *2143:A 9.225 
5 *505:21 *2039:B 14.415 
*END

*D_NET *506 0.0081758
*CONN
*I *2107:C I *D sky130_fd_sc_hd__and4_1
*I *2108:A2 I *D sky130_fd_sc_hd__a31o_1
*I *2105:A1 I *D sky130_fd_sc_hd__a21o_1
*I *2101:A I *D sky130_fd_sc_hd__nand2_1
*I *2104:B I *D sky130_fd_sc_hd__nand3_1
*I *2102:A I *D sky130_fd_sc_hd__or2_1
*I *2012:A I *D sky130_fd_sc_hd__and3_1
*I *2318:Q O *D sky130_fd_sc_hd__dfxtp_1
*CAP
1 *2107:C 6.92531e-05
2 *2108:A2 7.69609e-05
3 *2105:A1 0
4 *2101:A 0
5 *2104:B 0.000445457
6 *2102:A 0
7 *2012:A 0.000239224
8 *2318:Q 0
9 *506:69 0.000808305
10 *506:56 0.000896708
11 *506:37 0.000680825
12 *506:16 0.000492361
13 *506:12 0.000496887
14 *506:4 0.000713735
15 *2012:A *2012:B 1.34361e-05
16 *2012:A *2012:C 7.06865e-05
17 *2012:A *2144:A 4.99619e-05
18 *2012:A *610:49 0.000296775
19 *2012:A *622:32 0
20 *2107:C *2107:A 3.64998e-06
21 *2107:C *507:17 8.73389e-06
22 *2107:C *584:22 2.19562e-06
23 *2108:A2 *507:27 9.30717e-05
24 *2108:A2 *508:10 2.10433e-05
25 *2108:A2 *508:23 0.000136877
26 *506:12 *584:22 3.28694e-05
27 *506:37 *622:32 0
28 *506:56 *584:22 3.35323e-05
29 *506:69 *2105:B1 0.000484189
30 *506:69 *2107:A 1.56428e-05
31 *506:69 *507:17 6.09913e-05
32 *506:69 *584:22 7.67415e-06
33 *2011:A *2012:A 6.32507e-05
34 *2103:B *2012:A 0.000102184
35 *2105:A2 *506:56 2.30292e-05
36 *2105:A2 *506:69 4.99619e-05
37 *2107:D *2107:C 5.83121e-06
38 *2107:D *2108:A2 1.86911e-05
39 *2285:CLK *506:12 0.000182431
40 *2285:D *2012:A 0.000117825
41 *2285:RESET_B *2012:A 3.59997e-05
42 *2318:D *506:12 5.01066e-05
43 *2319:D *506:69 1.43717e-05
44 *466:20 *506:12 2.55546e-05
45 *466:20 *506:16 4.82919e-05
46 *466:20 *506:37 1.01661e-05
47 *499:43 *2104:B 0.000835
48 *499:43 *506:37 8.40213e-05
49 *499:49 *2012:A 4.43871e-06
50 *499:49 *506:37 0.000232559
51 *499:92 *2108:A2 2.10433e-05
*RES
1 *2318:Q *506:4 1.6 
2 *506:4 *506:12 6.45 
3 *506:12 *506:16 2.45 
4 *506:16 *2012:A 10.32 
5 *506:16 *506:37 6.485 
6 *506:37 *2102:A 1.6 
7 *506:37 *2104:B 9.985 
8 *506:12 *2101:A 1.6 
9 *506:4 *506:56 2.865 
10 *506:56 *2105:A1 1.6 
11 *506:56 *506:69 9.9 
12 *506:69 *2108:A2 8.045 
13 *506:69 *2107:C 2.395 
*END

*D_NET *507 0.00451143
*CONN
*I *2038:A2 I *D sky130_fd_sc_hd__o211ai_1
*I *2104:A I *D sky130_fd_sc_hd__nand3_1
*I *2107:B I *D sky130_fd_sc_hd__and4_1
*I *2108:A1 I *D sky130_fd_sc_hd__a31o_1
*I *2421:A I *D sky130_fd_sc_hd__dlygate4sd3_1
*I *2105:B1 I *D sky130_fd_sc_hd__a21o_1
*I *2319:Q O *D sky130_fd_sc_hd__dfxtp_1
*CAP
1 *2038:A2 6.44519e-05
2 *2104:A 0.000524273
3 *2107:B 0
4 *2108:A1 0
5 *2421:A 0.000169823
6 *2105:B1 0.000182355
7 *2319:Q 0
8 *507:48 0.000671621
9 *507:27 0.000253296
10 *507:19 0.000108633
11 *507:17 0.000166024
12 *507:4 0.000240323
13 *2038:A2 *2048:A1 9.50342e-06
14 *2038:A2 *508:34 0.000156155
15 *2038:A2 *611:64 3.24046e-05
16 *2105:B1 *584:22 0.000280201
17 *2421:A *2109:C 0.000253937
18 *507:17 *2107:A 4.82863e-05
19 *507:17 *584:22 0.000275542
20 *507:19 *508:23 2.14129e-05
21 *507:19 *508:34 2.92496e-05
22 *507:27 *2109:C 2.75229e-05
23 *507:27 *508:23 3.48914e-05
24 *507:48 *508:34 0.00015212
25 *2107:C *507:17 8.73389e-06
26 *2107:D *507:19 9.50342e-06
27 *2107:D *507:27 0.000138544
28 *2108:A2 *507:27 9.30717e-05
29 *2109:A_N *507:19 0
30 *2319:D *2105:B1 1.43717e-05
31 *388:23 *2038:A2 0
32 *388:23 *507:48 0
33 *506:69 *2105:B1 0.000484189
34 *506:69 *507:17 6.09913e-05
*RES
1 *2319:Q *507:4 1.6 
2 *507:4 *2105:B1 8.53 
3 *507:4 *507:17 4.52 
4 *507:17 *507:19 0.615 
5 *507:19 *507:27 4.445 
6 *507:27 *2421:A 5.5 
7 *507:27 *2108:A1 1.6 
8 *507:19 *2107:B 3.6 
9 *507:17 *507:48 1.89 
10 *507:48 *2104:A 11.295 
11 *507:48 *2038:A2 5.49 
*END

*D_NET *508 0.0047109
*CONN
*I *2415:A I *D sky130_fd_sc_hd__dlygate4sd3_1
*I *2048:A1 I *D sky130_fd_sc_hd__o211a_1
*I *2038:A1 I *D sky130_fd_sc_hd__o211ai_1
*I *2107:A I *D sky130_fd_sc_hd__and4_1
*I *2108:B1 I *D sky130_fd_sc_hd__a31o_1
*I *2320:Q O *D sky130_fd_sc_hd__dfxtp_1
*CAP
1 *2415:A 0.000138754
2 *2048:A1 0.000243412
3 *2038:A1 0
4 *2107:A 1.90199e-05
5 *2108:B1 0
6 *2320:Q 0
7 *508:34 0.000412504
8 *508:23 0.000328587
9 *508:10 0.000682269
10 *508:4 0.000680547
11 *2048:A1 *2016:A 0.000349587
12 *2048:A1 *2016:B 3.24046e-05
13 *2048:A1 *610:18 0
14 *2048:A1 *611:64 7.5431e-05
15 *2415:A *607:63 5.30673e-05
16 *2415:A *607:70 0.0002187
17 *2415:A *611:83 3.09179e-05
18 *2038:A2 *2048:A1 9.50342e-06
19 *2038:A2 *508:34 0.000156155
20 *2107:C *2107:A 3.64998e-06
21 *2108:A2 *508:10 2.10433e-05
22 *2108:A2 *508:23 0.000136877
23 *2290:D *2048:A1 0
24 *468:49 *2415:A 0.000426195
25 *468:49 *508:10 0.000228011
26 *499:18 *508:10 0.000124895
27 *499:92 *508:10 3.77652e-05
28 *506:69 *2107:A 1.56428e-05
29 *507:17 *2107:A 4.82863e-05
30 *507:19 *508:23 2.14129e-05
31 *507:19 *508:34 2.92496e-05
32 *507:27 *508:23 3.48914e-05
33 *507:48 *508:34 0.00015212
*RES
1 *2320:Q *508:4 1.6 
2 *508:4 *508:10 9.695 
3 *508:10 *2108:B1 3.6 
4 *508:10 *508:23 2.955 
5 *508:23 *2107:A 4.05 
6 *508:23 *508:34 3.93 
7 *508:34 *2038:A1 3.6 
8 *508:34 *2048:A1 9.315 
9 *508:4 *2415:A 6.805 
*END

*D_NET *509 0.00845982
*CONN
*I *2111:A I *D sky130_fd_sc_hd__or2_1
*I *2110:A I *D sky130_fd_sc_hd__and2_1
*I *2113:B I *D sky130_fd_sc_hd__and3_1
*I *2037:D I *D sky130_fd_sc_hd__and4_1
*I *2125:B I *D sky130_fd_sc_hd__and4_1
*I *2048:A2 I *D sky130_fd_sc_hd__o211a_1
*I *2015:A I *D sky130_fd_sc_hd__and3_1
*I *2052:B I *D sky130_fd_sc_hd__or2_1
*I *2321:Q O *D sky130_fd_sc_hd__dfxtp_1
*CAP
1 *2111:A 0.000130708
2 *2110:A 0.000129868
3 *2113:B 0
4 *2037:D 0
5 *2125:B 0
6 *2048:A2 0.000104967
7 *2015:A 0.000227569
8 *2052:B 0
9 *2321:Q 0.000111524
10 *509:48 0.000597488
11 *509:36 0.000928163
12 *509:26 0.000893748
13 *509:16 0.000389345
14 *509:14 0.000330244
15 *509:10 0.0002838
16 *2015:A *2015:C 9.11893e-05
17 *2015:A *611:64 4.82863e-05
18 *2110:A *510:22 9.06015e-05
19 *2111:A *602:33 0
20 *509:10 *602:33 4.39911e-06
21 *509:26 *2047:B 5.05521e-05
22 *509:26 *2047:C 0
23 *509:26 *511:35 0.000245599
24 *509:26 *512:38 1.0183e-05
25 *509:26 *621:52 0
26 *509:36 *2037:A 0.000123225
27 *509:36 *2047:B 4.47125e-05
28 *509:36 *2047:D 0.000237249
29 *509:36 *510:57 0.000421956
30 *509:36 *510:59 7.49327e-05
31 *509:36 *514:18 0.000124895
32 *509:36 *557:22 7.18092e-05
33 *509:36 *621:52 0.000125618
34 *509:48 *2052:A 8.65905e-05
35 *509:48 *510:59 0.00023468
36 *509:48 *607:53 4.9968e-05
37 *2054:A2 *2048:A2 0.000116577
38 *2112:B *2111:A 0.000145936
39 *2112:B *509:14 5.53249e-06
40 *2114:B *2111:A 4.82919e-05
41 *2115:A_N *2110:A 0.000122337
42 *2115:A_N *509:16 4.82919e-05
43 *2120:B *509:36 0.000159964
44 *2121:A_N *509:26 0
45 *2125:D *509:48 8.53113e-06
46 *2127:A_N *509:36 0.000195476
47 *2127:A_N *509:48 0.0001249
48 *2294:D *509:36 4.43871e-06
49 *2321:D *509:10 1.56428e-05
50 *327:8 *509:36 2.7441e-05
51 *328:10 *2015:A 0.000135539
52 *328:10 *2048:A2 0
53 *337:8 *2048:A2 3.68682e-05
54 *390:10 *509:14 0
55 *390:10 *509:16 3.7712e-05
56 *390:10 *509:26 1.08758e-05
57 *392:6 *509:16 0.000124895
58 *397:8 *509:26 0.000353049
59 *400:20 *2015:A 0.000271314
60 *400:20 *509:48 3.38425e-05
61 *465:135 *509:36 0
62 *468:148 *2111:A 9.78082e-05
63 *468:148 *509:14 7.06865e-05
*RES
1 *2321:Q *509:10 4.845 
2 *509:10 *509:14 2.87 
3 *509:14 *509:16 2.175 
4 *509:16 *509:26 10.075 
5 *509:26 *509:36 17.875 
6 *509:36 *509:48 8.635 
7 *509:48 *2052:B 1.6 
8 *509:48 *2015:A 11.03 
9 *509:48 *2048:A2 7.685 
10 *509:36 *2125:B 1.6 
11 *509:26 *2037:D 1.6 
12 *509:16 *2113:B 1.6 
13 *509:14 *2110:A 4.15 
14 *509:10 *2111:A 6.45 
*END

*D_NET *510 0.0108191
*CONN
*I *2125:A I *D sky130_fd_sc_hd__and4_1
*I *2016:A I *D sky130_fd_sc_hd__and3_1
*I *2048:C1 I *D sky130_fd_sc_hd__o211a_1
*I *2052:A I *D sky130_fd_sc_hd__or2_1
*I *2114:A I *D sky130_fd_sc_hd__or2_1
*I *2113:A I *D sky130_fd_sc_hd__and3_1
*I *2037:C I *D sky130_fd_sc_hd__and4_1
*I *2322:Q O *D sky130_fd_sc_hd__dfxtp_1
*CAP
1 *2125:A 0
2 *2016:A 0.000279176
3 *2048:C1 0
4 *2052:A 1.41866e-05
5 *2114:A 0
6 *2113:A 0
7 *2037:C 0.000276171
8 *2322:Q 0.0007356
9 *510:72 0.00035021
10 *510:59 0.000194332
11 *510:57 0.000841553
12 *510:40 0.000797051
13 *510:22 0.000598118
14 *510:8 0.00112216
15 *2037:C *2037:A 0.00012657
16 *2037:C *511:35 0.000150334
17 *510:22 *511:35 0.000160635
18 *510:22 *602:33 0.000250616
19 *510:57 *2020:A 0.000374451
20 *510:57 *2123:A 0.000209996
21 *510:57 *2124:A 4.66108e-05
22 *510:57 *514:18 5.68801e-05
23 *510:57 *557:22 0.000784449
24 *510:59 *2020:A 4.66108e-05
25 *510:72 *607:53 7.36562e-05
26 *2048:A1 *2016:A 0.000349587
27 *2054:A2 *510:72 6.32658e-05
28 *2110:A *510:22 9.06015e-05
29 *2110:B *2037:C 0
30 *2110:B *510:22 0.000211323
31 *2111:B *510:57 1.91597e-05
32 *2114:B *510:57 0.000393029
33 *2115:A_N *510:22 5.20905e-05
34 *2115:B *510:22 0.000102303
35 *2115:B *510:40 3.86607e-05
36 *2123:B *510:57 0.000239807
37 *2124:C *510:57 0.000113247
38 *2127:A_N *510:59 1.33285e-05
39 *2322:CLK *510:8 2.30292e-05
40 *2322:D *510:8 4.55458e-05
41 *336:16 *2016:A 5.84828e-05
42 *388:57 *510:22 5.49535e-05
43 *390:10 *510:22 2.16917e-05
44 *392:6 *510:22 5.95442e-05
45 *400:20 *2052:A 8.65905e-05
46 *400:20 *510:59 8.49205e-05
47 *468:148 *510:8 0.000390466
48 *509:36 *510:57 0.000421956
49 *509:36 *510:59 7.49327e-05
50 *509:48 *2052:A 8.65905e-05
51 *509:48 *510:59 0.00023468
*RES
1 *2322:Q *510:8 12.675 
2 *510:8 *510:22 11.03 
3 *510:22 *2037:C 5.515 
4 *510:22 *2113:A 1.6 
5 *510:8 *510:40 3.125 
6 *510:40 *2114:A 1.6 
7 *510:40 *510:57 19.065 
8 *510:57 *510:59 2.865 
9 *510:59 *2052:A 2.395 
10 *510:59 *510:72 5.635 
11 *510:72 *2048:C1 1.6 
12 *510:72 *2016:A 6.55 
13 *510:57 *2125:A 1.6 
*END

*D_NET *511 0.00376978
*CONN
*I *2419:A I *D sky130_fd_sc_hd__dlygate4sd3_1
*I *2116:A I *D sky130_fd_sc_hd__nand2_1
*I *2119:A1 I *D sky130_fd_sc_hd__a21o_1
*I *2037:B I *D sky130_fd_sc_hd__and4_1
*I *2047:B I *D sky130_fd_sc_hd__and4_1
*I *2117:A I *D sky130_fd_sc_hd__or2_1
*I *2323:Q O *D sky130_fd_sc_hd__dfxtp_1
*CAP
1 *2419:A 0
2 *2116:A 0.000124541
3 *2119:A1 0
4 *2037:B 0
5 *2047:B 5.01198e-05
6 *2117:A 9.71978e-05
7 *2323:Q 7.13407e-05
8 *511:35 0.000412049
9 *511:25 0.000481993
10 *511:23 0.000323586
11 *511:10 0.000176179
12 *511:8 7.13407e-05
13 *2047:B *2037:A 0.000198945
14 *2116:A *2119:B1 0
15 *2117:A *2118:A 0
16 *511:23 *2118:A 0
17 *511:35 *2037:A 7.66083e-05
18 *511:35 *2119:B1 5.83121e-06
19 *511:35 *2408:A 4.43871e-06
20 *2037:C *511:35 0.000150334
21 *2116:B *2116:A 8.8266e-05
22 *2116:B *511:25 6.1357e-05
23 *2117:B *2117:A 7.75412e-05
24 *2117:B *511:23 5.11148e-06
25 *2117:B *511:35 2.03578e-05
26 *2118:B *2116:A 1.08758e-05
27 *2121:A_N *511:35 0
28 *2121:C *511:35 3.56353e-05
29 *2323:CLK *511:8 0.0001249
30 *2324:D *511:35 7.81876e-05
31 *327:8 *2047:B 0.00012657
32 *388:57 *511:35 1.7396e-05
33 *390:10 *511:35 8.65905e-05
34 *392:10 *511:35 0.000139058
35 *397:8 *2047:B 2.59835e-05
36 *468:138 *511:35 1.14559e-05
37 *468:148 *511:23 0.000114492
38 *509:26 *2047:B 5.05521e-05
39 *509:26 *511:35 0.000245599
40 *509:36 *2047:B 4.47125e-05
41 *510:22 *511:35 0.000160635
*RES
1 *2323:Q *511:8 3.1 
2 *511:8 *511:10 2 
3 *511:10 *2117:A 5.745 
4 *511:10 *511:23 3.635 
5 *511:23 *511:25 1.485 
6 *511:25 *511:35 14.08 
7 *511:35 *2047:B 4.12 
8 *511:35 *2037:B 1.6 
9 *511:25 *2119:A1 1.6 
10 *511:23 *2116:A 3.805 
11 *511:8 *2419:A 1.6 
*END

*D_NET *512 0.00286911
*CONN
*I *2037:A I *D sky130_fd_sc_hd__and4_1
*I *2047:A I *D sky130_fd_sc_hd__and4_1
*I *2119:B1 I *D sky130_fd_sc_hd__a21o_1
*I *2408:A I *D sky130_fd_sc_hd__dlygate4sd3_1
*I *2324:Q O *D sky130_fd_sc_hd__dfxtp_1
*CAP
1 *2037:A 5.00538e-05
2 *2047:A 0
3 *2119:B1 8.74508e-05
4 *2408:A 8.08165e-05
5 *2324:Q 0
6 *512:38 0.000248337
7 *512:12 0.000722005
8 *512:6 0.000752021
9 *512:12 *621:54 0
10 *512:12 *621:56 0
11 *512:38 *621:52 0
12 *2037:C *2037:A 0.00012657
13 *2047:B *2037:A 0.000198945
14 *2116:A *2119:B1 0
15 *2117:B *2408:A 0
16 *2324:D *2119:B1 4.35648e-05
17 *2324:D *512:12 0.000147723
18 *468:130 *512:12 7.68475e-05
19 *468:130 *512:38 0
20 *468:138 *2408:A 0.000114492
21 *509:26 *512:38 1.0183e-05
22 *509:36 *2037:A 0.000123225
23 *511:35 *2037:A 7.66083e-05
24 *511:35 *2119:B1 5.83121e-06
25 *511:35 *2408:A 4.43871e-06
*RES
1 *2324:Q *512:6 3.6 
2 *512:6 *512:12 9.005 
3 *512:12 *2408:A 7.235 
4 *512:12 *2119:B1 3.115 
5 *512:6 *512:38 5.165 
6 *512:38 *2047:A 1.6 
7 *512:38 *2037:A 4.12 
*END

*D_NET *513 0.00818875
*CONN
*I *2122:A I *D sky130_fd_sc_hd__nand2_1
*I *2123:A I *D sky130_fd_sc_hd__or2_1
*I *2423:A I *D sky130_fd_sc_hd__dlygate4sd3_1
*I *2038:B1 I *D sky130_fd_sc_hd__o211ai_1
*I *2047:D I *D sky130_fd_sc_hd__and4_1
*I *2325:Q O *D sky130_fd_sc_hd__dfxtp_1
*CAP
1 *2122:A 0.000501028
2 *2123:A 0.000154851
3 *2423:A 0
4 *2038:B1 0.000247581
5 *2047:D 0.00015971
6 *2325:Q 0
7 *513:43 0.000708566
8 *513:12 0.000599959
9 *513:10 0.000597352
10 *513:4 0.000457371
11 *2038:B1 *2020:B 2.75229e-05
12 *2038:B1 *611:64 1.34594e-05
13 *2047:D *2020:A 4.9968e-05
14 *2047:D *557:10 4.9968e-05
15 *2122:A *602:8 0.000161529
16 *2123:A *2047:C 7.49327e-05
17 *2123:A *2124:A 4.66108e-05
18 *2123:A *514:18 8.65961e-05
19 *2123:A *557:22 0.000151012
20 *2123:A *602:14 0
21 *2123:A *621:52 0.000138551
22 *513:10 *2053:C 7.23533e-05
23 *513:12 *2020:A 0.000283528
24 *513:12 *2053:C 0.000108329
25 *513:12 *557:10 0.000399687
26 *513:12 *607:53 0
27 *513:43 *2127:C 0
28 *513:43 *621:52 0.000109016
29 *2038:C1 *2038:B1 0.000650892
30 *2038:C1 *2047:D 0.000385327
31 *2054:B1 *513:10 2.37321e-05
32 *2054:B1 *513:12 2.97004e-06
33 *2124:C *2123:A 0.000113247
34 *2294:D *2047:D 0.000347023
35 *2325:CLK *2122:A 8.5101e-05
36 *2325:D *2122:A 6.85173e-05
37 *2328:CLK *513:10 0.000526597
38 *327:8 *2047:D 0.000153482
39 *336:10 *2038:B1 0.000122325
40 *398:8 *2122:A 3.35595e-05
41 *469:14 *513:43 2.92496e-05
42 *509:36 *2047:D 0.000237249
43 *510:57 *2123:A 0.000209996
*RES
1 *2325:Q *513:4 1.6 
2 *513:4 *513:10 7.805 
3 *513:10 *513:12 5.97 
4 *513:12 *2047:D 10.185 
5 *513:12 *2038:B1 9.915 
6 *513:10 *2423:A 3.6 
7 *513:4 *513:43 3.38 
8 *513:43 *2123:A 9.135 
9 *513:43 *2122:A 10.545 
*END

*D_NET *514 0.00494437
*CONN
*I *2042:A I *D sky130_fd_sc_hd__or3b_1
*I *1936:A I *D sky130_fd_sc_hd__inv_2
*I *2047:C I *D sky130_fd_sc_hd__and4_1
*I *2417:A I *D sky130_fd_sc_hd__dlygate4sd3_1
*I *2326:Q O *D sky130_fd_sc_hd__dfxtp_1
*CAP
1 *2042:A 0.000536506
2 *1936:A 1.17533e-05
3 *2047:C 0.000287411
4 *2417:A 0
5 *2326:Q 0.000590239
6 *514:18 0.000511271
7 *514:12 0.000327788
8 *514:10 0.00121892
9 *2042:A *2127:C 4.82863e-05
10 *2047:C *557:22 5.05437e-05
11 *2047:C *602:14 4.14369e-05
12 *2047:C *602:20 9.30717e-05
13 *2047:C *621:52 0
14 *514:10 *2127:C 1.6147e-05
15 *514:10 *621:52 0
16 *514:18 *557:22 0.000180997
17 *514:18 *621:52 0
18 *2041:B *2042:A 1.91597e-05
19 *2041:C *2042:A 6.16853e-05
20 *2051:A2 *2042:A 0.000158965
21 *2053:A *2042:A 0.000125118
22 *2123:A *2047:C 7.49327e-05
23 *2123:A *514:18 8.65961e-05
24 *2126:A *514:10 4.74383e-05
25 *2126:A *514:12 6.73424e-05
26 *2126:A *514:18 4.43871e-06
27 *2127:B *514:10 9.50342e-06
28 *2326:CLK *514:10 7.89269e-05
29 *2326:D *514:10 1.33293e-05
30 *2328:CLK *1936:A 4.82863e-05
31 *2383:A *1936:A 2.75145e-05
32 *2383:A *2042:A 2.49909e-05
33 *465:135 *514:18 0
34 *509:26 *2047:C 0
35 *509:36 *514:18 0.000124895
36 *510:57 *514:18 5.68801e-05
*RES
1 *2326:Q *514:10 10.695 
2 *514:10 *514:12 1.635 
3 *514:12 *514:18 7.01 
4 *514:18 *2417:A 1.6 
5 *514:18 *2047:C 10.835 
6 *514:12 *1936:A 4.05 
7 *514:10 *2042:A 12.135 
*END

*D_NET *515 0.000841411
*CONN
*I *2067:A I *D sky130_fd_sc_hd__or2_1
*I *2433:X O *D sky130_fd_sc_hd__clkbuf_1
*CAP
1 *2067:A 0.000405687
2 *2433:X 0.000405687
3 *733:DIODE *2067:A 3.00381e-05
4 *8:11 *2067:A 0
*RES
1 *2433:X *2067:A 12.705 
*END

*D_NET *516 0.000333385
*CONN
*I *2067:B I *D sky130_fd_sc_hd__or2_1
*I *2434:X O *D sky130_fd_sc_hd__clkbuf_1
*CAP
1 *2067:B 0.00014064
2 *2434:X 0.00014064
3 *15:11 *2067:B 5.21046e-05
4 *353:10 *2067:B 0
*RES
1 *2434:X *2067:B 9.465 
*END

*D_NET *517 0.000793648
*CONN
*I *2312:D I *D sky130_fd_sc_hd__dfrtp_1
*I *2405:X O *D sky130_fd_sc_hd__dlygate4sd3_1
*CAP
1 *2312:D 0.000197817
2 *2405:X 0.000197817
3 *2312:D *637:29 0.000118513
4 *2312:CLK *2312:D 4.22574e-05
5 *2339:CLK *2312:D 0.000237243
*RES
1 *2405:X *2312:D 10.755 
*END

*D_NET *518 0.00135867
*CONN
*I *2023:A I *D sky130_fd_sc_hd__and3_1
*I *2406:X O *D sky130_fd_sc_hd__dlygate4sd3_1
*CAP
1 *2023:A 0.000387626
2 *2406:X 0.000387626
3 *2023:A *2024:B 9.30717e-05
4 *2023:A *617:54 0.000195399
5 *2289:D *2023:A 0.00018294
6 *2296:CLK *2023:A 0.00011201
*RES
1 *2406:X *2023:A 14.055 
*END

*D_NET *519 0.00219037
*CONN
*I *2025:A I *D sky130_fd_sc_hd__and3_1
*I *2407:X O *D sky130_fd_sc_hd__dlygate4sd3_1
*CAP
1 *2025:A 0.000715822
2 *2407:X 0.000715822
3 *2025:A *2486:A 2.09749e-05
4 *2025:A *584:22 1.34907e-05
5 *2141:B *2025:A 7.06865e-05
6 *2331:CLK *2025:A 2.49909e-05
7 *2331:D *2025:A 0.000195309
8 *2367:A *2025:A 0.000121094
9 *2407:A *2025:A 0.000312176
*RES
1 *2407:X *2025:A 17.1225 
*END

*D_NET *520 0.000238846
*CONN
*I *2018:A I *D sky130_fd_sc_hd__and3_1
*I *2408:X O *D sky130_fd_sc_hd__dlygate4sd3_1
*CAP
1 *2018:A 0.000119423
2 *2408:X 0.000119423
3 *2291:D *2018:A 0
*RES
1 *2408:X *2018:A 9.09 
*END

*D_NET *521 0.000587815
*CONN
*I *1933:A I *D sky130_fd_sc_hd__inv_2
*I *2409:X O *D sky130_fd_sc_hd__dlygate4sd3_1
*CAP
1 *1933:A 0.000137373
2 *2409:X 0.000137373
3 *1933:A *1978:B2 0.000123225
4 *1933:A *621:36 5.12942e-05
5 *430:10 *1933:A 0.000138551
*RES
1 *2409:X *1933:A 9.975 
*END

*D_NET *522 0.00355165
*CONN
*I *2009:A I *D sky130_fd_sc_hd__and3_1
*I *2216:B1 I *D sky130_fd_sc_hd__a21oi_1
*I *2410:X O *D sky130_fd_sc_hd__dlygate4sd3_1
*CAP
1 *2009:A 0.000253218
2 *2216:B1 0.000860506
3 *2410:X 4.16082e-05
4 *522:6 0.00115533
5 *2009:A *2010:A 0
6 *2179:A *2216:B1 9.30787e-05
7 *2215:A1 *2216:B1 0.000184858
8 *2283:CLK *2009:A 0
9 *2410:A *522:6 3.64998e-06
10 *2426:A *2009:A 2.92496e-05
11 *2426:A *2216:B1 0.000197269
12 *484:10 *2009:A 7.5416e-05
13 *484:14 *2216:B1 2.17931e-05
14 *484:14 *522:6 1.19928e-05
15 *485:14 *2216:B1 0.000615152
16 *489:75 *2216:B1 8.53113e-06
*RES
1 *2410:X *522:6 2.05 
2 *522:6 *2216:B1 17.525 
3 *522:6 *2009:A 10.04 
*END

*D_NET *523 0.00105074
*CONN
*I *1931:A I *D sky130_fd_sc_hd__inv_2
*I *2411:X O *D sky130_fd_sc_hd__dlygate4sd3_1
*CAP
1 *1931:A 0.000276992
2 *2411:X 0.000276992
3 *1931:A *2218:A1 0
4 *2357:CLK *1931:A 0.00012657
5 *2357:D *1931:A 0.000228576
6 *2426:A *1931:A 0
7 *485:10 *1931:A 0.000141606
*RES
1 *2411:X *1931:A 13.08 
*END

*D_NET *524 0.0007683
*CONN
*I *2026:A I *D sky130_fd_sc_hd__and3_1
*I *2412:X O *D sky130_fd_sc_hd__dlygate4sd3_1
*CAP
1 *2026:A 0.000233039
2 *2412:X 0.000233039
3 *2026:A *2144:A 2.86975e-05
4 *2144:B *2026:A 0.000125757
5 *2286:D *2026:A 9.99916e-05
6 *2332:D *2026:A 4.77757e-05
*RES
1 *2412:X *2026:A 11.445 
*END

*D_NET *525 0.000450222
*CONN
*I *2181:A1 I *D sky130_fd_sc_hd__a21oi_1
*I *2413:X O *D sky130_fd_sc_hd__dlygate4sd3_1
*CAP
1 *2181:A1 0.000127771
2 *2413:X 0.000127771
3 *2028:C *2181:A1 0.000122325
4 *471:36 *2181:A1 0
5 *471:42 *2181:A1 7.23533e-05
*RES
1 *2413:X *2181:A1 9.21 
*END

*D_NET *526 0.000208427
*CONN
*I *2014:A I *D sky130_fd_sc_hd__and3_1
*I *2415:X O *D sky130_fd_sc_hd__dlygate4sd3_1
*CAP
1 *2014:A 2.01864e-05
2 *2415:X 2.01864e-05
3 *2014:A *611:83 8.40269e-05
4 *468:49 *2014:A 8.40269e-05
*RES
1 *2415:X *2014:A 3.995 
*END

*D_NET *527 0.000602244
*CONN
*I *2088:A I *D sky130_fd_sc_hd__or4_1
*I *2435:X O *D sky130_fd_sc_hd__clkbuf_1
*CAP
1 *2088:A 0.000234309
2 *2435:X 0.000234309
3 *724:DIODE *2088:A 4.99619e-05
4 *2088:D *2088:A 8.36636e-05
*RES
1 *2435:X *2088:A 7.325 
*END

*D_NET *528 0.00108158
*CONN
*I *2146:A I *D sky130_fd_sc_hd__or2_1
*I *2416:X O *D sky130_fd_sc_hd__dlygate4sd3_1
*CAP
1 *2146:A 0.000497496
2 *2416:X 0.000497496
3 *2146:A *672:DIODE 8.65905e-05
*RES
1 *2416:X *2146:A 10.205 
*END

*D_NET *529 0.00228486
*CONN
*I *2020:A I *D sky130_fd_sc_hd__and3_1
*I *2417:X O *D sky130_fd_sc_hd__dlygate4sd3_1
*CAP
1 *2020:A 0.000468794
2 *2417:X 0.000468794
3 *2020:A *2020:C 1.90327e-05
4 *2020:A *607:63 9.82856e-06
5 *2020:A *611:64 8.65905e-05
6 *2038:C1 *2020:A 0.000237243
7 *2047:D *2020:A 4.9968e-05
8 *2125:C *2020:A 7.89767e-05
9 *2294:D *2020:A 8.65961e-05
10 *336:10 *2020:A 7.44453e-05
11 *510:57 *2020:A 0.000374451
12 *510:59 *2020:A 4.66108e-05
13 *513:12 *2020:A 0.000283528
*RES
1 *2417:X *2020:A 17.205 
*END

*D_NET *530 0.000389751
*CONN
*I *2022:A I *D sky130_fd_sc_hd__and3_1
*I *2418:X O *D sky130_fd_sc_hd__dlygate4sd3_1
*CAP
1 *2022:A 4.6353e-05
2 *2418:X 4.6353e-05
3 *2022:A *610:95 0.000198939
4 *2289:D *2022:A 3.09179e-05
5 *2406:A *2022:A 6.71882e-05
*RES
1 *2418:X *2022:A 5.03 
*END

*D_NET *531 0.00143292
*CONN
*I *2017:A I *D sky130_fd_sc_hd__and3_1
*I *2419:X O *D sky130_fd_sc_hd__dlygate4sd3_1
*CAP
1 *2017:A 0.000534123
2 *2419:X 0.000534123
3 *2017:A *621:64 0
4 *2017:A *621:106 0.000288573
5 *2291:D *2017:A 0
6 *468:138 *2017:A 7.60965e-05
*RES
1 *2419:X *2017:A 16.695 
*END

*D_NET *532 0.000343174
*CONN
*I *2152:A2 I *D sky130_fd_sc_hd__o31a_1
*I *2420:X O *D sky130_fd_sc_hd__dlygate4sd3_1
*CAP
1 *2152:A2 3.56272e-05
2 *2420:X 3.56272e-05
3 *2152:A2 *677:DIODE 2.16833e-05
4 *2152:A2 *1969:B2 4.21973e-05
5 *2152:A2 *2152:B1 8.57024e-05
6 *2152:A3 *2152:A2 0.000122337
*RES
1 *2420:X *2152:A2 4.685 
*END

*D_NET *533 0.00115524
*CONN
*I *2013:A I *D sky130_fd_sc_hd__and3_1
*I *2421:X O *D sky130_fd_sc_hd__dlygate4sd3_1
*CAP
1 *2013:A 0.000317083
2 *2421:X 0.000317083
3 *2013:A *2013:B 3.45588e-05
4 *2013:A *2100:B 9.30787e-05
5 *2013:A *610:34 5.38758e-05
6 *2287:CLK *2013:A 1.0183e-05
7 *2287:D *2013:A 0.000119631
8 *468:57 *2013:A 0.000120655
9 *468:72 *2013:A 4.19967e-05
10 *499:18 *2013:A 9.80032e-06
11 *499:24 *2013:A 3.72916e-05
*RES
1 *2421:X *2013:A 14.13 
*END

*D_NET *534 0.000766006
*CONN
*I *2007:A1 I *D sky130_fd_sc_hd__o221a_1
*I *2422:X O *D sky130_fd_sc_hd__dlygate4sd3_1
*CAP
1 *2007:A1 0.000212895
2 *2422:X 0.000212895
3 *2007:A1 *603:16 8.65905e-05
4 *2008:A1 *2007:A1 0.000107253
5 *2079:A4 *2007:A1 9.50342e-06
6 *489:75 *2007:A1 0
7 *490:65 *2007:A1 0.00013687
*RES
1 *2422:X *2007:A1 11.67 
*END

*D_NET *535 0.00181433
*CONN
*I *2019:A I *D sky130_fd_sc_hd__and3_1
*I *2423:X O *D sky130_fd_sc_hd__dlygate4sd3_1
*CAP
1 *2019:A 0.000410411
2 *2423:X 0.000410411
3 *2019:A *2392:A 3.10613e-05
4 *2019:A *607:53 0.000118527
5 *2041:C *2019:A 8.53113e-06
6 *2054:A2 *2019:A 0
7 *2054:A3 *2019:A 7.47062e-05
8 *400:20 *2019:A 0.000760683
*RES
1 *2423:X *2019:A 16.545 
*END

*D_NET *536 0.000498808
*CONN
*I *1982:A1 I *D sky130_fd_sc_hd__o211a_1
*I *2424:X O *D sky130_fd_sc_hd__dlygate4sd3_1
*CAP
1 *1982:A1 0.000171362
2 *2424:X 0.000171362
3 *1982:A1 *1995:B 1.17409e-05
4 *1982:A1 *608:37 1.03323e-05
5 *1982:A2 *1982:A1 0.000119285
6 *1982:B1 *1982:A1 1.47256e-05
*RES
1 *2424:X *1982:A1 5.645 
*END

*D_NET *537 0.00214146
*CONN
*I *2218:A1 I *D sky130_fd_sc_hd__o21ba_1
*I *2010:A I *D sky130_fd_sc_hd__and3_1
*I *2426:X O *D sky130_fd_sc_hd__dlygate4sd3_1
*CAP
1 *2218:A1 0.000469572
2 *2010:A 0.000450037
3 *2426:X 1.95641e-05
4 *537:6 0.000939173
5 *2010:A *613:148 6.05539e-05
6 *1931:A *2218:A1 0
7 *2009:A *2010:A 0
8 *2218:A2 *2218:A1 0
9 *2426:A *2010:A 9.25488e-05
10 *2426:A *2218:A1 1.70935e-05
11 *2426:A *537:6 3.00381e-05
12 *485:10 *2010:A 6.28765e-05
*RES
1 *2426:X *537:6 2.05 
2 *537:6 *2010:A 13.34 
3 *537:6 *2218:A1 13.01 
*END

*D_NET *538 0.00310032
*CONN
*I *2226:A2 I *D sky130_fd_sc_hd__o21a_1
*I *2436:X O *D sky130_fd_sc_hd__clkbuf_1
*CAP
1 *2226:A2 0.000996287
2 *2436:X 0.000996287
3 *2226:A2 *1937:A 0.000273835
4 *2226:A2 *2226:B1 4.88478e-05
5 *2226:A2 *622:30 0.000431328
6 *654:DIODE *2226:A2 8.65905e-05
7 *725:DIODE *2226:A2 3.00381e-05
8 *2295:D *2226:A2 0.000177297
9 *2362:D *2226:A2 4.89295e-05
10 *170:21 *2226:A2 1.08758e-05
*RES
1 *2436:X *2226:A2 25.74 
*END

*D_NET *539 0.000779139
*CONN
*I *1934:A I *D sky130_fd_sc_hd__inv_2
*I *2437:X O *D sky130_fd_sc_hd__clkbuf_1
*CAP
1 *1934:A 0.000234765
2 *2437:X 0.000234765
3 *1934:A *1962:A_N 6.74079e-05
4 *1934:A *1962:C 9.66106e-05
5 *730:DIODE *1934:A 3.66753e-05
6 *739:DIODE *1934:A 4.99619e-05
7 *21:11 *1934:A 9.58678e-06
8 *60:9 *1934:A 4.93664e-05
9 *324:16 *1934:A 0
*RES
1 *2437:X *1934:A 12.465 
*END

*D_NET *540 0.00760328
*CONN
*I *2157:A1 I *D sky130_fd_sc_hd__o21a_1
*I *2160:C I *D sky130_fd_sc_hd__or3_1
*I *2090:A I *D sky130_fd_sc_hd__or3b_1
*I *2085:A I *D sky130_fd_sc_hd__or4b_1
*I *2155:A2 I *D sky130_fd_sc_hd__o31a_1
*I *1945:A I *D sky130_fd_sc_hd__inv_2
*I *2438:X O *D sky130_fd_sc_hd__dlymetal6s2s_1
*CAP
1 *2157:A1 0
2 *2160:C 9.73757e-05
3 *2090:A 6.96951e-05
4 *2085:A 0
5 *2155:A2 0.000314433
6 *1945:A 0
7 *2438:X 0.000205254
8 *540:69 0.000565351
9 *540:52 0.0010358
10 *540:27 0.00112509
11 *540:21 0.000308712
12 *540:10 0.00034083
13 *2090:A *2084:B 4.66108e-05
14 *2090:A *554:44 4.5783e-05
15 *2155:A2 *2088:B 0.000116853
16 *2155:A2 *2088:C 3.64998e-06
17 *2160:C *554:32 0.000180682
18 *2160:C *554:44 7.1301e-06
19 *2160:C *601:18 4.66108e-05
20 *540:10 *579:16 7.37195e-05
21 *540:10 *579:26 4.18603e-06
22 *540:10 *601:18 0
23 *540:21 *1944:A 4.7043e-05
24 *540:21 *579:26 0
25 *540:21 *601:18 0
26 *540:27 *579:26 4.59493e-05
27 *540:52 *2156:B1 6.52265e-05
28 *540:52 *2158:A1 4.82919e-05
29 *540:69 *2085:D_N 4.43871e-06
30 *540:69 *615:177 0.000421956
31 *727:DIODE *540:10 0
32 *2076:A3 *540:69 0
33 *2085:B *2090:A 7.06865e-05
34 *2085:B *540:52 1.08758e-05
35 *2085:C *540:52 0.00015896
36 *2089:C *2155:A2 5.11148e-06
37 *2089:C *540:27 1.23331e-05
38 *2089:C *540:52 0.000160658
39 *2091:A2 *540:52 1.85674e-05
40 *2093:A2 *2090:A 4.82919e-05
41 *2155:A3 *2155:A2 3.00381e-05
42 *2156:A1 *540:52 0.000352156
43 *2156:A2 *540:52 4.82919e-05
44 *2161:A3 *540:69 0
45 *2164:A1 *540:52 8.5002e-05
46 *2164:A1 *540:69 0.000155928
47 *2164:A3 *540:52 0.000340209
48 *2165:B1 *540:52 8.40213e-05
49 *2438:A *540:10 0
50 *2456:A *540:21 0
51 *2456:A *540:27 0
52 *6:11 *2155:A2 0
53 *286:63 *2160:C 2.49909e-05
54 *319:10 *2090:A 0.000158297
55 *319:10 *2160:C 0.000199734
56 *367:10 *540:69 0.000123225
57 *375:12 *2155:A2 9.37731e-05
58 *375:12 *540:27 8.53113e-06
59 *375:12 *540:52 0.000146313
60 *375:12 *540:69 4.66108e-05
*RES
1 *2438:X *540:10 7.23 
2 *540:10 *1945:A 3.6 
3 *540:10 *540:21 2.595 
4 *540:21 *540:27 3.21 
5 *540:27 *2155:A2 9.885 
6 *540:27 *540:52 20.445 
7 *540:52 *2085:A 1.6 
8 *540:52 *540:69 14.025 
9 *540:69 *2090:A 5.94 
10 *540:69 *2160:C 6.45 
11 *540:21 *2157:A1 3.6 
*END

*D_NET *541 0.00609526
*CONN
*I *2027:B I *D sky130_fd_sc_hd__and3_1
*I *1968:B I *D sky130_fd_sc_hd__or2_2
*I *1943:A I *D sky130_fd_sc_hd__inv_2
*I *1965:B I *D sky130_fd_sc_hd__nor2_1
*I *1967:B I *D sky130_fd_sc_hd__nor2_2
*I *2439:X O *D sky130_fd_sc_hd__clkbuf_2
*CAP
1 *2027:B 3.58965e-05
2 *1968:B 0.000113131
3 *1943:A 1.30746e-05
4 *1965:B 0.000111001
5 *1967:B 0
6 *2439:X 0.000167274
7 *541:36 0.000126205
8 *541:18 0.000266588
9 *541:12 0.00119029
10 *541:10 0.00123788
11 *1965:B *1981:A1 0.000183512
12 *1965:B *608:20 6.1357e-05
13 *1968:B *1968:A 0.00012657
14 *1968:B *542:82 4.82919e-05
15 *541:10 *2027:C 4.39001e-05
16 *541:10 *542:10 7.21296e-06
17 *541:10 *619:64 9.4087e-05
18 *541:10 *622:121 0.000243094
19 *541:12 *2027:C 5.20968e-05
20 *541:12 *2196:B1 0
21 *541:12 *2234:A 0
22 *541:12 *542:12 6.02104e-05
23 *541:12 *542:16 8.09021e-06
24 *541:12 *542:20 7.46533e-05
25 *541:12 *542:82 2.46007e-05
26 *541:12 *619:64 0
27 *541:18 *1967:A 0.000136877
28 *541:18 *542:20 4.13249e-05
29 *728:DIODE *541:10 2.11084e-05
30 *1961:A *541:18 0
31 *1983:A *541:12 0
32 *1985:A2 *541:12 0.000155928
33 *1985:A2 *541:18 1.67165e-05
34 *2193:A *541:12 0
35 *2194:A2 *541:12 0
36 *2195:A *541:12 0.000113797
37 *2274:D *541:12 0.00079546
38 *2349:D *541:12 0
39 *2393:A *1965:B 0.000198939
40 *2439:A *541:10 1.61831e-05
41 *281:14 *1943:A 1.91597e-05
42 *281:14 *1968:B 0.000158072
43 *433:8 *541:12 0
44 *471:108 *2027:B 2.75145e-05
45 *488:37 *1943:A 4.82919e-05
46 *488:37 *1968:B 5.68717e-05
*RES
1 *2439:X *541:10 8.19 
2 *541:10 *541:12 23.055 
3 *541:12 *541:18 4.85 
4 *541:18 *1967:B 1.6 
5 *541:18 *1965:B 5.185 
6 *541:12 *541:36 2 
7 *541:36 *1943:A 2.05 
8 *541:36 *1968:B 4.48 
9 *541:10 *2027:B 4.05 
*END

*D_NET *542 0.010715
*CONN
*I *2027:A I *D sky130_fd_sc_hd__and3_1
*I *1971:B I *D sky130_fd_sc_hd__and3_1
*I *1974:B I *D sky130_fd_sc_hd__and3_1
*I *1983:B I *D sky130_fd_sc_hd__and3_1
*I *1968:A I *D sky130_fd_sc_hd__or2_2
*I *1942:A I *D sky130_fd_sc_hd__inv_2
*I *1967:A I *D sky130_fd_sc_hd__nor2_2
*I *1964:A I *D sky130_fd_sc_hd__nor2_2
*I *1977:B I *D sky130_fd_sc_hd__and3_1
*I *1966:B I *D sky130_fd_sc_hd__and3_1
*I *2440:X O *D sky130_fd_sc_hd__buf_2
*CAP
1 *2027:A 8.41504e-05
2 *1971:B 0.000315699
3 *1974:B 0.000137119
4 *1983:B 8.13144e-05
5 *1968:A 5.23933e-05
6 *1942:A 0
7 *1967:A 0.000140593
8 *1964:A 8.09419e-05
9 *1977:B 0
10 *1966:B 0.000328944
11 *2440:X 0.000380463
12 *542:82 0.000199095
13 *542:74 0.000398183
14 *542:24 0.000365619
15 *542:22 0.000232277
16 *542:20 0.000372891
17 *542:16 0.000402246
18 *542:14 0.000283722
19 *542:12 0.00076461
20 *542:10 0.000881362
21 *1966:B *1977:C 1.91114e-05
22 *1966:B *608:65 2.54431e-05
23 *1971:B *1973:B1 4.66742e-05
24 *1971:B *608:8 0.0001249
25 *1983:B *560:36 8.34745e-05
26 *2027:A *2027:C 3.49688e-05
27 *542:10 *2027:C 0.00015829
28 *542:10 *2462:A 0
29 *542:10 *2494:A 6.02123e-05
30 *542:10 *619:51 0.000164874
31 *542:10 *619:64 0.000237243
32 *542:12 *2027:C 2.92496e-05
33 *542:74 *560:36 0.000197105
34 *542:82 *614:48 1.7635e-05
35 *1961:A *1964:A 7.63047e-05
36 *1961:A *542:12 0.000327732
37 *1961:A *542:14 2.37321e-05
38 *1961:A *542:16 0.000153046
39 *1961:A *542:20 0.000116823
40 *1968:B *1968:A 0.00012657
41 *1968:B *542:82 4.82919e-05
42 *1973:A1 *1971:B 5.4155e-06
43 *1974:A *1974:B 2.31329e-05
44 *1976:A2 *1964:A 0
45 *1979:A1 *1966:B 4.82919e-05
46 *1983:A *542:82 0
47 *1985:A2 *1967:A 2.97204e-05
48 *1985:A2 *542:82 7.46074e-05
49 *2028:C *2027:A 1.08758e-05
50 *2272:D *1966:B 0.00012657
51 *2274:D *542:12 0.00111398
52 *2274:D *542:14 7.23602e-05
53 *2274:D *542:16 0.00036532
54 *2393:A *1967:A 2.97561e-05
55 *280:6 *1968:A 9.66021e-05
56 *280:25 *1968:A 5.83121e-06
57 *281:14 *542:82 0.000112823
58 *471:8 *542:12 7.36562e-05
59 *471:19 *542:12 0.000105849
60 *471:108 *2027:A 0.000158072
61 *471:108 *542:10 1.1561e-05
62 *471:108 *542:12 8.89829e-05
63 *488:16 *542:22 1.4399e-05
64 *488:16 *542:24 2.65814e-06
65 *488:37 *1967:A 6.71882e-05
66 *488:37 *1968:A 1.12578e-05
67 *488:37 *542:22 5.57027e-05
68 *488:37 *542:82 2.56106e-05
69 *491:6 *1971:B 5.85254e-05
70 *541:10 *542:10 7.21296e-06
71 *541:12 *542:12 6.02104e-05
72 *541:12 *542:16 8.09021e-06
73 *541:12 *542:20 7.46533e-05
74 *541:12 *542:82 2.46007e-05
75 *541:18 *1967:A 0.000136877
76 *541:18 *542:20 4.13249e-05
*RES
1 *2440:X *542:10 10.065 
2 *542:10 *542:12 14.895 
3 *542:12 *542:14 0.87 
4 *542:14 *542:16 4.44 
5 *542:16 *542:20 5.165 
6 *542:20 *542:22 1.485 
7 *542:22 *542:24 0.45 
8 *542:24 *1966:B 6.325 
9 *542:24 *1977:B 1.6 
10 *542:22 *1964:A 7.235 
11 *542:20 *1967:A 8.375 
12 *542:16 *542:74 4.64 
13 *542:74 *542:82 7.105 
14 *542:82 *1942:A 1.6 
15 *542:82 *1968:A 3.43 
16 *542:74 *1983:B 2.74 
17 *542:14 *1974:B 5.085 
18 *542:12 *1971:B 8.91 
19 *542:10 *2027:A 5.445 
*END

*D_NET *543 0.0004197
*CONN
*I *1962:B I *D sky130_fd_sc_hd__and3b_1
*I *2441:X O *D sky130_fd_sc_hd__clkbuf_1
*CAP
1 *1962:B 0.00020985
2 *2441:X 0.00020985
*RES
1 *2441:X *1962:B 5.375 
*END

*D_NET *544 0.00021749
*CONN
*I *2029:A I *D sky130_fd_sc_hd__and2_1
*I *2442:X O *D sky130_fd_sc_hd__clkbuf_1
*CAP
1 *2029:A 9.37259e-05
2 *2442:X 9.37259e-05
3 *731:DIODE *2029:A 3.00381e-05
*RES
1 *2442:X *2029:A 4.7 
*END

*D_NET *545 0.000502324
*CONN
*I *2030:A I *D sky130_fd_sc_hd__and2_1
*I *2443:X O *D sky130_fd_sc_hd__clkbuf_1
*CAP
1 *2030:A 0.000129877
2 *2443:X 0.000129877
3 *2030:A *1962:A_N 1.15688e-05
4 *726:DIODE *2030:A 2.0514e-05
5 *730:DIODE *2030:A 3.00381e-05
6 *732:DIODE *2030:A 0.000180448
*RES
1 *2443:X *2030:A 9.72 
*END

*D_NET *546 0.00510418
*CONN
*I *2160:B I *D sky130_fd_sc_hd__or3_1
*I *2092:A1 I *D sky130_fd_sc_hd__a21bo_1
*I *2084:B I *D sky130_fd_sc_hd__nor2_1
*I *1944:A I *D sky130_fd_sc_hd__inv_2
*I *2444:X O *D sky130_fd_sc_hd__buf_1
*CAP
1 *2160:B 8.72103e-05
2 *2092:A1 0
3 *2084:B 0.000148926
4 *1944:A 8.14802e-05
5 *2444:X 0
6 *546:31 0.000314645
7 *546:23 0.00111794
8 *546:4 0.00094649
9 *1944:A *601:18 7.23533e-05
10 *2084:B *554:44 0.000155491
11 *2084:B *621:203 3.73028e-05
12 *2160:B *601:18 2.49909e-05
13 *546:23 *601:18 0.000902439
14 *741:DIODE *546:23 0.000124895
15 *2090:A *2084:B 4.66108e-05
16 *2090:C_N *2084:B 8.65905e-05
17 *2091:C1 *2084:B 1.91597e-05
18 *2092:A2 *2084:B 4.82919e-05
19 *2093:A2 *2084:B 5.8825e-05
20 *2094:A *2160:B 7.90356e-06
21 *2094:A *546:31 1.71013e-05
22 *2154:B *546:23 4.82863e-05
23 *2160:A *2160:B 7.47215e-05
24 *2161:A3 *546:23 4.82863e-05
25 *2161:A3 *546:31 0.000262012
26 *2162:A_N *2084:B 2.0514e-05
27 *2456:A *1944:A 4.18603e-06
28 *286:69 *546:31 4.51081e-05
29 *319:10 *546:31 0
30 *367:10 *546:31 9.37731e-05
31 *367:12 *546:31 2.92496e-05
32 *367:36 *2084:B 4.66108e-05
33 *370:6 *2084:B 8.57406e-05
34 *540:21 *1944:A 4.7043e-05
*RES
1 *2444:X *546:4 1.6 
2 *546:4 *1944:A 7.43 
3 *546:4 *546:23 17.99 
4 *546:23 *546:31 6.23 
5 *546:31 *2084:B 5.86 
6 *546:31 *2092:A1 1.6 
7 *546:23 *2160:B 5.175 
*END

*D_NET *547 0.000354836
*CONN
*I *2031:A I *D sky130_fd_sc_hd__and2_1
*I *2445:X O *D sky130_fd_sc_hd__clkbuf_1
*CAP
1 *2031:A 0.000140408
2 *2445:X 0.000140408
3 *2031:A *2467:A 5.30673e-05
4 *83:13 *2031:A 2.09527e-05
5 *324:24 *2031:A 0
*RES
1 *2445:X *2031:A 9.72 
*END

*D_NET *548 0.000192911
*CONN
*I *2032:A I *D sky130_fd_sc_hd__and2_1
*I *2446:X O *D sky130_fd_sc_hd__clkbuf_1
*CAP
1 *2032:A 6.27515e-05
2 *2446:X 6.27515e-05
3 *86:13 *2032:A 0
4 *324:16 *2032:A 6.18754e-05
5 *324:22 *2032:A 5.53249e-06
*RES
1 *2446:X *2032:A 8.58 
*END

*D_NET *549 0.000404167
*CONN
*I *2033:A I *D sky130_fd_sc_hd__and2_1
*I *2447:X O *D sky130_fd_sc_hd__clkbuf_1
*CAP
1 *2033:A 0.000172591
2 *2447:X 0.000172591
3 *2306:D *2033:A 3.86529e-05
4 *324:22 *2033:A 2.03321e-05
*RES
1 *2447:X *2033:A 9.72 
*END

*D_NET *550 0.00162292
*CONN
*I *2402:A I *D sky130_fd_sc_hd__buf_2
*I *2448:X O *D sky130_fd_sc_hd__clkbuf_1
*CAP
1 *2402:A 0.000565237
2 *2448:X 0.000565237
3 *2402:A *2398:A 3.39151e-05
4 *2402:A *2399:A 7.47284e-05
5 *2402:A *2462:A 0.0001249
6 *2402:A *564:8 5.35969e-06
7 *2402:A *622:14 7.06865e-05
8 *740:DIODE *2402:A 0.0001249
9 *2301:CLK *2402:A 5.05521e-05
10 *2301:RESET_B *2402:A 7.40482e-06
*RES
1 *2448:X *2402:A 15.255 
*END

*D_NET *551 0.00086545
*CONN
*I *2027:C I *D sky130_fd_sc_hd__and3_1
*I *2449:X O *D sky130_fd_sc_hd__clkbuf_1
*CAP
1 *2027:C 0.00012327
2 *2449:X 0.00012327
3 *2027:C *2494:A 0.000120655
4 *2027:C *622:121 0.000158066
5 *738:DIODE *2027:C 2.16833e-05
6 *2027:A *2027:C 3.49688e-05
7 *541:10 *2027:C 4.39001e-05
8 *541:12 *2027:C 5.20968e-05
9 *542:10 *2027:C 0.00015829
10 *542:12 *2027:C 2.92496e-05
*RES
1 *2449:X *2027:C 11.16 
*END

*D_NET *552 0.000784249
*CONN
*I *1962:C I *D sky130_fd_sc_hd__and3b_1
*I *2450:X O *D sky130_fd_sc_hd__clkbuf_1
*CAP
1 *1962:C 0.000255227
2 *2450:X 0.000255227
3 *1962:C *622:14 0
4 *1934:A *1962:C 9.66106e-05
5 *2301:CLK *1962:C 0
6 *2303:D *1962:C 9.50342e-06
7 *273:6 *1962:C 5.36384e-06
8 *324:16 *1962:C 0.000162318
*RES
1 *2450:X *1962:C 11.265 
*END

*D_NET *553 0.00123724
*CONN
*I *2028:A I *D sky130_fd_sc_hd__and3_1
*I *1963:A_N I *D sky130_fd_sc_hd__and2b_1
*I *2451:X O *D sky130_fd_sc_hd__clkbuf_1
*CAP
1 *2028:A 0
2 *1963:A_N 0.000126369
3 *2451:X 0.000202871
4 *553:10 0.00032924
5 *1963:A_N *1962:A_N 0
6 *553:10 *1962:A_N 0
7 *553:10 *2465:A 0
8 *553:10 *622:14 5.61507e-05
9 *726:DIODE *1963:A_N 4.80285e-05
10 *2301:CLK *1963:A_N 0.000201407
11 *2301:CLK *553:10 0.00016163
12 *131:11 *553:10 5.05437e-05
13 *137:12 *1963:A_N 6.10014e-05
*RES
1 *2451:X *553:10 7.56 
2 *553:10 *1963:A_N 6.795 
3 *553:10 *2028:A 3.6 
*END

*D_NET *554 0.0131233
*CONN
*I *2005:B2 I *D sky130_fd_sc_hd__a22o_1
*I *2094:B I *D sky130_fd_sc_hd__or4_1
*I *2081:A2 I *D sky130_fd_sc_hd__a31o_1
*I *2156:B1 I *D sky130_fd_sc_hd__o21a_1
*I *2165:A1 I *D sky130_fd_sc_hd__a31o_1
*I *2085:D_N I *D sky130_fd_sc_hd__or4b_1
*I *2219:A1 I *D sky130_fd_sc_hd__o21a_1
*I *2459:A I *D sky130_fd_sc_hd__buf_2
*I *2365:A I *D sky130_fd_sc_hd__clkbuf_1
*I *1957:Y O *D sky130_fd_sc_hd__nor3_4
*CAP
1 *2005:B2 0.000289837
2 *2094:B 8.5393e-05
3 *2081:A2 0
4 *2156:B1 0.000126519
5 *2165:A1 0
6 *2085:D_N 0.000152599
7 *2219:A1 0
8 *2459:A 0.000146149
9 *2365:A 1.90984e-05
10 *1957:Y 0.00012657
11 *554:123 0.000461436
12 *554:96 0.000508879
13 *554:59 0.000784636
14 *554:44 0.000583902
15 *554:32 0.000640089
16 *554:28 0.000392071
17 *554:10 0.00102467
18 *554:6 0.000985989
19 *2365:A *2236:A 4.00541e-06
20 *2459:A *2236:A 5.25548e-05
21 *554:10 *2236:A 3.72916e-05
22 *554:10 *620:62 4.43682e-05
23 *554:10 *620:136 6.27529e-05
24 *554:44 *2053:B 0
25 *554:96 *2076:A1 3.21081e-06
26 *554:96 *2155:A1 1.68017e-05
27 *1957:A *554:6 6.1357e-05
28 *1957:A *554:10 0.00015639
29 *2003:A1 *2005:B2 0
30 *2003:A1 *554:123 0
31 *2005:A1 *2005:B2 4.99619e-05
32 *2076:A2 *554:96 2.78469e-05
33 *2076:A3 *2085:D_N 6.71123e-05
34 *2076:B1 *554:96 0
35 *2078:A *554:59 3.96737e-05
36 *2081:A3 *2005:B2 0.000129047
37 *2081:A3 *554:32 0.000723671
38 *2081:A3 *554:123 0.000174512
39 *2082:A *2156:B1 1.65192e-05
40 *2084:B *554:44 0.000155491
41 *2085:B *554:44 2.92496e-05
42 *2085:C *2085:D_N 8.49205e-05
43 *2090:A *554:44 4.5783e-05
44 *2090:C_N *554:32 2.05661e-05
45 *2090:C_N *554:44 0.000136877
46 *2091:C1 *554:44 0.000290143
47 *2094:A *554:123 1.5914e-05
48 *2156:A1 *2156:B1 0.000237243
49 *2160:C *554:32 0.000180682
50 *2160:C *554:44 7.1301e-06
51 *2161:A1 *554:44 8.26457e-05
52 *2161:A1 *554:59 0
53 *2161:A2 *2085:D_N 1.88904e-05
54 *2161:A2 *554:59 0.00015639
55 *2161:A2 *554:96 0.000179177
56 *2161:A3 *554:59 5.53249e-06
57 *2161:B1 *554:59 8.40213e-05
58 *2161:B2 *554:96 0
59 *2164:A1 *2085:D_N 2.69188e-05
60 *2164:A1 *2156:B1 8.53113e-06
61 *2164:A1 *554:59 3.9442e-05
62 *2164:A3 *2085:D_N 0.000114492
63 *2164:A3 *554:96 4.43871e-06
64 *2165:B1 *2156:B1 0.000116158
65 *2165:B1 *554:96 9.50342e-06
66 *2166:C *2156:B1 8.97915e-05
67 *2166:C *554:96 2.04591e-05
68 *2219:A2 *554:44 0.000114492
69 *2219:A2 *554:59 4.82919e-05
70 *2219:B1 *554:59 4.60584e-05
71 *295:101 *2005:B2 0.000581986
72 *316:16 *2094:B 4.12959e-05
73 *316:28 *554:10 0.000658234
74 *319:10 *554:32 0.000188453
75 *319:10 *554:44 0.000392589
76 *319:12 *554:44 5.16418e-05
77 *319:76 *554:32 0.000127924
78 *319:76 *554:123 3.86607e-05
79 *363:10 *554:59 2.97004e-06
80 *363:19 *554:59 4.91758e-05
81 *363:19 *554:96 9.82856e-06
82 *367:36 *2156:B1 8.08153e-06
83 *370:6 *554:44 4.66108e-05
84 *375:12 *2085:D_N 8.49205e-05
85 *375:12 *2156:B1 0.000349592
86 *379:8 *2094:B 2.75229e-05
87 *461:10 *554:59 3.00381e-05
88 *540:52 *2156:B1 6.52265e-05
89 *540:69 *2085:D_N 4.43871e-06
*RES
1 *1957:Y *554:6 3.085 
2 *554:6 *554:10 15.3 
3 *554:10 *2365:A 1.96 
4 *554:10 *2459:A 4.135 
5 *554:6 *554:28 2 
6 *554:28 *554:32 9.48 
7 *554:32 *554:44 15.855 
8 *554:44 *2219:A1 1.6 
9 *554:44 *554:59 10.06 
10 *554:59 *2085:D_N 9.095 
11 *554:59 *554:96 5.36067 
12 *554:96 *2165:A1 3.6 
13 *554:96 *2156:B1 8.955 
14 *554:32 *2081:A2 3.6 
15 *554:28 *554:123 2.145 
16 *554:123 *2094:B 4.74 
17 *554:123 *2005:B2 10.515 
*END

*D_NET *555 0.0085579
*CONN
*I *2420:A I *D sky130_fd_sc_hd__dlygate4sd3_1
*I *1990:A1 I *D sky130_fd_sc_hd__a22o_1
*I *1953:A1 I *D sky130_fd_sc_hd__o21ba_1
*I *2460:A I *D sky130_fd_sc_hd__buf_2
*I *2339:Q O *D sky130_fd_sc_hd__dfxtp_1
*CAP
1 *2420:A 0.000157176
2 *1990:A1 0
3 *1953:A1 1.87017e-05
4 *2460:A 0.00062498
5 *2339:Q 0
6 *555:20 0.0020009
7 *555:10 0.00202502
8 *555:4 0.000824983
9 *2420:A *615:245 6.52265e-05
10 *2460:A *1953:A2 8.41307e-05
11 *2460:A *1953:B1_N 4.27069e-05
12 *2460:A *2233:A 0.000733793
13 *2460:A *618:91 4.37569e-05
14 *555:10 *1975:B2 9.80032e-06
15 *555:10 *1990:B1 9.50342e-06
16 *555:10 *556:16 0.00013143
17 *555:10 *615:245 4.66826e-05
18 *555:20 *1972:A1 0.000126028
19 *555:20 *1972:B2 6.83629e-05
20 *555:20 *1990:B1 7.4027e-05
21 *555:20 *618:91 3.78518e-05
22 *555:20 *639:10 5.062e-06
23 *1961:A *555:10 4.38051e-05
24 *1961:A *555:20 0.000247574
25 *1972:B1 *555:20 2.30292e-05
26 *1984:A2 *555:20 1.94723e-05
27 *1987:B2 *2420:A 6.28843e-05
28 *1988:A2 *555:20 8.53113e-06
29 *1990:B2 *555:10 0.000270796
30 *1993:A1 *2420:A 0
31 *2313:RESET_B *2460:A 1.08758e-05
32 *2313:RESET_B *555:20 7.39651e-05
33 *2339:D *555:10 9.03376e-05
34 *2414:A *2460:A 0.000231787
35 *273:42 *555:20 3.52139e-06
36 *292:59 *555:10 9.46776e-05
37 *292:59 *555:20 4.50153e-05
38 *295:43 *555:20 0.000201503
*RES
1 *2339:Q *555:4 1.6 
2 *555:4 *555:10 11 
3 *555:10 *555:20 20.66 
4 *555:20 *2460:A 13.795 
5 *555:20 *1953:A1 1.96 
6 *555:10 *1990:A1 3.6 
7 *555:4 *2420:A 8.12 
*END

*D_NET *556 0.0124632
*CONN
*I *1946:A2 I *D sky130_fd_sc_hd__o21ba_1
*I *2461:A I *D sky130_fd_sc_hd__buf_2
*I *1999:A1 I *D sky130_fd_sc_hd__a22o_1
*I *2145:A1 I *D sky130_fd_sc_hd__o21a_1
*I *2333:Q O *D sky130_fd_sc_hd__dfxtp_1
*CAP
1 *1946:A2 0
2 *2461:A 0.00153268
3 *1999:A1 0.000822759
4 *2145:A1 0
5 *2333:Q 0.000100725
6 *556:48 0.00267052
7 *556:16 0.00108735
8 *556:8 0.00150315
9 *1999:A1 *1969:B2 0
10 *1999:A1 *1999:B1 1.19928e-05
11 *1999:A1 *615:239 8.49205e-05
12 *1999:A1 *620:18 0.000113196
13 *1999:A1 *620:20 4.11198e-05
14 *1999:A1 *620:26 3.18219e-05
15 *2461:A *2262:A 3.1835e-05
16 *2461:A *2314:D 6.31104e-05
17 *2461:A *2363:D 7.97845e-05
18 *556:8 *634:63 0.000102411
19 *556:16 *615:239 0.000113237
20 *556:16 *615:245 0.000351268
21 *556:48 *1946:A1 0.000353049
22 *556:48 *1978:A1 0.000349153
23 *556:48 *1978:B2 0.000545595
24 *556:48 *634:63 6.81237e-05
25 *1954:B1_N *2461:A 0.000201422
26 *1978:A2 *556:48 8.65961e-05
27 *1979:A2 *556:48 9.80032e-06
28 *1982:A2 *1999:A1 0.000109449
29 *1990:B2 *556:8 1.52184e-05
30 *1990:B2 *556:16 8.49205e-05
31 *1990:B2 *556:48 0.000166003
32 *1992:A1 *1999:A1 5.83121e-06
33 *1993:A1 *1999:A1 0
34 *1995:A *1999:A1 1.17409e-05
35 *1999:B2 *1999:A1 4.82863e-05
36 *2073:A *1999:A1 0.000115187
37 *2073:B *1999:A1 7.21619e-05
38 *2273:D *1999:A1 0
39 *2305:D *2461:A 3.69909e-05
40 *2305:RESET_B *2461:A 5.64699e-05
41 *2306:CLK *2461:A 0.000349592
42 *2316:CLK *1999:A1 0
43 *2316:D *1999:A1 5.51158e-05
44 *2333:D *556:16 2.75145e-05
45 *2338:CLK *1999:A1 0
46 *2431:A *2461:A 0.000283168
47 *2431:A *556:48 2.04923e-05
48 *280:68 *1999:A1 0.000265276
49 *295:16 *556:48 5.64202e-05
50 *334:68 *556:8 0
51 *470:37 *556:48 1.08758e-05
52 *472:59 *1999:A1 0.000185393
53 *555:10 *556:16 0.00013143
*RES
1 *2333:Q *556:8 5.745 
2 *556:8 *556:16 8.345 
3 *556:16 *2145:A1 1.6 
4 *556:16 *1999:A1 21.59 
5 *556:8 *556:48 25.805 
6 *556:48 *2461:A 28.25 
7 *556:48 *1946:A2 1.6 
*END

*D_NET *557 0.00921605
*CONN
*I *2053:C I *D sky130_fd_sc_hd__or3_1
*I *2220:B1_N I *D sky130_fd_sc_hd__a21boi_1
*I *2222:A2 I *D sky130_fd_sc_hd__o211a_1
*I *2452:X O *D sky130_fd_sc_hd__buf_1
*CAP
1 *2053:C 0.000113223
2 *2220:B1_N 7.73986e-05
3 *2222:A2 0.000380862
4 *2452:X 0.000746883
5 *557:22 0.00171967
6 *557:10 0.00212152
7 *2053:C *2463:A 0.000286649
8 *2053:C *607:53 0
9 *2220:B1_N *2053:B 0
10 *2222:A2 *641:14 0
11 *557:10 *2463:A 0.00149983
12 *557:10 *581:14 0.00015829
13 *557:10 *582:14 2.10034e-05
14 *557:10 *607:63 0
15 *557:10 *611:76 0
16 *2047:C *557:22 5.05437e-05
17 *2047:D *557:10 4.9968e-05
18 *2054:B1 *2053:C 0
19 *2123:A *557:22 0.000151012
20 *2127:A_N *557:22 4.41506e-05
21 *2221:A2 *2222:A2 0
22 *2222:B1 *2222:A2 9.50342e-06
23 *2222:C1 *2220:B1_N 0
24 *2222:C1 *2222:A2 1.53032e-05
25 *2223:B *2222:A2 0
26 *2288:D *557:10 0
27 *2288:RESET_B *557:10 5.37442e-05
28 *4:9 *557:10 9.88723e-05
29 *509:36 *557:22 7.18092e-05
30 *510:57 *557:22 0.000784449
31 *513:10 *2053:C 7.23533e-05
32 *513:12 *2053:C 0.000108329
33 *513:12 *557:10 0.000399687
34 *514:18 *557:22 0.000180997
*RES
1 *2452:X *557:10 23.13 
2 *557:10 *557:22 24.535 
3 *557:22 *2222:A2 12.445 
4 *557:22 *2220:B1_N 4.98 
5 *557:10 *2053:C 7.02 
*END

*D_NET *558 0.00520606
*CONN
*I *2462:A I *D sky130_fd_sc_hd__buf_2
*I *1961:Y O *D sky130_fd_sc_hd__inv_2
*CAP
1 *2462:A 0.00151689
2 *1961:Y 0.00151689
3 *2462:A *2181:B1 0
4 *2462:A *2468:A 9.27495e-05
5 *2462:A *2494:A 0
6 *2462:A *619:19 0.000169596
7 *2462:A *619:51 0.000843153
8 *2462:A *622:121 0.000203924
9 security_breach *2462:A 8.8266e-05
10 wb_ack_o *2462:A 2.59835e-05
11 *740:DIODE *2462:A 0.000202047
12 *2272:RESET_B *2462:A 0.000166346
13 *2402:A *2462:A 0.0001249
14 *2440:A *2462:A 8.57024e-05
15 *131:11 *2462:A 0.00011964
16 *471:36 *2462:A 4.99619e-05
17 *471:108 *2462:A 0
18 *542:10 *2462:A 0
*RES
1 *1961:Y *2462:A 37.65 
*END

*D_NET *559 0.00934073
*CONN
*I *2077:B I *D sky130_fd_sc_hd__nor2_1
*I *2221:A1 I *D sky130_fd_sc_hd__o21ai_1
*I *2463:A I *D sky130_fd_sc_hd__buf_2
*I *2055:A I *D sky130_fd_sc_hd__nand2_1
*I *1959:Y O *D sky130_fd_sc_hd__inv_2
*CAP
1 *2077:B 0
2 *2221:A1 0.000160465
3 *2463:A 0.000933955
4 *2055:A 0.00012025
5 *1959:Y 0
6 *559:34 0.000488231
7 *559:8 0.00175545
8 *559:4 0.00102901
9 *2221:A1 *641:53 0
10 *2463:A *2053:B 7.23533e-05
11 *2463:A *582:14 2.49909e-05
12 *2463:A *607:53 0
13 *559:34 *2220:A1 4.16372e-05
14 *559:34 *2223:A_N 9.53428e-06
15 *559:34 *642:12 1.4389e-05
16 *2053:C *2463:A 0.000286649
17 *2127:A_N *2463:A 0.000330454
18 *2221:A2 *559:34 1.34594e-05
19 *2223:B *2221:A1 4.62396e-05
20 *2223:B *559:34 1.20789e-05
21 *2224:A1 *559:34 0.000145184
22 *2224:B1 *559:34 0.000162311
23 *2294:D *2463:A 0
24 *2359:CLK *2221:A1 1.52184e-05
25 *2359:D *2221:A1 2.75145e-05
26 *2360:CLK *2221:A1 4.82863e-05
27 *2378:A *559:8 0.000160635
28 *289:35 *2055:A 0.000312182
29 *289:35 *559:8 0.000907623
30 *289:35 *559:34 1.12578e-05
31 *363:10 *559:34 0.000241483
32 *462:12 *559:34 1.34503e-05
33 *465:129 *2463:A 6.10014e-05
34 *465:135 *2463:A 0.000395615
35 *468:10 *2463:A 0
36 *468:12 *2463:A 0
37 *468:14 *2463:A 0
38 *468:20 *2463:A 0
39 *557:10 *2463:A 0.00149983
*RES
1 *1959:Y *559:4 1.6 
2 *559:4 *559:8 15.645 
3 *559:8 *2055:A 4.465 
4 *559:8 *2463:A 30.635 
5 *559:4 *559:34 7.29 
6 *559:34 *2221:A1 7.94 
7 *559:34 *2077:B 1.6 
*END

*D_NET *560 0.0180383
*CONN
*I *655:DIODE I *D sky130_fd_sc_hd__diode_2
*I *2464:A I *D sky130_fd_sc_hd__buf_2
*I *749:DIODE I *D sky130_fd_sc_hd__diode_2
*I *660:DIODE I *D sky130_fd_sc_hd__diode_2
*I *1994:A2 I *D sky130_fd_sc_hd__o21a_1
*I *2364:A I *D sky130_fd_sc_hd__clkbuf_1
*I *698:DIODE I *D sky130_fd_sc_hd__diode_2
*I *656:DIODE I *D sky130_fd_sc_hd__diode_2
*I *1952:A2 I *D sky130_fd_sc_hd__o21ba_1
*I *1951:X O *D sky130_fd_sc_hd__or2_2
*CAP
1 *655:DIODE 5.18081e-05
2 *2464:A 8.00084e-05
3 *749:DIODE 0
4 *660:DIODE 0
5 *1994:A2 0
6 *2364:A 0
7 *698:DIODE 3.7456e-05
8 *656:DIODE 0.000164568
9 *1952:A2 2.80314e-05
10 *1951:X 0
11 *560:100 0.00133415
12 *560:76 0.00201441
13 *560:40 0.000321306
14 *560:36 0.00303515
15 *560:24 0.00119404
16 *560:20 0.00087659
17 *560:10 0.00211806
18 *560:4 0.000303694
19 *656:DIODE *1952:A1 4.99619e-05
20 *656:DIODE *2267:A 4.66108e-05
21 *2464:A *2495:A 0
22 *2464:A *622:121 2.75145e-05
23 *560:24 *1994:A1 3.00381e-05
24 *560:24 *1999:B1 9.27255e-06
25 *560:24 *614:101 7.68414e-06
26 *560:24 *614:103 1.85674e-05
27 *560:36 *1985:B1 0.00053431
28 *560:36 *614:6 0.000124895
29 *560:36 *614:48 2.03356e-05
30 *560:36 *614:101 0.000296173
31 *560:36 *636:10 1.47347e-05
32 *560:40 *1952:B1_N 0
33 *560:40 *636:10 4.11198e-05
34 *560:40 *636:23 2.97004e-06
35 *560:76 *1952:B1_N 0
36 *560:100 *2495:A 0
37 *560:100 *620:18 8.96387e-05
38 *560:100 *620:188 0
39 *560:100 *621:10 0
40 *737:DIODE *698:DIODE 0.00012657
41 *737:DIODE *560:76 0.000461013
42 *1951:B *655:DIODE 4.99619e-05
43 *1954:B1_N *560:76 0
44 *1974:A *560:76 0
45 *1983:B *560:36 8.34745e-05
46 *1985:A1 *560:36 1.19928e-05
47 *1985:A2 *560:36 4.82919e-05
48 *1992:A1 *560:24 3.09088e-05
49 *1993:B1 *560:20 4.01019e-05
50 *1995:A *560:36 0.000387896
51 *2028:C *560:76 5.78326e-05
52 *2073:B *560:10 0.000121148
53 *2073:B *560:100 3.14383e-05
54 *2073:C *560:10 5.49535e-05
55 *2073:C *560:100 9.34411e-05
56 *2079:A4 *655:DIODE 0.00014259
57 *2079:A4 *560:10 0.000647441
58 *2173:B *560:76 4.19797e-05
59 *2176:C *560:100 0
60 *2176:D *560:100 0
61 *2183:A2 *560:76 1.36296e-05
62 *2184:B1 *560:76 0.000202095
63 *2185:B *560:76 0.000265917
64 *2188:B *560:76 0
65 *2204:A_N *560:100 0
66 *2204:B *560:100 0.000293338
67 *2270:D *560:76 0.00013521
68 *2273:D *560:20 0
69 *2273:D *560:100 0
70 *2314:RESET_B *560:36 4.70393e-05
71 *2314:RESET_B *560:40 0
72 *2343:D *560:76 0.000141532
73 *2344:D *560:76 1.30356e-05
74 *2346:CLK *560:76 6.73665e-05
75 *2371:A *560:76 0
76 *137:21 *560:76 0.000156619
77 *280:62 *560:24 0.000103041
78 *281:14 *560:36 0.000198945
79 *296:40 *560:10 9.66021e-05
80 *324:10 *698:DIODE 1.34594e-05
81 *324:10 *560:76 5.30673e-05
82 *360:16 *655:DIODE 0.000146484
83 *360:16 *560:10 0.000334487
84 *360:16 *560:100 0
85 *465:64 *560:40 0
86 *465:64 *560:76 0
87 *471:46 *560:76 6.24814e-05
88 *471:48 *560:76 6.44789e-05
89 *479:25 *560:76 0
90 *486:8 *560:76 3.00869e-05
91 *486:25 *560:76 0
92 *488:37 *560:10 1.12578e-05
93 *489:14 *560:100 0
94 *493:12 *560:100 0
95 *494:10 *560:100 2.75538e-05
96 *494:16 *560:100 5.93588e-05
97 *542:74 *560:36 0.000197105
*RES
1 *1951:X *560:4 1.6 
2 *560:4 *560:10 10.5125 
3 *560:10 *560:20 4.3995 
4 *560:20 *560:24 3.735 
5 *560:24 *560:36 22.355 
6 *560:36 *560:40 4.145 
7 *560:40 *1952:A2 2.05 
8 *560:40 *656:DIODE 4.135 
9 *560:36 *560:76 36.14 
10 *560:76 *698:DIODE 2.74 
11 *560:76 *2364:A 1.6 
12 *560:24 *1994:A2 1.6 
13 *560:20 *660:DIODE 1.6 
14 *560:10 *560:100 22.1625 
15 *560:100 *749:DIODE 3.6 
16 *560:100 *2464:A 4.92 
17 *560:4 *655:DIODE 3.895 
*END

*D_NET *561 0.000617068
*CONN
*I *2465:A I *D sky130_fd_sc_hd__buf_2
*I *2364:X O *D sky130_fd_sc_hd__clkbuf_1
*CAP
1 *2465:A 0.000216714
2 *2364:X 0.000216714
3 *2465:A *1962:A_N 2.66935e-05
4 *2465:A *2399:A 0
5 *2465:A *2468:A 8.98826e-05
6 wb_ack_o *2465:A 0
7 *737:DIODE *2465:A 4.99619e-05
8 *131:11 *2465:A 1.71013e-05
9 *553:10 *2465:A 0
*RES
1 *2364:X *2465:A 11.325 
*END

*D_NET *562 0.000667732
*CONN
*I *2466:A I *D sky130_fd_sc_hd__buf_2
*I *2365:X O *D sky130_fd_sc_hd__clkbuf_1
*CAP
1 *2466:A 0.00030688
2 *2365:X 0.00030688
3 *2466:A *2470:A 0
4 unlock_enable *2466:A 0
5 *2089:B *2466:A 0
6 *2279:RESET_B *2466:A 5.39718e-05
*RES
1 *2365:X *2466:A 12.36 
*END

*D_NET *563 0.00376773
*CONN
*I *2467:A I *D sky130_fd_sc_hd__buf_2
*I *2035:X O *D sky130_fd_sc_hd__or3_1
*CAP
1 *2467:A 0.00129574
2 *2035:X 0.00129574
3 *2467:A *1954:A1 0.000109101
4 *2467:A *2034:C 0.00028667
5 *2467:A *608:71 9.30717e-05
6 *2031:A *2467:A 5.30673e-05
7 *2035:C *2467:A 0.000464499
8 *2304:D *2467:A 8.49205e-05
9 *2405:A *2467:A 8.49205e-05
*RES
1 *2035:X *2467:A 29.145 
*END

*D_NET *564 0.00164962
*CONN
*I *2468:A I *D sky130_fd_sc_hd__buf_2
*I *1962:A_N I *D sky130_fd_sc_hd__and3b_1
*I *2301:Q O *D sky130_fd_sc_hd__dfrtp_1
*CAP
1 *2468:A 0.000170756
2 *1962:A_N 0.00022657
3 *2301:Q 4.18826e-05
4 *564:8 0.000439208
5 group_suspended *2468:A 4.05569e-05
6 wb_ack_o *2468:A 0.000160641
7 *732:DIODE *1962:A_N 0.000160651
8 *737:DIODE *1962:A_N 0
9 *737:DIODE *2468:A 0
10 *1934:A *1962:A_N 6.74079e-05
11 *1963:A_N *1962:A_N 0
12 *2030:A *1962:A_N 1.15688e-05
13 *2402:A *564:8 5.35969e-06
14 *2451:A *2468:A 0
15 *2462:A *2468:A 9.27495e-05
16 *2465:A *1962:A_N 2.66935e-05
17 *2465:A *2468:A 8.98826e-05
18 *21:11 *1962:A_N 0
19 *125:9 *2468:A 0
20 *324:10 *1962:A_N 4.62396e-05
21 *324:16 *1962:A_N 6.9451e-05
22 *553:10 *1962:A_N 0
*RES
1 *2301:Q *564:8 4.05 
2 *564:8 *1962:A_N 9.06 
3 *564:8 *2468:A 8.1 
*END

*D_NET *565 0.000792355
*CONN
*I *2469:A I *D sky130_fd_sc_hd__buf_2
*I *2269:Q O *D sky130_fd_sc_hd__dfrtp_1
*CAP
1 *2469:A 0.000392673
2 *2269:Q 0.000392673
3 *734:DIODE *2469:A 7.00889e-06
4 *324:24 *2469:A 0
*RES
1 *2269:Q *2469:A 11.79 
*END

*D_NET *566 0.000783679
*CONN
*I *2470:A I *D sky130_fd_sc_hd__buf_2
*I *2279:Q O *D sky130_fd_sc_hd__dfrtp_1
*CAP
1 *2470:A 0.000307294
2 *2279:Q 0.000307294
3 *2470:A *2471:A 0
4 unlock_enable *2470:A 6.06649e-05
5 wb_dat_o[10] *2470:A 0.000108425
6 *2280:RESET_B *2470:A 0
7 *2466:A *2470:A 0
*RES
1 *2279:Q *2470:A 12.915 
*END

*D_NET *567 0.000379816
*CONN
*I *2471:A I *D sky130_fd_sc_hd__buf_2
*I *2280:Q O *D sky130_fd_sc_hd__dfrtp_1
*CAP
1 *2471:A 0.000165531
2 *2280:Q 0.000165531
3 wb_dat_o[10] *2471:A 3.86607e-05
4 wb_dat_o[11] *2471:A 1.00941e-05
5 *2470:A *2471:A 0
*RES
1 *2280:Q *2471:A 9.63 
*END

*D_NET *568 0.00116913
*CONN
*I *2088:B I *D sky130_fd_sc_hd__or4_1
*I *2453:X O *D sky130_fd_sc_hd__clkbuf_1
*CAP
1 *2088:B 0.000363851
2 *2453:X 0.000363851
3 *2088:B *2088:C 0.000117825
4 *743:DIODE *2088:B 2.11084e-05
5 *2088:D *2088:B 2.24336e-05
6 *2089:C *2088:B 0.000140071
7 *2155:A2 *2088:B 0.000116853
8 *2155:B1 *2088:B 0
9 *13:11 *2088:B 0
10 *18:11 *2088:B 0
11 *375:12 *2088:B 2.31329e-05
*RES
1 *2453:X *2088:B 13.56 
*END

*D_NET *569 0.00229741
*CONN
*I *2472:A I *D sky130_fd_sc_hd__buf_2
*I *2281:Q O *D sky130_fd_sc_hd__dfrtp_1
*CAP
1 *2472:A 0.000692973
2 *2281:Q 0.000692973
3 *2472:A *687:DIODE 4.82919e-05
4 *2472:A *2475:A 0.000361977
5 wb_dat_o[12] *2472:A 0.000304278
6 wb_dat_o[15] *2472:A 0.000108647
7 *2281:RESET_B *2472:A 8.8266e-05
*RES
1 *2281:Q *2472:A 20.475 
*END

*D_NET *570 0.000538523
*CONN
*I *2473:A I *D sky130_fd_sc_hd__buf_2
*I *2282:Q O *D sky130_fd_sc_hd__dfrtp_1
*CAP
1 *2473:A 0.00017553
2 *2282:Q 0.00017553
3 *2473:A *2475:A 0.000138257
4 wb_dat_o[13] *2473:A 4.92063e-05
*RES
1 *2282:Q *2473:A 9.975 
*END

*D_NET *571 0.000262207
*CONN
*I *2474:A I *D sky130_fd_sc_hd__buf_2
*I *2283:Q O *D sky130_fd_sc_hd__dfrtp_1
*CAP
1 *2474:A 0.000131103
2 *2283:Q 0.000131103
3 *2283:RESET_B *2474:A 0
*RES
1 *2283:Q *2474:A 9.03 
*END

*D_NET *572 0.00104089
*CONN
*I *2475:A I *D sky130_fd_sc_hd__buf_2
*I *2284:Q O *D sky130_fd_sc_hd__dfrtp_1
*CAP
1 *2475:A 0.000247111
2 *2284:Q 0.000247111
3 wb_dat_o[12] *2475:A 2.60986e-05
4 wb_dat_o[13] *2475:A 2.03321e-05
5 *2282:RESET_B *2475:A 0
6 *2284:RESET_B *2475:A 0
7 *2472:A *2475:A 0.000361977
8 *2473:A *2475:A 0.000138257
*RES
1 *2284:Q *2475:A 13.11 
*END

*D_NET *573 0.00325236
*CONN
*I *2476:A I *D sky130_fd_sc_hd__buf_2
*I *2285:Q O *D sky130_fd_sc_hd__dfrtp_1
*CAP
1 *2476:A 0.00109859
2 *2285:Q 0.00109859
3 *2476:A *606:31 0
4 *2476:A *606:60 0.000481481
5 *2476:A *610:57 4.05775e-05
6 *2143:A *2476:A 0.000360094
7 *2144:B *2476:A 0.000121023
8 *2412:A *2476:A 4.43871e-06
9 *505:21 *2476:A 4.75576e-05
*RES
1 *2285:Q *2476:A 26.64 
*END

*D_NET *574 0.000210507
*CONN
*I *2477:A I *D sky130_fd_sc_hd__buf_2
*I *2286:Q O *D sky130_fd_sc_hd__dfrtp_1
*CAP
1 *2477:A 8.06066e-05
2 *2286:Q 8.06066e-05
3 *2477:A *2478:A 4.92935e-05
*RES
1 *2286:Q *2477:A 4.7 
*END

*D_NET *575 0.00584557
*CONN
*I *2478:A I *D sky130_fd_sc_hd__buf_2
*I *2287:Q O *D sky130_fd_sc_hd__dfrtp_1
*CAP
1 *2478:A 0.00180332
2 *2287:Q 0.00180332
3 *2478:A *2243:A 1.08943e-05
4 *2478:A *576:24 0.000597113
5 *2478:A *622:38 0.000316421
6 wb_dat_o[17] *2478:A 9.50342e-06
7 wb_dat_o[19] *2478:A 5.30673e-05
8 *2286:D *2478:A 0.00106047
9 *2286:RESET_B *2478:A 6.46181e-05
10 *2300:RESET_B *2478:A 7.75412e-05
11 *2477:A *2478:A 4.92935e-05
*RES
1 *2287:Q *2478:A 35.37 
*END

*D_NET *576 0.00737024
*CONN
*I *2479:A I *D sky130_fd_sc_hd__buf_2
*I *2288:Q O *D sky130_fd_sc_hd__dfrtp_1
*CAP
1 *2479:A 0.000373608
2 *2288:Q 0.00192554
3 *576:24 0.00229915
4 *2479:A *2257:A 0.000354719
5 *576:24 *691:DIODE 1.83847e-05
6 *576:24 *692:DIODE 1.7386e-05
7 *576:24 *2012:B 0
8 *576:24 *2026:C 0.000107975
9 *576:24 *2144:A 0.000390466
10 *576:24 *2244:A 1.85674e-05
11 *576:24 *622:38 0.000487243
12 *2286:D *576:24 0.00012657
13 *2287:RESET_B *576:24 0.000207881
14 *2300:D *2479:A 0.000139275
15 *2332:D *576:24 1.43717e-05
16 *2412:A *576:24 0
17 *2478:A *576:24 0.000597113
18 *466:69 *576:24 4.34223e-05
19 *466:75 *576:24 0.000197826
20 *505:8 *576:24 5.07419e-05
*RES
1 *2288:Q *576:24 42.965 
2 *576:24 *2479:A 9.31 
*END

*D_NET *577 0.000147101
*CONN
*I *2480:A I *D sky130_fd_sc_hd__buf_2
*I *2270:Q O *D sky130_fd_sc_hd__dfrtp_1
*CAP
1 *2480:A 7.35505e-05
2 *2270:Q 7.35505e-05
*RES
1 *2270:Q *2480:A 4.355 
*END

*D_NET *578 0.00024795
*CONN
*I *2481:A I *D sky130_fd_sc_hd__buf_2
*I *2289:Q O *D sky130_fd_sc_hd__dfrtp_1
*CAP
1 *2481:A 9.44786e-05
2 *2289:Q 9.44786e-05
3 wb_dat_o[20] *2481:A 5.89925e-05
4 wb_dat_o[29] *2481:A 0
*RES
1 *2289:Q *2481:A 8.835 
*END

*D_NET *579 0.00271071
*CONN
*I *1941:A I *D sky130_fd_sc_hd__inv_2
*I *2158:A1 I *D sky130_fd_sc_hd__a221o_1
*I *2089:A I *D sky130_fd_sc_hd__or4b_1
*I *2454:X O *D sky130_fd_sc_hd__buf_1
*CAP
1 *1941:A 0
2 *2158:A1 0.000353425
3 *2089:A 0
4 *2454:X 0.000377894
5 *579:26 0.000604428
6 *579:16 0.000628897
7 *744:DIODE *579:16 4.99619e-05
8 *2089:B *579:16 0.00017219
9 *2089:B *579:26 9.0296e-05
10 *2089:C *579:26 9.50342e-06
11 *2089:D_N *2158:A1 5.6771e-05
12 *2158:A2 *2158:A1 7.29911e-05
13 *2158:B2 *2158:A1 6.03947e-06
14 *2158:C1 *579:26 0
15 *2163:B2 *579:26 0.000116165
16 *540:10 *579:16 7.37195e-05
17 *540:10 *579:26 4.18603e-06
18 *540:21 *579:26 0
19 *540:27 *579:26 4.59493e-05
20 *540:52 *2158:A1 4.82919e-05
*RES
1 *2454:X *579:16 10.965 
2 *579:16 *579:26 7.17875 
3 *579:26 *2089:A 1.6 
4 *579:26 *2158:A1 7.25125 
5 *579:16 *1941:A 3.6 
*END

*D_NET *580 0.000217811
*CONN
*I *2482:A I *D sky130_fd_sc_hd__buf_2
*I *2290:Q O *D sky130_fd_sc_hd__dfrtp_1
*CAP
1 *2482:A 8.95752e-05
2 *2290:Q 8.95752e-05
3 *2482:A *2492:A 0
4 wb_dat_o[21] *2482:A 3.86607e-05
5 *2290:RESET_B *2482:A 0
*RES
1 *2290:Q *2482:A 8.835 
*END

*D_NET *581 0.00776311
*CONN
*I *2483:A I *D sky130_fd_sc_hd__buf_2
*I *2291:Q O *D sky130_fd_sc_hd__dfrtp_1
*CAP
1 *2483:A 2.08101e-05
2 *2291:Q 0.00234508
3 *581:14 0.00236589
4 *581:14 *2484:A 0.00117071
5 *581:14 *582:14 0.00121909
6 group_unlocked *581:14 8.65961e-05
7 wb_dat_o[23] *581:14 0.000164874
8 *2288:D *581:14 2.68622e-05
9 *2288:RESET_B *581:14 7.23602e-05
10 *2300:CLK *581:14 9.67691e-05
11 *468:20 *581:14 3.07153e-05
12 *468:33 *581:14 5.062e-06
13 *557:10 *581:14 0.00015829
*RES
1 *2291:Q *581:14 49.79 
2 *581:14 *2483:A 1.96 
*END

*D_NET *582 0.00957609
*CONN
*I *2484:A I *D sky130_fd_sc_hd__buf_2
*I *2292:Q O *D sky130_fd_sc_hd__dfrtp_1
*CAP
1 *2484:A 0.000407806
2 *2292:Q 7.43135e-05
3 *582:14 0.00278598
4 *582:10 0.00245249
5 *582:14 *2245:A 0.000203178
6 *582:14 *2248:A 0.000164874
7 *582:14 *621:66 0.000124895
8 *582:14 *621:82 0.000316421
9 *2288:RESET_B *582:14 0.000195476
10 *2291:RESET_B *582:14 0.000394699
11 *2300:CLK *2484:A 6.69608e-06
12 *2463:A *582:14 2.49909e-05
13 *4:9 *582:14 1.34594e-05
14 *557:10 *582:14 2.10034e-05
15 *581:14 *2484:A 0.00117071
16 *581:14 *582:14 0.00121909
*RES
1 *2292:Q *582:10 6.725 
2 *582:10 *582:14 44.7075 
3 *582:14 *2484:A 12.2275 
*END

*D_NET *583 0.000318128
*CONN
*I *2485:A I *D sky130_fd_sc_hd__buf_2
*I *2293:Q O *D sky130_fd_sc_hd__dfrtp_1
*CAP
1 *2485:A 0.000159064
2 *2293:Q 0.000159064
3 wb_dat_o[24] *2485:A 0
*RES
1 *2293:Q *2485:A 9.63 
*END

*D_NET *584 0.00894899
*CONN
*I *2486:A I *D sky130_fd_sc_hd__buf_2
*I *2294:Q O *D sky130_fd_sc_hd__dfrtp_1
*CAP
1 *2486:A 0.000609662
2 *2294:Q 0.00284614
3 *584:22 0.0034558
4 *2486:A *2025:B 7.08554e-05
5 *2486:A *2025:C 0.000184778
6 *584:22 *2025:B 1.71542e-05
7 *584:22 *611:76 0.000146149
8 *2025:A *2486:A 2.09749e-05
9 *2025:A *584:22 1.34907e-05
10 *2105:A2 *584:22 3.45588e-05
11 *2105:B1 *584:22 0.000280201
12 *2107:C *584:22 2.19562e-06
13 *2107:D *584:22 1.83847e-05
14 *2109:A_N *584:22 8.76986e-05
15 *2141:A *584:22 8.50755e-05
16 *2141:B *584:22 0
17 *2285:CLK *584:22 0.000114179
18 *2299:D *2486:A 0.000194775
19 *2331:CLK *584:22 1.56428e-05
20 *2331:D *584:22 3.97557e-05
21 *388:8 *584:22 0.000239807
22 *388:23 *584:22 1.0183e-05
23 *466:20 *584:22 0.000111909
24 *506:12 *584:22 3.28694e-05
25 *506:56 *584:22 3.35323e-05
26 *506:69 *584:22 7.67415e-06
27 *507:17 *584:22 0.000275542
*RES
1 *2294:Q *584:22 46.545 
2 *584:22 *2486:A 12.745 
*END

*D_NET *585 0.000209309
*CONN
*I *2487:A I *D sky130_fd_sc_hd__buf_2
*I *2295:Q O *D sky130_fd_sc_hd__dfrtp_1
*CAP
1 *2487:A 0.000104654
2 *2295:Q 0.000104654
*RES
1 *2295:Q *2487:A 8.835 
*END

*D_NET *586 0.00266598
*CONN
*I *2488:A I *D sky130_fd_sc_hd__buf_2
*I *2296:Q O *D sky130_fd_sc_hd__dfrtp_1
*CAP
1 *2488:A 0.000830116
2 *2296:Q 0.000830116
3 *2488:A *2023:B 0.000197826
4 *2488:A *2246:A 0.000142661
5 *2488:A *2254:A 0.00011588
6 *2488:A *2489:A 8.03844e-05
7 *2488:A *616:24 0
8 *2488:A *616:37 0.000136284
9 *2488:A *617:54 1.09281e-05
10 *2296:CLK *2488:A 0.000197826
11 *2297:RESET_B *2488:A 0.000123955
*RES
1 *2296:Q *2488:A 22.755 
*END

*D_NET *587 0.00137321
*CONN
*I *2489:A I *D sky130_fd_sc_hd__buf_2
*I *2297:Q O *D sky130_fd_sc_hd__dfrtp_1
*CAP
1 *2489:A 0.000602177
2 *2297:Q 0.000602177
3 *2489:A *2252:A 8.31082e-05
4 *2488:A *2489:A 8.03844e-05
5 *467:36 *2489:A 5.36384e-06
*RES
1 *2297:Q *2489:A 14.805 
*END

*D_NET *588 0.000381586
*CONN
*I *2490:A I *D sky130_fd_sc_hd__buf_2
*I *2298:Q O *D sky130_fd_sc_hd__dfrtp_1
*CAP
1 *2490:A 0.000190793
2 *2298:Q 0.000190793
3 *2490:A *616:39 0
*RES
1 *2298:Q *2490:A 10.065 
*END

*D_NET *589 0.000238804
*CONN
*I *2491:A I *D sky130_fd_sc_hd__buf_2
*I *2271:Q O *D sky130_fd_sc_hd__dfrtp_1
*CAP
1 *2491:A 8.99056e-05
2 *2271:Q 8.99056e-05
3 wb_dat_o[2] *2491:A 5.89925e-05
4 *324:16 *2491:A 0
*RES
1 *2271:Q *2491:A 8.835 
*END

*D_NET *590 0.00161197
*CONN
*I *2077:A I *D sky130_fd_sc_hd__nor2_1
*I *2455:X O *D sky130_fd_sc_hd__clkbuf_1
*CAP
1 *2077:A 0.000629451
2 *2455:X 0.000629451
3 *2077:A *642:12 0.000323033
4 *745:DIODE *2077:A 3.00381e-05
*RES
1 *2455:X *2077:A 14.375 
*END

*D_NET *591 0.000658191
*CONN
*I *2492:A I *D sky130_fd_sc_hd__buf_2
*I *2299:Q O *D sky130_fd_sc_hd__dfrtp_1
*CAP
1 *2492:A 0.000324302
2 *2299:Q 0.000324302
3 wb_dat_o[30] *2492:A 9.58678e-06
4 *2482:A *2492:A 0
*RES
1 *2299:Q *2492:A 11.76 
*END

*D_NET *592 0.000231118
*CONN
*I *2493:A I *D sky130_fd_sc_hd__buf_2
*I *2300:Q O *D sky130_fd_sc_hd__dfrtp_1
*CAP
1 *2493:A 7.6465e-05
2 *2300:Q 7.6465e-05
3 wb_dat_o[19] *2493:A 7.81876e-05
*RES
1 *2300:Q *2493:A 8.835 
*END

*D_NET *593 0.000594954
*CONN
*I *2494:A I *D sky130_fd_sc_hd__buf_2
*I *2272:Q O *D sky130_fd_sc_hd__dfrtp_1
*CAP
1 *2494:A 0.000131377
2 *2272:Q 0.000131377
3 *2494:A *619:64 4.47209e-05
4 *2494:A *622:121 2.16917e-05
5 *738:DIODE *2494:A 8.49205e-05
6 *2027:C *2494:A 0.000120655
7 *2462:A *2494:A 0
8 *542:10 *2494:A 6.02123e-05
*RES
1 *2272:Q *2494:A 10.425 
*END

*D_NET *594 0.000220365
*CONN
*I *2495:A I *D sky130_fd_sc_hd__buf_2
*I *2273:Q O *D sky130_fd_sc_hd__dfrtp_1
*CAP
1 *2495:A 9.57893e-05
2 *2273:Q 9.57893e-05
3 *2495:A *621:10 2.87867e-05
4 *2464:A *2495:A 0
5 *560:100 *2495:A 0
*RES
1 *2273:Q *2495:A 8.835 
*END

*D_NET *595 0.000644249
*CONN
*I *2496:A I *D sky130_fd_sc_hd__buf_2
*I *2274:Q O *D sky130_fd_sc_hd__dfrtp_1
*CAP
1 *2496:A 0.000278368
2 *2274:Q 0.000278368
3 *2496:A *2234:A 3.72916e-05
4 *2274:RESET_B *2496:A 0
5 *2277:D *2496:A 5.02217e-05
*RES
1 *2274:Q *2496:A 11.67 
*END

*D_NET *596 0.000521349
*CONN
*I *2497:A I *D sky130_fd_sc_hd__buf_2
*I *2275:Q O *D sky130_fd_sc_hd__dfrtp_1
*CAP
1 *2497:A 0.000209944
2 *2275:Q 0.000209944
3 *2497:A *2498:A 9.50342e-06
4 wb_dat_o[6] *2497:A 7.35813e-05
5 *2029:B *2497:A 0
6 *59:21 *2497:A 1.83756e-05
*RES
1 *2275:Q *2497:A 10.935 
*END

*D_NET *597 0.000253065
*CONN
*I *2498:A I *D sky130_fd_sc_hd__buf_2
*I *2276:Q O *D sky130_fd_sc_hd__dfrtp_1
*CAP
1 *2498:A 9.22846e-05
2 *2276:Q 9.22846e-05
3 wb_dat_o[6] *2498:A 0
4 wb_dat_o[7] *2498:A 5.89925e-05
5 *2029:B *2498:A 0
6 *2497:A *2498:A 9.50342e-06
*RES
1 *2276:Q *2498:A 8.835 
*END

*D_NET *598 0.000397968
*CONN
*I *2499:A I *D sky130_fd_sc_hd__buf_2
*I *2277:Q O *D sky130_fd_sc_hd__dfrtp_1
*CAP
1 *2499:A 0.000158689
2 *2277:Q 0.000158689
3 *2499:A *622:121 7.35813e-05
4 wb_dat_o[8] *2499:A 7.00889e-06
*RES
1 *2277:Q *2499:A 9.975 
*END

*D_NET *599 0.000301089
*CONN
*I *2500:A I *D sky130_fd_sc_hd__buf_2
*I *2278:Q O *D sky130_fd_sc_hd__dfrtp_1
*CAP
1 *2500:A 0.000135526
2 *2278:Q 0.000135526
3 *2500:A *620:199 3.00381e-05
*RES
1 *2278:Q *2500:A 9.285 
*END

*D_NET *600 0.0145098
*CONN
*I *2133:C I *D sky130_fd_sc_hd__and3b_1
*I *2136:C I *D sky130_fd_sc_hd__and3b_1
*I *2130:A I *D sky130_fd_sc_hd__and3_1
*I *2139:C I *D sky130_fd_sc_hd__and3b_1
*I *2142:A I *D sky130_fd_sc_hd__and3_1
*I *2109:C I *D sky130_fd_sc_hd__and3b_1
*I *2100:B I *D sky130_fd_sc_hd__and2b_1
*I *2106:A I *D sky130_fd_sc_hd__and3_1
*I *2103:A I *D sky130_fd_sc_hd__and3_1
*I *2144:A I *D sky130_fd_sc_hd__and2_1
*I *2382:X O *D sky130_fd_sc_hd__clkbuf_2
*CAP
1 *2133:C 0
2 *2136:C 0.000307456
3 *2130:A 0.000173573
4 *2139:C 0.000143303
5 *2142:A 3.58421e-05
6 *2109:C 0.000697278
7 *2100:B 0.000129134
8 *2106:A 0
9 *2103:A 0
10 *2144:A 0.000455177
11 *2382:X 0.00011255
12 *600:93 0.000843287
13 *600:65 0.00094829
14 *600:58 0.000546745
15 *600:32 0.000664585
16 *600:26 0.00100585
17 *600:22 0.001224
18 *600:20 0.00055376
19 *600:16 0.000747104
20 *600:12 0.000360302
21 *2144:A *2012:B 0
22 *2144:A *2012:C 9.16333e-06
23 *2144:A *622:32 0.000324965
24 *2144:A *622:38 5.23362e-05
25 *600:12 *610:95 3.67779e-05
26 *600:16 *606:118 9.07251e-05
27 *600:22 *606:23 0
28 *600:22 *610:26 0
29 *600:22 *610:95 0
30 *600:26 *606:23 0
31 *600:26 *610:26 0
32 *701:DIODE *600:93 0.000276441
33 *2012:A *2144:A 4.99619e-05
34 *2013:A *2100:B 9.30787e-05
35 *2026:A *2144:A 2.86975e-05
36 *2103:B *2144:A 5.74095e-05
37 *2103:B *600:32 2.01259e-05
38 *2103:C *600:26 0
39 *2103:C *600:32 7.39279e-05
40 *2106:B *600:58 3.64998e-06
41 *2106:B *600:65 2.20732e-05
42 *2106:C *600:65 5.45011e-05
43 *2109:B *2109:C 4.40446e-05
44 *2128:B *2136:C 0.000132547
45 *2128:B *600:20 0.00027232
46 *2130:B *2136:C 0
47 *2130:B *600:20 0
48 *2130:C *2130:A 4.82863e-05
49 *2132:B *600:12 4.80285e-05
50 *2134:B *2130:A 4.82863e-05
51 *2135:A *600:16 5.83121e-06
52 *2135:B *600:16 6.97034e-05
53 *2142:C *2139:C 3.64998e-06
54 *2142:C *600:93 1.51894e-06
55 *2143:B *2139:C 4.9968e-05
56 *2143:B *600:93 4.66108e-05
57 *2285:CLK *600:26 0.000160658
58 *2285:D *2144:A 3.99039e-05
59 *2285:RESET_B *2144:A 0.000120593
60 *2286:D *2144:A 0.000600143
61 *2318:D *600:32 1.83847e-05
62 *2319:D *600:65 4.99619e-05
63 *2331:D *600:93 1.07285e-05
64 *2367:A *600:93 0.000801214
65 *2407:A *600:93 8.09157e-05
66 *2412:A *2144:A 0.000164874
67 *2421:A *2109:C 0.000253937
68 *400:20 *600:20 1.61696e-05
69 *400:20 *600:22 1.80324e-05
70 *404:10 *600:12 0
71 *410:14 *600:93 0.000260716
72 *466:59 *2139:C 0.000196671
73 *468:57 *2100:B 4.82919e-05
74 *468:72 *2100:B 0
75 *499:18 *2100:B 4.66108e-05
76 *500:16 *2130:A 2.97004e-06
77 *500:16 *600:20 5.16418e-05
78 *500:30 *2136:C 0.000236506
79 *507:27 *2109:C 2.75229e-05
80 *576:24 *2144:A 0.000390466
*RES
1 *2382:X *600:12 7.265 
2 *600:12 *600:16 5.21 
3 *600:16 *600:20 3.9975 
4 *600:20 *600:22 3.0375 
5 *600:22 *600:26 8.48 
6 *600:26 *600:32 3.33 
7 *600:32 *2144:A 19.58 
8 *600:32 *2103:A 1.6 
9 *600:26 *600:58 6.33 
10 *600:58 *2106:A 1.6 
11 *600:58 *600:65 2.175 
12 *600:65 *2100:B 8.195 
13 *600:65 *2109:C 10.345 
14 *600:22 *600:93 16.265 
15 *600:93 *2142:A 2.215 
16 *600:93 *2139:C 8.795 
17 *600:20 *2130:A 5.6775 
18 *600:16 *2136:C 8.97 
19 *600:12 *2133:C 1.6 
*END

*D_NET *601 0.00947687
*CONN
*I *2081:B1 I *D sky130_fd_sc_hd__a31o_1
*I *2053:B I *D sky130_fd_sc_hd__or3_1
*I *2456:X O *D sky130_fd_sc_hd__buf_1
*CAP
1 *2081:B1 0
2 *2053:B 0.00201453
3 *2456:X 0.000951021
4 *601:18 0.00296555
5 *2053:B *667:DIODE 4.66108e-05
6 *2053:B *2220:A1 0
7 *2053:B *2416:A 9.99492e-05
8 *2053:B *607:53 0
9 *2053:B *615:156 2.92496e-05
10 *2053:B *615:165 4.82919e-05
11 *2053:B *648:19 0.000255635
12 *601:18 *615:156 0.000183043
13 *727:DIODE *601:18 2.75145e-05
14 *741:DIODE *601:18 0.000124895
15 *1944:A *601:18 7.23533e-05
16 *2081:A3 *601:18 3.76596e-05
17 *2085:B *2053:B 0
18 *2090:C_N *2053:B 6.8665e-05
19 *2090:C_N *601:18 0.000114492
20 *2093:A2 *2053:B 0
21 *2126:B *2053:B 0.000190111
22 *2154:B *601:18 4.82863e-05
23 *2159:B1 *2053:B 4.41506e-05
24 *2160:B *601:18 2.49909e-05
25 *2160:C *601:18 4.66108e-05
26 *2162:A_N *2053:B 0.000108432
27 *2163:A2 *601:18 0.000421068
28 *2166:B *2053:B 0
29 *2220:B1_N *2053:B 0
30 *2342:D *2053:B 0.000164686
31 *2370:A *2053:B 3.08727e-05
32 *2463:A *2053:B 7.23533e-05
33 *2:11 *601:18 5.34943e-05
34 *286:46 *601:18 1.56428e-05
35 *286:63 *601:18 4.79712e-05
36 *414:16 *2053:B 0
37 *462:12 *2053:B 0
38 *465:129 *2053:B 1.23391e-05
39 *469:8 *2053:B 1.29866e-05
40 *469:115 *2053:B 0.000240987
41 *540:10 *601:18 0
42 *540:21 *601:18 0
43 *546:23 *601:18 0.000902439
44 *554:44 *2053:B 0
*RES
1 *2456:X *601:18 31.77 
2 *601:18 *2053:B 43.29 
3 *601:18 *2081:B1 1.6 
*END

*D_NET *602 0.00719286
*CONN
*I *2127:C I *D sky130_fd_sc_hd__and3b_1
*I *2124:A I *D sky130_fd_sc_hd__and3_1
*I *2115:C I *D sky130_fd_sc_hd__and3b_1
*I *2121:B I *D sky130_fd_sc_hd__and3b_1
*I *2118:A I *D sky130_fd_sc_hd__and3_1
*I *2112:C I *D sky130_fd_sc_hd__and3b_1
*I *2383:X O *D sky130_fd_sc_hd__buf_1
*CAP
1 *2127:C 0.000383264
2 *2124:A 1.36534e-05
3 *2115:C 6.86722e-06
4 *2121:B 0.000398237
5 *2118:A 0.000383916
6 *2112:C 0
7 *2383:X 8.32229e-05
8 *602:35 0.00088479
9 *602:33 0.000518856
10 *602:20 0.0010887
11 *602:14 0.000869805
12 *602:8 0.000643293
13 *2118:A *621:106 0
14 *2042:A *2127:C 4.82863e-05
15 *2047:C *602:14 4.14369e-05
16 *2047:C *602:20 9.30717e-05
17 *2111:A *602:33 0
18 *2117:A *2118:A 0
19 *2118:B *2118:A 0.00024756
20 *2118:C *2118:A 4.99619e-05
21 *2121:C *2121:B 1.83756e-05
22 *2122:A *602:8 0.000161529
23 *2123:A *2124:A 4.66108e-05
24 *2123:A *602:14 0
25 *2124:B *2127:C 5.47609e-05
26 *2124:B *602:14 7.64968e-05
27 *2126:B *2127:C 3.31204e-05
28 *2321:D *602:33 1.91597e-05
29 *2325:CLK *602:8 4.58166e-05
30 *2326:CLK *2127:C 4.86533e-05
31 *2326:D *2127:C 0.000151158
32 *2328:CLK *602:8 4.51031e-05
33 *388:51 *602:20 0.000223072
34 *468:148 *2118:A 0
35 *468:148 *602:33 0.000161529
36 *468:148 *602:35 0
37 *469:14 *2127:C 3.47837e-05
38 *509:10 *602:33 4.39911e-06
39 *510:22 *602:33 0.000250616
40 *510:57 *2124:A 4.66108e-05
41 *511:23 *2118:A 0
42 *513:43 *2127:C 0
43 *514:10 *2127:C 1.6147e-05
*RES
1 *2383:X *602:8 5.775 
2 *602:8 *602:14 2.7 
3 *602:14 *602:20 10.82 
4 *602:20 *2112:C 1.6 
5 *602:20 *602:33 8.5175 
6 *602:33 *602:35 1.7625 
7 *602:35 *2118:A 10.275 
8 *602:35 *2121:B 8.895 
9 *602:33 *2115:C 3.8325 
10 *602:14 *2124:A 4.05 
11 *602:8 *2127:C 9.39 
*END

*D_NET *603 0.0208957
*CONN
*I *2208:A1 I *D sky130_fd_sc_hd__a21oi_1
*I *2202:A1 I *D sky130_fd_sc_hd__a21oi_1
*I *2200:A1 I *D sky130_fd_sc_hd__a21oi_1
*I *2196:A1 I *D sky130_fd_sc_hd__a21oi_1
*I *2181:A2 I *D sky130_fd_sc_hd__a21oi_1
*I *2183:A1 I *D sky130_fd_sc_hd__a21oi_1
*I *2194:A1 I *D sky130_fd_sc_hd__a21oi_1
*I *2189:A1 I *D sky130_fd_sc_hd__a21oi_1
*I *2186:A1 I *D sky130_fd_sc_hd__a21oi_1
*I *2191:A1 I *D sky130_fd_sc_hd__a21oi_1
*I *2384:X O *D sky130_fd_sc_hd__buf_2
*CAP
1 *2208:A1 0
2 *2202:A1 0
3 *2200:A1 8.17544e-05
4 *2196:A1 0.000195868
5 *2181:A2 0.000202378
6 *2183:A1 0
7 *2194:A1 0.000369616
8 *2189:A1 3.46723e-05
9 *2186:A1 0.000273488
10 *2191:A1 0.000280017
11 *2384:X 0.000131673
12 *603:96 0.000267844
13 *603:83 0.00063552
14 *603:70 0.000398312
15 *603:53 0.000961972
16 *603:47 0.00152713
17 *603:39 0.00166432
18 *603:31 0.00171253
19 *603:16 0.00227249
20 *603:6 0.0011882
21 *2181:A2 *2181:B1 0.000324321
22 *2189:A1 *2186:B1 0.000118081
23 *2191:A1 *2191:B1 4.66108e-05
24 *2194:A1 *2194:B1 0.000954762
25 *603:6 *2208:B1 1.33293e-05
26 *603:16 *2191:B1 0
27 *603:16 *2208:B1 0.000258479
28 *603:16 *605:25 0
29 *603:16 *621:36 0
30 *603:31 *2202:B1 0.0010297
31 *603:31 *605:25 0
32 *603:39 *604:33 9.68709e-05
33 *1966:A *2186:A1 6.28843e-05
34 *1966:A *603:70 2.78732e-05
35 *1971:A *2186:A1 9.2741e-05
36 *1971:A *603:70 0
37 *1974:A *2186:A1 6.10014e-05
38 *1980:A *603:39 0
39 *2007:A1 *603:16 8.65905e-05
40 *2028:C *2181:A2 6.24015e-05
41 *2174:A *603:70 3.90266e-05
42 *2185:A *2186:A1 0.000148334
43 *2186:A2 *2186:A1 4.99619e-05
44 *2195:B *2196:A1 0.000160218
45 *2195:B *603:47 0.000113234
46 *2196:A2 *603:47 2.11084e-05
47 *2197:A *2200:A1 6.75014e-05
48 *2197:A *603:47 0.000302494
49 *2197:B *603:39 0
50 *2197:C *603:47 2.36981e-05
51 *2202:A2 *603:39 2.49909e-05
52 *2206:B *603:16 0.000146484
53 *2270:D *2186:A1 0.0004262
54 *2272:D *2181:A2 0.000142708
55 *2272:D *2194:A1 1.98675e-05
56 *2272:D *603:83 0.000142863
57 *2272:D *603:96 9.6761e-05
58 *2277:D *603:39 0
59 *2348:CLK *2194:A1 0.000500245
60 *2348:D *2194:A1 4.99619e-05
61 *2349:D *603:47 4.66108e-05
62 *2350:D *603:39 8.53113e-06
63 *2353:D *603:6 1.0124e-05
64 *2384:A *603:6 8.8266e-05
65 *2386:A *603:16 0.000237243
66 *2413:A *603:83 4.67396e-05
67 *2413:A *603:96 6.02189e-05
68 *291:63 *603:53 9.14601e-05
69 *291:72 *603:53 2.96334e-05
70 *291:99 *603:16 0.000445574
71 *291:99 *603:47 0.000163199
72 *432:12 *603:70 0.000158297
73 *432:12 *603:83 0.000137571
74 *471:36 *2181:A2 5.21714e-05
75 *471:42 *2181:A2 0.000314745
76 *471:123 *603:39 0
77 *471:125 *603:39 0
78 *473:38 *603:16 0.000291104
79 *473:38 *603:31 0.000153279
80 *479:25 *603:70 3.9442e-05
81 *479:25 *603:83 0.000247502
82 *479:40 *603:70 2.79004e-05
83 *479:53 *603:53 8.49205e-05
84 *480:44 *603:16 0.000160635
85 *488:63 *2189:A1 8.88081e-05
86 *490:55 *2191:A1 2.65814e-06
*RES
1 *2384:X *603:6 3.43 
2 *603:6 *603:16 21.965 
3 *603:16 *2191:A1 6.465 
4 *603:16 *603:31 16.295 
5 *603:31 *603:39 14.8 
6 *603:39 *603:47 11.7 
7 *603:47 *603:53 9.71 
8 *603:53 *2186:A1 11.07 
9 *603:53 *603:70 3.165 
10 *603:70 *2189:A1 4.74 
11 *603:70 *603:83 6.4725 
12 *603:83 *2194:A1 14.4675 
13 *603:83 *603:96 2.0925 
14 *603:96 *2183:A1 3.6 
15 *603:96 *2181:A2 10.8 
16 *603:47 *2196:A1 4.585 
17 *603:39 *2200:A1 3.175 
18 *603:31 *2202:A1 1.6 
19 *603:6 *2208:A1 1.6 
*END

*D_NET *604 0.017789
*CONN
*I *2208:B1 I *D sky130_fd_sc_hd__a21oi_1
*I *2191:B1 I *D sky130_fd_sc_hd__a21oi_1
*I *2205:B1 I *D sky130_fd_sc_hd__a21oi_1
*I *2196:B1 I *D sky130_fd_sc_hd__a21oi_1
*I *2181:B1 I *D sky130_fd_sc_hd__a21oi_1
*I *2183:B1 I *D sky130_fd_sc_hd__a21oi_1
*I *2194:B1 I *D sky130_fd_sc_hd__a21oi_1
*I *2186:B1 I *D sky130_fd_sc_hd__a21oi_1
*I *2189:B1 I *D sky130_fd_sc_hd__a21oi_1
*I *2200:B1 I *D sky130_fd_sc_hd__a21oi_1
*I *2385:X O *D sky130_fd_sc_hd__buf_2
*CAP
1 *2208:B1 0.000841075
2 *2191:B1 0.000331948
3 *2205:B1 0
4 *2196:B1 0.000102939
5 *2181:B1 0.00060624
6 *2183:B1 2.35853e-05
7 *2194:B1 0.000457418
8 *2186:B1 0.000700156
9 *2189:B1 0
10 *2200:B1 3.07736e-05
11 *2385:X 0
12 *604:122 0.00149092
13 *604:78 0.000740432
14 *604:67 0.000758635
15 *604:44 0.000936487
16 *604:35 0.00055544
17 *604:33 0.00120532
18 *604:18 0.000749956
19 *604:12 0.00050493
20 *604:4 0.000696311
21 *2191:B1 *621:36 0.0006462
22 *1954:B1_N *2186:B1 0.00018559
23 *1983:A *2196:B1 0.000226834
24 *2028:C *2181:B1 6.29809e-05
25 *2174:A *2186:B1 4.66108e-05
26 *2181:A2 *2181:B1 0.000324321
27 *2184:A2 *2186:B1 0.00013594
28 *2184:B1 *2186:B1 1.20411e-05
29 *2187:B *2186:B1 8.49205e-05
30 *2189:A1 *2186:B1 0.000118081
31 *2191:A1 *2191:B1 4.66108e-05
32 *2194:A1 *2194:B1 0.000954762
33 *2203:A2 *604:12 0.000131054
34 *2205:A1 *604:12 8.53113e-06
35 *2206:B *2208:B1 0.000155444
36 *2272:D *2181:B1 0.000135413
37 *2272:D *604:67 0.00045293
38 *2272:D *604:78 0.000219699
39 *2272:RESET_B *2181:B1 0
40 *2273:D *604:12 8.34505e-05
41 *2344:D *2183:B1 3.64998e-06
42 *2346:D *604:67 9.54399e-05
43 *2347:D *2191:B1 1.1392e-05
44 *2349:CLK *604:18 5.05437e-05
45 *2349:D *2196:B1 5.39961e-05
46 *2350:CLK *604:12 6.55328e-05
47 *2350:D *604:18 0.000164679
48 *2350:D *604:33 4.54719e-05
49 *2352:CLK *604:18 4.80285e-05
50 *2353:D *2208:B1 1.16578e-05
51 *2384:A *2208:B1 2.7919e-05
52 *2385:A *604:122 0.000184858
53 *2386:A *2208:B1 0.000243067
54 *2386:A *604:122 0.00010804
55 *2462:A *2181:B1 0
56 *291:99 *2200:B1 1.56428e-05
57 *291:99 *604:33 0.000181141
58 *291:99 *604:35 0.000163663
59 *471:36 *2183:B1 4.66108e-05
60 *471:125 *604:12 2.86623e-05
61 *471:125 *604:18 9.05377e-05
62 *471:125 *604:33 0.00012819
63 *473:38 *2191:B1 1.37895e-05
64 *480:44 *2208:B1 2.8185e-05
65 *486:25 *2186:B1 0.00012657
66 *486:32 *2186:B1 0.000225586
67 *486:49 *2186:B1 0.000150653
68 *488:63 *2186:B1 7.77011e-05
69 *488:63 *604:35 0.000255291
70 *488:63 *604:44 9.80032e-06
71 *541:12 *2196:B1 0
72 *603:6 *2208:B1 1.33293e-05
73 *603:16 *2191:B1 0
74 *603:16 *2208:B1 0.000258479
75 *603:39 *604:33 9.68709e-05
*RES
1 *2385:X *604:4 1.6 
2 *604:4 *604:12 10.48 
3 *604:12 *604:18 5.375 
4 *604:18 *2200:B1 4.05 
5 *604:18 *604:33 12.35 
6 *604:33 *604:35 8.73 
7 *604:35 *2189:B1 1.6 
8 *604:35 *604:44 0.81 
9 *604:44 *2186:B1 19.43 
10 *604:44 *604:67 7.205 
11 *604:67 *2194:B1 12.33 
12 *604:67 *604:78 2.655 
13 *604:78 *2183:B1 4.05 
14 *604:78 *2181:B1 13.305 
15 *604:33 *2196:B1 8.255 
16 *604:12 *2205:B1 1.6 
17 *604:4 *604:122 5.28 
18 *604:122 *2191:B1 13.55 
19 *604:122 *2208:B1 16.12 
*END

*D_NET *605 0.00901051
*CONN
*I *2217:C1 I *D sky130_fd_sc_hd__a211oi_1
*I *2218:B1_N I *D sky130_fd_sc_hd__o21ba_1
*I *2210:B1 I *D sky130_fd_sc_hd__a21oi_1
*I *2215:B1 I *D sky130_fd_sc_hd__a21oi_1
*I *2202:B1 I *D sky130_fd_sc_hd__a21oi_1
*I *2213:A I *D sky130_fd_sc_hd__nor2_1
*I *2386:X O *D sky130_fd_sc_hd__clkbuf_2
*CAP
1 *2217:C1 0
2 *2218:B1_N 0.000524096
3 *2210:B1 0.000537802
4 *2215:B1 0
5 *2202:B1 0.000580994
6 *2213:A 0.000154486
7 *2386:X 0
8 *605:51 0.0010619
9 *605:49 0.000336461
10 *605:34 0.000515559
11 *605:25 0.00139755
12 *605:4 0.000791947
13 *2070:A *2210:B1 0.000565974
14 *2179:A *2210:B1 0
15 *2179:C *605:49 0.000210153
16 *2211:A1 *2213:A 1.37328e-05
17 *2211:B1 *605:25 0
18 *2215:A1 *605:34 4.66108e-05
19 *2216:A1 *605:49 8.65961e-05
20 *2217:B1 *605:49 8.05273e-05
21 *2354:CLK *2210:B1 0.000116158
22 *2355:D *605:25 0
23 *2357:CLK *2218:B1_N 6.65066e-05
24 *2357:D *605:49 4.82863e-05
25 *2358:D *2218:B1_N 0
26 *2386:A *2213:A 0
27 *2386:A *605:25 1.71013e-05
28 *291:99 *2213:A 5.33085e-05
29 *291:99 *605:25 0
30 *434:25 *2213:A 0.000231508
31 *434:47 *605:25 0
32 *436:10 *605:25 0
33 *436:14 *605:34 8.65961e-05
34 *436:14 *605:49 0.000277223
35 *437:12 *2210:B1 3.54521e-05
36 *437:12 *605:49 2.30292e-05
37 *437:18 *2210:B1 5.16348e-05
38 *438:23 *2210:B1 4.91659e-05
39 *438:25 *2210:B1 2.04531e-05
40 *473:10 *2210:B1 0
41 *603:16 *605:25 0
42 *603:31 *2202:B1 0.0010297
43 *603:31 *605:25 0
*RES
1 *2386:X *605:4 1.6 
2 *605:4 *2213:A 8.75 
3 *605:4 *605:25 14.05 
4 *605:25 *2202:B1 13.78 
5 *605:25 *605:34 2.865 
6 *605:34 *2215:B1 1.6 
7 *605:34 *605:49 7.155 
8 *605:49 *605:51 2 
9 *605:51 *2210:B1 14.64 
10 *605:51 *2218:B1_N 12.03 
11 *605:49 *2217:C1 1.6 
*END

*D_NET *606 0.0158342
*CONN
*I *2022:B I *D sky130_fd_sc_hd__and3_1
*I *2015:B I *D sky130_fd_sc_hd__and3_1
*I *2016:B I *D sky130_fd_sc_hd__and3_1
*I *2019:B I *D sky130_fd_sc_hd__and3_1
*I *2013:B I *D sky130_fd_sc_hd__and3_1
*I *2011:B I *D sky130_fd_sc_hd__and3_1
*I *2025:B I *D sky130_fd_sc_hd__and3_1
*I *2026:B I *D sky130_fd_sc_hd__and3_1
*I *2012:B I *D sky130_fd_sc_hd__and3_1
*I *2021:B I *D sky130_fd_sc_hd__and3_1
*I *2387:X O *D sky130_fd_sc_hd__clkbuf_2
*CAP
1 *2022:B 8.58169e-05
2 *2015:B 5.93726e-05
3 *2016:B 0.000187002
4 *2019:B 4.77227e-05
5 *2013:B 0.000460482
6 *2011:B 3.81341e-05
7 *2025:B 0.000287553
8 *2026:B 0.000166938
9 *2012:B 0.00021362
10 *2021:B 0.000134678
11 *2387:X 0
12 *606:131 0.000434303
13 *606:118 0.00104452
14 *606:60 0.00106207
15 *606:48 0.00068041
16 *606:31 0.000568817
17 *606:23 0.0012791
18 *606:19 0.00140611
19 *606:17 0.000583618
20 *606:4 0.000533339
21 *2011:B *610:57 3.1562e-06
22 *2012:B *2012:C 7.4027e-05
23 *2012:B *610:49 0.000124091
24 *2012:B *622:38 0
25 *2013:B *610:34 5.92034e-05
26 *2016:B *2015:C 0.000170477
27 *2016:B *610:12 9.37731e-05
28 *2016:B *611:26 5.93844e-05
29 *2016:B *611:64 0
30 *2021:B *2021:C 2.65814e-06
31 *2021:B *607:38 2.5474e-05
32 *2025:B *2025:C 0.000218471
33 *2025:B *2026:C 1.1561e-05
34 *2026:B *2026:C 0.000139882
35 *606:17 *607:38 1.4399e-05
36 *606:17 *607:53 3.59311e-05
37 *606:17 *622:32 0.000345677
38 *606:19 *622:32 0.000304941
39 *606:23 *622:32 0.00115557
40 *606:31 *610:34 6.97943e-06
41 *606:48 *610:49 6.03272e-05
42 *606:60 *610:57 0.000555433
43 *2011:A *2011:B 2.65814e-06
44 *2011:A *606:31 0
45 *2011:A *606:60 1.4389e-05
46 *2012:A *2012:B 1.34361e-05
47 *2013:A *2013:B 3.45588e-05
48 *2048:A1 *2016:B 3.24046e-05
49 *2103:C *606:23 8.26614e-05
50 *2133:B *606:118 0.000234674
51 *2135:A *606:118 0.000120655
52 *2135:B *606:118 0.000124007
53 *2143:A *606:60 0.000309896
54 *2144:A *2012:B 0
55 *2285:CLK *606:23 0
56 *2285:D *2013:B 4.60584e-05
57 *2285:D *606:31 0.000111909
58 *2289:D *2022:B 0.000122325
59 *2299:D *2025:B 4.86604e-05
60 *2308:CLK *606:17 6.27347e-05
61 *2318:D *606:23 0.000183036
62 *2328:CLK *606:118 8.31082e-05
63 *2328:CLK *606:131 2.8185e-05
64 *2328:D *606:118 0.000215262
65 *2406:A *606:17 2.59981e-05
66 *2406:A *606:19 0.000154223
67 *2412:A *2012:B 0
68 *2476:A *606:31 0
69 *2476:A *606:60 0.000481481
70 *2486:A *2025:B 7.08554e-05
71 *329:20 *2016:B 0
72 *329:20 *2019:B 3.86529e-05
73 *329:24 *2015:B 4.66826e-05
74 *329:24 *606:131 0.000117116
75 *400:20 *606:23 3.18219e-05
76 *466:75 *2026:B 4.8854e-05
77 *502:12 *606:23 6.28843e-05
78 *502:30 *606:19 1.71013e-05
79 *502:30 *606:23 2.4997e-05
80 *505:21 *606:60 0
81 *576:24 *2012:B 0
82 *584:22 *2025:B 1.71542e-05
83 *600:16 *606:118 9.07251e-05
84 *600:22 *606:23 0
85 *600:26 *606:23 0
*RES
1 *2387:X *606:4 1.6 
2 *606:4 *2021:B 3.085 
3 *606:4 *606:17 9.05 
4 *606:17 *606:19 3.675 
5 *606:19 *606:23 15.62 
6 *606:23 *606:31 5.8925 
7 *606:31 *2012:B 7.7025 
8 *606:31 *606:48 2.7425 
9 *606:48 *606:60 17.685 
10 *606:60 *2026:B 6.84 
11 *606:60 *2025:B 9.885 
12 *606:48 *2011:B 2.05 
13 *606:23 *2013:B 7.225 
14 *606:19 *606:118 15.59 
15 *606:118 *2019:B 6.47 
16 *606:118 *606:131 2.52 
17 *606:131 *2016:B 9.785 
18 *606:131 *2015:B 2.395 
19 *606:17 *2022:B 4.74 
*END

*D_NET *607 0.0137195
*CONN
*I *2020:B I *D sky130_fd_sc_hd__and3_1
*I *2018:B I *D sky130_fd_sc_hd__and3_1
*I *2017:B I *D sky130_fd_sc_hd__and3_1
*I *2014:B I *D sky130_fd_sc_hd__and3_1
*I *2387:A I *D sky130_fd_sc_hd__clkbuf_2
*I *2023:B I *D sky130_fd_sc_hd__and3_1
*I *2024:B I *D sky130_fd_sc_hd__and3_1
*I *2388:X O *D sky130_fd_sc_hd__clkbuf_2
*CAP
1 *2020:B 3.58834e-05
2 *2018:B 0.000455793
3 *2017:B 0
4 *2014:B 0
5 *2387:A 0
6 *2023:B 0.000159108
7 *2024:B 0.000433425
8 *2388:X 0
9 *607:70 0.000922375
10 *607:63 0.00101808
11 *607:53 0.00272981
12 *607:38 0.00258537
13 *607:8 0.000703975
14 *607:4 0.000554383
15 *2018:B *2018:C 3.47752e-05
16 *2024:B *2024:A 5.13737e-05
17 *2024:B *2024:C 2.65814e-06
18 *2024:B *611:26 6.69965e-06
19 *2024:B *617:37 0
20 *607:38 *2021:C 1.70906e-05
21 *607:38 *2253:A 0.000354725
22 *607:63 *611:76 0.000343329
23 *607:70 *611:83 2.18677e-05
24 *2019:A *607:53 0.000118527
25 *2020:A *607:63 9.82856e-06
26 *2021:B *607:38 2.5474e-05
27 *2023:A *2024:B 9.30717e-05
28 *2038:B1 *2020:B 2.75229e-05
29 *2041:C *607:53 0.000159815
30 *2050:A *607:53 4.47125e-05
31 *2050:C *607:53 0.00018955
32 *2053:B *607:53 0
33 *2053:C *607:53 0
34 *2054:A2 *607:53 0
35 *2054:B1 *607:53 4.92096e-05
36 *2059:A1 *607:53 8.65961e-05
37 *2063:A1 *607:53 2.49909e-05
38 *2063:A2 *607:53 3.00381e-05
39 *2063:B1_N *607:53 4.83503e-05
40 *2098:A *607:53 8.24704e-05
41 *2099:B *607:53 8.65905e-05
42 *2125:D *607:53 8.34348e-05
43 *2291:D *2018:B 0.000378802
44 *2291:D *607:70 8.8266e-05
45 *2296:CLK *2023:B 2.01504e-05
46 *2296:RESET_B *2024:B 0
47 *2296:RESET_B *607:8 0
48 *2308:CLK *607:53 0.000237249
49 *2308:D *607:53 0.000243554
50 *2415:A *607:63 5.30673e-05
51 *2415:A *607:70 0.0002187
52 *2463:A *607:53 0
53 *2488:A *2023:B 0.000197826
54 *289:35 *607:53 0.000183745
55 *335:28 *607:53 4.43682e-05
56 *336:10 *607:53 3.18137e-05
57 *336:10 *607:63 1.22676e-05
58 *343:8 *607:53 0.000128005
59 *388:23 *607:53 0
60 *388:23 *607:63 0
61 *465:129 *607:53 0
62 *501:31 *607:53 0.000116853
63 *509:48 *607:53 4.9968e-05
64 *510:72 *607:53 7.36562e-05
65 *513:12 *607:53 0
66 *557:10 *607:63 0
67 *606:17 *607:38 1.4399e-05
68 *606:17 *607:53 3.59311e-05
*RES
1 *2388:X *607:4 1.6 
2 *607:4 *607:8 3.38 
3 *607:8 *2024:B 9.96 
4 *607:8 *2023:B 5.775 
5 *607:4 *607:38 7.755 
6 *607:38 *2387:A 1.6 
7 *607:38 *607:53 39.905 
8 *607:53 *607:63 12.305 
9 *607:63 *2014:B 1.6 
10 *607:63 *607:70 5.97 
11 *607:70 *2017:B 1.6 
12 *607:70 *2018:B 7.57 
13 *607:53 *2020:B 4.05 
*END

*D_NET *608 0.0136108
*CONN
*I *1973:B1 I *D sky130_fd_sc_hd__o21a_1
*I *1976:B1 I *D sky130_fd_sc_hd__o21a_1
*I *1985:B1 I *D sky130_fd_sc_hd__o21a_1
*I *1979:B1 I *D sky130_fd_sc_hd__o21a_1
*I *1970:B1 I *D sky130_fd_sc_hd__o21a_1
*I *1991:B1 I *D sky130_fd_sc_hd__o21a_1
*I *1988:B1 I *D sky130_fd_sc_hd__o21a_1
*I *1995:B I *D sky130_fd_sc_hd__and2_1
*I *1982:C1 I *D sky130_fd_sc_hd__o211a_1
*I *1993:C1 I *D sky130_fd_sc_hd__o211a_1
*I *2389:X O *D sky130_fd_sc_hd__buf_2
*CAP
1 *1973:B1 0.000181444
2 *1976:B1 2.11983e-05
3 *1985:B1 0.000115373
4 *1979:B1 0
5 *1970:B1 4.55848e-05
6 *1991:B1 8.67536e-05
7 *1988:B1 0.000153675
8 *1995:B 0.000791621
9 *1982:C1 2.59013e-05
10 *1993:C1 6.22744e-05
11 *2389:X 8.10783e-05
12 *608:71 0.000846251
13 *608:65 0.000889577
14 *608:59 0.00023817
15 *608:37 0.00105964
16 *608:20 0.00164947
17 *608:14 0.00140828
18 *608:12 0.000301665
19 *608:10 0.000212644
20 *608:8 0.00033088
21 *1970:B1 *1981:A1 0.000122337
22 *1973:B1 *1971:C 9.87531e-05
23 *1985:B1 *614:48 0.000308926
24 *1988:B1 *640:25 0
25 *1995:B *621:36 0
26 *608:10 *1971:C 0.000131401
27 *608:12 *1971:C 5.16418e-05
28 *608:12 *614:79 0.000307296
29 *608:14 *1964:B 4.38051e-05
30 *608:14 *614:50 7.06865e-05
31 *608:14 *614:79 5.4003e-05
32 *608:20 *1964:B 0.000200524
33 *608:20 *1981:A1 0.000214959
34 *608:65 *1966:C 8.86723e-05
35 *608:65 *1977:C 1.91597e-05
36 *608:71 *2034:C 2.46007e-05
37 *608:71 *639:10 5.13029e-05
38 *608:71 *640:25 7.76237e-05
39 *1951:A *1995:B 2.46007e-05
40 *1965:B *608:20 6.1357e-05
41 *1966:B *608:65 2.54431e-05
42 *1971:A *1973:B1 0.000200759
43 *1971:B *1973:B1 4.66742e-05
44 *1971:B *608:8 0.0001249
45 *1973:A1 *1973:B1 4.82919e-05
46 *1973:A2 *608:65 0.000114753
47 *1973:A2 *608:71 0.000287995
48 *1974:A *1976:B1 4.82919e-05
49 *1976:A2 *608:10 2.97004e-06
50 *1976:A2 *608:12 0.000139067
51 *1976:A2 *608:14 5.93844e-05
52 *1976:A2 *608:20 8.08153e-06
53 *1979:A2 *608:20 6.28765e-05
54 *1982:A1 *1995:B 1.17409e-05
55 *1982:A1 *608:37 1.03323e-05
56 *1982:A2 *608:37 1.34503e-05
57 *1982:B1 *1982:C1 1.85674e-05
58 *1982:B1 *608:20 0.000138808
59 *1982:B1 *608:37 0.000267767
60 *1993:A1 *1993:C1 7.3664e-05
61 *2007:C1 *1995:B 0
62 *2008:B1 *1995:B 0
63 *2269:D *1970:B1 1.83847e-05
64 *2272:D *608:65 0.0001249
65 *2273:D *1993:C1 5.13029e-05
66 *2276:D *1991:B1 4.47209e-05
67 *2276:D *608:71 0.000207887
68 *2390:A *1995:B 4.18603e-06
69 *2393:A *608:20 0.000198939
70 *2467:A *608:71 9.30717e-05
71 *273:22 *608:71 0.000139238
72 *286:12 *1995:B 3.68769e-05
73 *287:25 *1995:B 0
74 *295:43 *1988:B1 0
75 *465:64 *608:65 0
76 *465:64 *608:71 0
77 *488:16 *1973:B1 0
78 *488:16 *608:10 0
79 *560:36 *1985:B1 0.00053431
*RES
1 *2389:X *608:8 4.74 
2 *608:8 *608:10 1.635 
3 *608:10 *608:12 4.185 
4 *608:12 *608:14 1.89 
5 *608:14 *608:20 19.61 
6 *608:20 *1993:C1 7.235 
7 *608:20 *608:37 4.02 
8 *608:37 *1982:C1 2.215 
9 *608:37 *1995:B 16.97 
10 *608:14 *608:59 2 
11 *608:59 *608:65 7.265 
12 *608:65 *608:71 15.26 
13 *608:71 *1988:B1 8 
14 *608:71 *1991:B1 3.085 
15 *608:65 *1970:B1 4.74 
16 *608:59 *1979:B1 1.6 
17 *608:12 *1985:B1 8.535 
18 *608:10 *1976:B1 4.05 
19 *608:8 *1973:B1 8.265 
*END

*D_NET *609 0.00749051
*CONN
*I *2009:B I *D sky130_fd_sc_hd__and3_1
*I *2010:B I *D sky130_fd_sc_hd__and3_1
*I *2006:A I *D sky130_fd_sc_hd__and2_1
*I *2004:A I *D sky130_fd_sc_hd__and2_1
*I *2000:C1 I *D sky130_fd_sc_hd__o211a_1
*I *2390:X O *D sky130_fd_sc_hd__buf_1
*CAP
1 *2009:B 0.00013572
2 *2010:B 0
3 *2006:A 0
4 *2004:A 0.000250724
5 *2000:C1 0.00015666
6 *2390:X 0
7 *609:53 0.00080405
8 *609:31 0.000411006
9 *609:29 0.00214975
10 *609:4 0.00147779
11 *2004:A *613:135 0
12 *2004:A *621:203 0
13 *2009:B *613:148 6.37488e-06
14 *2009:B *613:155 6.43283e-05
15 *609:31 *613:135 0
16 *609:31 *621:203 0
17 *609:53 *613:135 0
18 *609:53 *613:148 0
19 *609:53 *621:203 0
20 *1995:A *2000:C1 4.82863e-05
21 *2003:B1 *2004:A 0
22 *2004:B *2004:A 3.00381e-05
23 *2006:B *2004:A 6.55328e-05
24 *2007:B1 *609:29 0
25 *2008:B1 *609:29 0.000133611
26 *2075:A1 *609:29 1.47347e-05
27 *2075:A3 *609:29 2.20732e-05
28 *2076:A3 *609:29 2.8768e-05
29 *2079:A4 *609:29 0.00046451
30 *2080:A1 *609:29 2.75145e-05
31 *2080:B1 *609:29 7.35729e-05
32 *2086:C1 *609:29 4.82919e-05
33 *2283:CLK *609:53 0
34 *2284:D *609:53 6.47516e-05
35 *2390:A *609:29 0
36 *280:85 *2000:C1 0.000320061
37 *280:85 *609:29 0.000151541
38 *287:25 *609:29 8.53113e-06
39 *360:16 *609:29 0.000282401
40 *360:29 *609:29 0.000169472
41 *472:114 *2004:A 2.75229e-05
42 *473:123 *609:53 0
43 *480:54 *609:29 5.28932e-05
*RES
1 *2390:X *609:4 1.6 
2 *609:4 *2000:C1 5.08 
3 *609:4 *609:29 26.415 
4 *609:29 *609:31 2.655 
5 *609:31 *2004:A 8.235 
6 *609:31 *2006:A 3.6 
7 *609:29 *609:53 13.07 
8 *609:53 *2010:B 1.6 
9 *609:53 *2009:B 4.15 
*END

*D_NET *610 0.0159534
*CONN
*I *2015:C I *D sky130_fd_sc_hd__and3_1
*I *2016:C I *D sky130_fd_sc_hd__and3_1
*I *2019:C I *D sky130_fd_sc_hd__and3_1
*I *2022:C I *D sky130_fd_sc_hd__and3_1
*I *2021:C I *D sky130_fd_sc_hd__and3_1
*I *2013:C I *D sky130_fd_sc_hd__and3_1
*I *2011:C I *D sky130_fd_sc_hd__and3_1
*I *2025:C I *D sky130_fd_sc_hd__and3_1
*I *2026:C I *D sky130_fd_sc_hd__and3_1
*I *2012:C I *D sky130_fd_sc_hd__and3_1
*I *2391:X O *D sky130_fd_sc_hd__clkbuf_2
*CAP
1 *2015:C 0.000155537
2 *2016:C 0
3 *2019:C 9.66362e-05
4 *2022:C 0
5 *2021:C 0.000410924
6 *2013:C 0
7 *2011:C 0
8 *2025:C 0.000282873
9 *2026:C 0.000205947
10 *2012:C 3.82045e-05
11 *2391:X 0
12 *610:95 0.00138761
13 *610:57 0.00138049
14 *610:49 0.000989662
15 *610:34 0.000812498
16 *610:26 0.00139326
17 *610:22 0.00180042
18 *610:18 0.0003255
19 *610:12 0.000217987
20 *610:6 0.000251433
21 *2015:C *611:64 0
22 *2019:C *2392:A 1.70906e-05
23 *2025:C *616:45 0
24 *2025:C *616:51 0
25 *2026:C *2243:A 0
26 *2026:C *616:51 0
27 *610:12 *611:64 0
28 *2011:A *610:49 2.92496e-05
29 *2011:A *610:57 4.82863e-05
30 *2011:B *610:57 3.1562e-06
31 *2012:A *2012:C 7.06865e-05
32 *2012:A *610:49 0.000296775
33 *2012:B *2012:C 7.4027e-05
34 *2012:B *610:49 0.000124091
35 *2013:A *610:34 5.38758e-05
36 *2013:B *610:34 5.92034e-05
37 *2015:A *2015:C 9.11893e-05
38 *2016:B *2015:C 0.000170477
39 *2016:B *610:12 9.37731e-05
40 *2021:A *2021:C 0.000198196
41 *2021:B *2021:C 2.65814e-06
42 *2022:A *610:95 0.000198939
43 *2025:B *2025:C 0.000218471
44 *2025:B *2026:C 1.1561e-05
45 *2026:B *2026:C 0.000139882
46 *2039:B *610:49 0
47 *2040:B *2015:C 0
48 *2048:A1 *610:18 0
49 *2105:A2 *610:26 0
50 *2130:B *610:95 0
51 *2134:B *610:95 0.000139245
52 *2143:A *610:57 0.000180373
53 *2143:B *2025:C 0
54 *2144:A *2012:C 9.16333e-06
55 *2144:B *2026:C 0
56 *2285:D *610:34 0.000105645
57 *2287:CLK *610:26 0
58 *2289:D *2021:C 0.000125691
59 *2289:D *610:95 8.92483e-05
60 *2290:D *610:18 0.00015711
61 *2290:D *610:22 0.000811811
62 *2296:RESET_B *2021:C 0
63 *2300:D *2026:C 4.82863e-05
64 *2327:CLK *610:26 0
65 *2327:CLK *610:95 0
66 *2328:CLK *2015:C 3.49688e-05
67 *2406:A *2021:C 7.20914e-05
68 *2406:A *610:95 2.87979e-05
69 *2418:A *610:95 0.00012524
70 *2476:A *610:57 4.05775e-05
71 *2486:A *2025:C 0.000184778
72 *328:10 *2015:C 0
73 *329:20 *2015:C 0
74 *329:20 *2019:C 4.75576e-05
75 *329:20 *610:18 8.65961e-05
76 *329:20 *610:22 0.000810135
77 *383:10 *610:95 0
78 *400:20 *610:18 2.76781e-05
79 *404:10 *610:95 0
80 *466:75 *2026:C 4.9968e-05
81 *468:72 *610:26 0
82 *499:24 *610:26 0
83 *499:41 *610:26 0
84 *501:19 *610:95 0.000214984
85 *501:21 *610:95 0.000128353
86 *505:21 *610:49 0
87 *576:24 *2026:C 0.000107975
88 *600:12 *610:95 3.67779e-05
89 *600:22 *610:26 0
90 *600:22 *610:95 0
91 *600:26 *610:26 0
92 *606:31 *610:34 6.97943e-06
93 *606:48 *610:49 6.03272e-05
94 *606:60 *610:57 0.000555433
95 *607:38 *2021:C 1.70906e-05
*RES
1 *2391:X *610:6 3.6 
2 *610:6 *610:12 3.695 
3 *610:12 *610:18 2.865 
4 *610:18 *610:22 9.35 
5 *610:22 *610:26 13.07 
6 *610:26 *610:34 10.1 
7 *610:34 *2012:C 4.635 
8 *610:34 *610:49 5.42 
9 *610:49 *610:57 13.55 
10 *610:57 *2026:C 7.785 
11 *610:57 *2025:C 9.24 
12 *610:49 *2011:C 1.6 
13 *610:26 *2013:C 1.6 
14 *610:22 *610:95 17.495 
15 *610:95 *2021:C 13.46 
16 *610:95 *2022:C 1.6 
17 *610:18 *2019:C 7.145 
18 *610:12 *2016:C 1.6 
19 *610:6 *2015:C 7.095 
*END

*D_NET *611 0.0138141
*CONN
*I *2391:A I *D sky130_fd_sc_hd__clkbuf_2
*I *2020:C I *D sky130_fd_sc_hd__and3_1
*I *2018:C I *D sky130_fd_sc_hd__and3_1
*I *2017:C I *D sky130_fd_sc_hd__and3_1
*I *2014:C I *D sky130_fd_sc_hd__and3_1
*I *2023:C I *D sky130_fd_sc_hd__and3_1
*I *2024:C I *D sky130_fd_sc_hd__and3_1
*I *2392:X O *D sky130_fd_sc_hd__clkbuf_2
*CAP
1 *2391:A 0
2 *2020:C 8.06069e-06
3 *2018:C 0.000478266
4 *2017:C 0
5 *2014:C 0
6 *2023:C 0.000280027
7 *2024:C 8.69203e-06
8 *2392:X 0
9 *611:83 0.000941294
10 *611:76 0.000905357
11 *611:64 0.0010396
12 *611:52 0.000727662
13 *611:26 0.00197363
14 *611:4 0.00182335
15 *2023:C *617:54 1.70906e-05
16 *611:26 *2024:A 0.000270322
17 *611:52 *2392:A 4.82919e-05
18 *2014:A *611:83 8.40269e-05
19 *2015:A *611:64 4.82863e-05
20 *2015:C *611:64 0
21 *2016:B *611:26 5.93844e-05
22 *2016:B *611:64 0
23 *2018:B *2018:C 3.47752e-05
24 *2020:A *2020:C 1.90327e-05
25 *2020:A *611:64 8.65905e-05
26 *2024:B *2024:C 2.65814e-06
27 *2024:B *611:26 6.69965e-06
28 *2038:A2 *611:64 3.24046e-05
29 *2038:B1 *611:64 1.34594e-05
30 *2038:C1 *611:64 0.000226431
31 *2039:B *611:26 0
32 *2048:A1 *611:64 7.5431e-05
33 *2138:B *611:26 0.000250616
34 *2139:B *611:26 0.0001383
35 *2140:B *611:26 4.9968e-05
36 *2141:B *611:26 8.53113e-06
37 *2290:D *611:26 0.00243669
38 *2291:D *2018:C 0.000136671
39 *2291:D *611:83 2.83972e-05
40 *2298:CLK *611:26 0
41 *2415:A *611:83 3.09179e-05
42 *328:10 *611:64 0.00024756
43 *329:20 *611:26 1.07797e-05
44 *388:23 *611:64 0
45 *388:23 *611:76 0
46 *400:20 *611:26 7.06865e-05
47 *400:20 *611:52 0.00012173
48 *400:20 *611:64 3.90495e-05
49 *410:14 *611:26 0.000239807
50 *468:49 *611:76 0.000143924
51 *468:49 *611:83 0.000138311
52 *557:10 *611:76 0
53 *584:22 *611:76 0.000146149
54 *607:63 *611:76 0.000343329
55 *607:70 *611:83 2.18677e-05
56 *610:12 *611:64 0
*RES
1 *2392:X *611:4 1.6 
2 *611:4 *611:26 41.48 
3 *611:26 *2024:C 1.765 
4 *611:26 *2023:C 9.695 
5 *611:4 *611:52 2.295 
6 *611:52 *611:64 14.275 
7 *611:64 *611:76 13.9 
8 *611:76 *2014:C 1.6 
9 *611:76 *611:83 5.97 
10 *611:83 *2017:C 1.6 
11 *611:83 *2018:C 7.69 
12 *611:64 *2020:C 1.78375 
13 *611:52 *2391:A 1.6 
*END

*D_NET *612 0.000611042
*CONN
*I *2088:C I *D sky130_fd_sc_hd__or4_1
*I *2457:X O *D sky130_fd_sc_hd__clkbuf_1
*CAP
1 *2088:C 0.000229764
2 *2457:X 0.000229764
3 *747:DIODE *2088:C 3.00381e-05
4 *2088:B *2088:C 0.000117825
5 *2155:A2 *2088:C 3.64998e-06
6 *18:11 *2088:C 0
*RES
1 *2457:X *2088:C 10.41 
*END

*D_NET *613 0.019845
*CONN
*I *659:DIODE I *D sky130_fd_sc_hd__diode_2
*I *1987:B1 I *D sky130_fd_sc_hd__a22o_1
*I *663:DIODE I *D sky130_fd_sc_hd__diode_2
*I *2009:C I *D sky130_fd_sc_hd__and3_1
*I *2010:C I *D sky130_fd_sc_hd__and3_1
*I *664:DIODE I *D sky130_fd_sc_hd__diode_2
*I *2005:A2 I *D sky130_fd_sc_hd__a22o_1
*I *662:DIODE I *D sky130_fd_sc_hd__diode_2
*I *2003:A2 I *D sky130_fd_sc_hd__a22o_1
*I *661:DIODE I *D sky130_fd_sc_hd__diode_2
*I *2392:A I *D sky130_fd_sc_hd__clkbuf_2
*I *712:DIODE I *D sky130_fd_sc_hd__diode_2
*I *658:DIODE I *D sky130_fd_sc_hd__diode_2
*I *713:DIODE I *D sky130_fd_sc_hd__diode_2
*I *1990:B1 I *D sky130_fd_sc_hd__a22o_1
*I *2393:X O *D sky130_fd_sc_hd__clkbuf_2
*CAP
1 *659:DIODE 6.2025e-05
2 *1987:B1 0
3 *663:DIODE 9.36718e-05
4 *2009:C 0
5 *2010:C 0
6 *664:DIODE 0
7 *2005:A2 0
8 *662:DIODE 0
9 *2003:A2 0.000161889
10 *661:DIODE 0
11 *2392:A 0.000226279
12 *712:DIODE 0
13 *658:DIODE 0
14 *713:DIODE 0
15 *1990:B1 0.000142985
16 *2393:X 0
17 *613:155 0.000231366
18 *613:148 0.000344706
19 *613:135 0.00122137
20 *613:124 0.00117386
21 *613:113 0.000264848
22 *613:91 0.000161889
23 *613:89 0.00189452
24 *613:57 0.00190034
25 *613:47 0.00371449
26 *613:34 0.000299157
27 *613:27 0.000176962
28 *613:23 0.000188217
29 *613:19 0.000121171
30 *613:4 0.000142985
31 *659:DIODE *1987:A1 0.00016979
32 *613:23 *1987:A1 0.000136877
33 *613:27 *1972:B2 3.09088e-05
34 *613:47 *1972:B2 7.70938e-05
35 *613:47 *634:63 5.51158e-05
36 *613:57 *617:71 0
37 *613:57 *634:48 0
38 *613:57 *634:63 0.000316806
39 *613:57 *635:50 1.34361e-05
40 *613:89 *1932:A 3.66286e-05
41 *613:89 *620:44 0
42 *613:89 *620:62 0
43 *613:89 *645:16 0.000331947
44 *613:89 *650:18 0.000214066
45 *1957:A *613:89 0
46 *1984:A2 *613:23 1.34361e-05
47 *1985:A2 *659:DIODE 4.39079e-05
48 *1985:A2 *613:23 8.70923e-05
49 *1985:A2 *613:57 0
50 *1986:A *613:57 0
51 *1987:B2 *613:27 9.20116e-05
52 *1987:B2 *613:34 8.8266e-05
53 *1987:B2 *613:47 0.000313852
54 *2003:A1 *2003:A2 5.59861e-05
55 *2003:A1 *613:113 0
56 *2003:B1 *613:135 2.97004e-06
57 *2003:B2 *2003:A2 5.22973e-05
58 *2004:A *613:135 0
59 *2004:B *2003:A2 1.51429e-05
60 *2005:A1 *613:124 1.47347e-05
61 *2005:A1 *613:135 0
62 *2009:B *613:148 6.37488e-06
63 *2009:B *613:155 6.43283e-05
64 *2010:A *613:148 6.05539e-05
65 *2019:A *2392:A 3.10613e-05
66 *2019:C *2392:A 1.70906e-05
67 *2036:D_N *613:57 0
68 *2057:B *613:57 0
69 *2057:C *613:57 7.21296e-06
70 *2076:A3 *613:89 0.000191101
71 *2076:A3 *613:113 9.52234e-05
72 *2076:A3 *613:135 0
73 *2097:B *613:57 0
74 *2099:A *613:57 0.000316799
75 *2133:B *613:57 0
76 *2283:D *663:DIODE 4.82919e-05
77 *2293:D *2392:A 3.07153e-05
78 *2293:D *613:57 5.33172e-05
79 *2310:D *613:57 0
80 *2327:CLK *613:57 5.2478e-05
81 *2336:D *613:89 9.30717e-05
82 *2339:CLK *1990:B1 0.00015639
83 *2353:D *613:135 0
84 *2393:A *659:DIODE 9.47454e-05
85 *271:64 *613:89 0
86 *292:59 *1990:B1 3.86607e-05
87 *295:101 *613:124 0.000119483
88 *316:28 *613:89 0
89 *316:28 *613:113 0
90 *326:16 *613:57 1.73877e-05
91 *334:10 *613:57 0
92 *335:16 *613:89 0.00177692
93 *338:21 *613:57 0.000191897
94 *338:31 *613:57 0.000140905
95 *383:10 *613:57 0.000181315
96 *400:20 *2392:A 8.65961e-05
97 *472:39 *613:89 0.00107212
98 *472:114 *2003:A2 1.33293e-05
99 *472:114 *613:113 7.06865e-05
100 *473:10 *613:135 0
101 *481:12 *613:135 0
102 *496:30 *613:57 0
103 *496:41 *613:57 0
104 *555:10 *1990:B1 9.50342e-06
105 *555:20 *1990:B1 7.4027e-05
106 *609:31 *613:135 0
107 *609:53 *613:135 0
108 *609:53 *613:148 0
109 *611:52 *2392:A 4.82919e-05
*RES
1 *2393:X *613:4 1.6 
2 *613:4 *1990:B1 7.955 
3 *613:4 *613:19 2 
4 *613:19 *613:23 3.89 
5 *613:23 *613:27 1.845 
6 *613:27 *713:DIODE 1.6 
7 *613:27 *613:34 0.795 
8 *613:34 *658:DIODE 1.6 
9 *613:34 *613:47 8.5 
10 *613:47 *613:57 34.195 
11 *613:57 *712:DIODE 1.6 
12 *613:57 *2392:A 5.74 
13 *613:47 *613:89 40.91 
14 *613:89 *613:91 2 
15 *613:91 *661:DIODE 1.6 
16 *613:91 *2003:A2 4.255 
17 *613:89 *613:113 4.145 
18 *613:113 *662:DIODE 1.6 
19 *613:113 *613:124 2.805 
20 *613:124 *2005:A2 1.6 
21 *613:124 *613:135 18.11 
22 *613:135 *664:DIODE 3.6 
23 *613:135 *613:148 4.925 
24 *613:148 *2010:C 1.6 
25 *613:148 *613:155 1.83 
26 *613:155 *2009:C 1.6 
27 *613:155 *663:DIODE 3.145 
28 *613:23 *1987:B1 1.6 
29 *613:19 *659:DIODE 5.745 
*END

*D_NET *614 0.00975132
*CONN
*I *1999:B1 I *D sky130_fd_sc_hd__a22o_1
*I *1992:A2 I *D sky130_fd_sc_hd__a21o_1
*I *1994:A1 I *D sky130_fd_sc_hd__o21a_1
*I *1971:C I *D sky130_fd_sc_hd__and3_1
*I *1974:C I *D sky130_fd_sc_hd__and3_1
*I *1977:C I *D sky130_fd_sc_hd__and3_1
*I *1966:C I *D sky130_fd_sc_hd__and3_1
*I *1964:B I *D sky130_fd_sc_hd__nor2_2
*I *1983:C I *D sky130_fd_sc_hd__and3_1
*I *1981:B1 I *D sky130_fd_sc_hd__a22o_1
*I *2394:X O *D sky130_fd_sc_hd__buf_2
*CAP
1 *1999:B1 0.000167782
2 *1992:A2 0
3 *1994:A1 8.19609e-06
4 *1971:C 0.000166184
5 *1974:C 0.000203634
6 *1977:C 0.000212529
7 *1966:C 0.000104734
8 *1964:B 0.000173344
9 *1983:C 0
10 *1981:B1 7.3747e-05
11 *2394:X 5.92781e-05
12 *614:103 2.94497e-05
13 *614:101 0.000321461
14 *614:79 0.000540179
15 *614:63 0.000317263
16 *614:50 0.000212358
17 *614:48 0.000908591
18 *614:23 0.000916114
19 *614:10 0.000344815
20 *614:6 0.000245872
21 *1964:B *1981:A1 0.000198046
22 *1981:B1 *1981:A1 9.50342e-06
23 *1966:B *1977:C 1.91114e-05
24 *1970:A1 *1964:B 5.39718e-05
25 *1970:A2 *1964:B 5.53249e-06
26 *1971:A *1971:C 5.49479e-05
27 *1973:A2 *1964:B 0
28 *1973:B1 *1971:C 9.87531e-05
29 *1974:A *1974:C 0.000299513
30 *1979:A1 *1977:C 1.4399e-05
31 *1979:A2 *1964:B 2.84224e-05
32 *1983:A *614:10 0
33 *1985:A2 *614:48 4.38813e-05
34 *1985:B1 *614:48 0.000308926
35 *1990:B2 *1981:B1 5.7344e-05
36 *1990:B2 *614:10 5.02217e-05
37 *1992:A1 *1999:B1 0.000543676
38 *1992:A1 *614:103 3.26889e-05
39 *1995:A *1999:B1 0.00080154
40 *1995:A *614:23 0.000112622
41 *1995:A *614:101 0.000196376
42 *1999:A1 *1999:B1 1.19928e-05
43 *2073:B *1999:B1 0.000192125
44 *2272:D *1964:B 0
45 *2272:D *1971:C 0
46 *2272:D *614:50 0
47 *2272:D *614:79 0
48 *2389:A *1971:C 1.52184e-05
49 *280:68 *1999:B1 4.87465e-06
50 *280:85 *1999:B1 1.27695e-05
51 *281:14 *1981:B1 0
52 *281:14 *614:10 0
53 *281:14 *614:23 7.79548e-05
54 *281:14 *614:48 9.58678e-06
55 *488:16 *1971:C 0
56 *542:82 *614:48 1.7635e-05
57 *560:24 *1994:A1 3.00381e-05
58 *560:24 *1999:B1 9.27255e-06
59 *560:24 *614:101 7.68414e-06
60 *560:24 *614:103 1.85674e-05
61 *560:36 *614:6 0.000124895
62 *560:36 *614:48 2.03356e-05
63 *560:36 *614:101 0.000296173
64 *608:10 *1971:C 0.000131401
65 *608:12 *1971:C 5.16418e-05
66 *608:12 *614:79 0.000307296
67 *608:14 *1964:B 4.38051e-05
68 *608:14 *614:50 7.06865e-05
69 *608:14 *614:79 5.4003e-05
70 *608:20 *1964:B 0.000200524
71 *608:65 *1966:C 8.86723e-05
72 *608:65 *1977:C 1.91597e-05
*RES
1 *2394:X *614:6 2.74 
2 *614:6 *614:10 3.125 
3 *614:10 *1981:B1 4.98 
4 *614:10 *614:23 4.94375 
5 *614:23 *1983:C 1.6 
6 *614:23 *614:48 13.7061 
7 *614:48 *614:50 0.87 
8 *614:50 *1964:B 8.34 
9 *614:50 *614:63 2 
10 *614:63 *1966:C 2.9875 
11 *614:63 *1977:C 4.0225 
12 *614:48 *614:79 4.185 
13 *614:79 *1974:C 6.3675 
14 *614:79 *1971:C 7.275 
15 *614:6 *614:101 3.555 
16 *614:101 *614:103 0.615 
17 *614:103 *1994:A1 2.05 
18 *614:103 *1992:A2 1.6 
19 *614:101 *1999:B1 9.565 
*END

*D_NET *615 0.0284832
*CONN
*I *2145:B1 I *D sky130_fd_sc_hd__o21a_1
*I *677:DIODE I *D sky130_fd_sc_hd__diode_2
*I *2152:B1 I *D sky130_fd_sc_hd__o31a_1
*I *671:DIODE I *D sky130_fd_sc_hd__diode_2
*I *2087:B1 I *D sky130_fd_sc_hd__o31a_1
*I *668:DIODE I *D sky130_fd_sc_hd__diode_2
*I *2081:A1 I *D sky130_fd_sc_hd__a31o_1
*I *666:DIODE I *D sky130_fd_sc_hd__diode_2
*I *2076:A1 I *D sky130_fd_sc_hd__a31o_1
*I *667:DIODE I *D sky130_fd_sc_hd__diode_2
*I *2147:B I *D sky130_fd_sc_hd__and2_1
*I *673:DIODE I *D sky130_fd_sc_hd__diode_2
*I *675:DIODE I *D sky130_fd_sc_hd__diode_2
*I *2149:B I *D sky130_fd_sc_hd__and2_1
*I *715:DIODE I *D sky130_fd_sc_hd__diode_2
*I *697:DIODE I *D sky130_fd_sc_hd__diode_2
*I *2269:RESET_B I *D sky130_fd_sc_hd__dfrtp_1
*I *681:DIODE I *D sky130_fd_sc_hd__diode_2
*I *2225:B1 I *D sky130_fd_sc_hd__o21a_1
*I *682:DIODE I *D sky130_fd_sc_hd__diode_2
*I *2226:B1 I *D sky130_fd_sc_hd__o21a_1
*I *2395:X O *D sky130_fd_sc_hd__clkbuf_4
*CAP
1 *2145:B1 0
2 *677:DIODE 0.000276422
3 *2152:B1 2.63842e-05
4 *671:DIODE 0
5 *2087:B1 3.18955e-05
6 *668:DIODE 0
7 *2081:A1 0
8 *666:DIODE 0.000219375
9 *2076:A1 0.000110948
10 *667:DIODE 4.26907e-05
11 *2147:B 0
12 *673:DIODE 6.43122e-05
13 *675:DIODE 0
14 *2149:B 0.000129656
15 *715:DIODE 0
16 *697:DIODE 0.000206836
17 *2269:RESET_B 8.69739e-05
18 *681:DIODE 0
19 *2225:B1 8.24727e-05
20 *682:DIODE 0
21 *2226:B1 9.87132e-05
22 *2395:X 0
23 *615:245 0.000466013
24 *615:239 0.000275412
25 *615:226 0.00011813
26 *615:212 0.000402615
27 *615:177 0.00084375
28 *615:165 0.000547339
29 *615:156 0.00046265
30 *615:148 0.00220723
31 *615:142 0.00163773
32 *615:128 8.63269e-05
33 *615:124 0.000466135
34 *615:106 0.000170959
35 *615:102 0.00193605
36 *615:79 0.00171292
37 *615:60 0.00109042
38 *615:49 0.000883624
39 *615:36 0.000896823
40 *615:10 0.000335231
41 *615:8 0.0012574
42 *615:4 0.000374483
43 *666:DIODE *2155:A1 0.000158066
44 *673:DIODE *1972:B2 4.82863e-05
45 *673:DIODE *649:58 2.67275e-05
46 *677:DIODE *1969:B2 7.68414e-06
47 *677:DIODE *634:78 5.08889e-05
48 *2149:B *2149:A 7.34993e-05
49 *2152:B1 *1969:B2 0.000122331
50 *2225:B1 *2225:A1 4.60584e-05
51 *2225:B1 *622:14 0
52 *2226:B1 *2226:A1 3.24046e-05
53 *615:8 *2264:A 0.000469637
54 *615:10 *2226:A1 0.000100308
55 *615:10 *635:19 0.000132883
56 *615:36 *1955:B1_N 0.000227543
57 *615:36 *2225:A1 5.00675e-05
58 *615:36 *2311:D 9.71067e-05
59 *615:36 *634:21 0.000110205
60 *615:36 *635:19 5.02411e-05
61 *615:36 *635:40 4.92206e-05
62 *615:49 *622:14 0
63 *615:60 *1953:A2 0
64 *615:60 *2233:A 0
65 *615:60 *2313:D 0
66 *615:60 *618:66 0
67 *615:60 *618:72 0
68 *615:60 *622:14 0
69 *615:79 *2264:A 0.000121437
70 *615:102 *2066:B1 9.05299e-05
71 *615:102 *2264:A 0.00012657
72 *615:102 *622:32 0
73 *615:128 *649:58 1.83756e-05
74 *615:148 *1969:B2 0.000241032
75 *615:148 *620:40 0.000976567
76 *615:156 *2001:A_N 7.13722e-05
77 *615:156 *645:16 0
78 *1987:B2 *677:DIODE 1.52945e-05
79 *1990:B2 *677:DIODE 3.23391e-05
80 *1990:B2 *615:245 8.25609e-05
81 *1993:A1 *615:124 0.000165841
82 *1993:A1 *615:142 0.000256265
83 *1993:A1 *615:226 6.71803e-06
84 *1993:A1 *615:239 3.57768e-05
85 *1999:A1 *615:239 8.49205e-05
86 *2000:A2 *615:212 0
87 *2001:B *615:156 9.44589e-05
88 *2036:B *615:102 0.000198945
89 *2049:C *615:102 1.08758e-05
90 *2053:B *667:DIODE 4.66108e-05
91 *2053:B *615:156 2.92496e-05
92 *2053:B *615:165 4.82919e-05
93 *2066:A2 *615:102 0.000120173
94 *2075:A2 *2087:B1 8.65961e-05
95 *2075:A2 *615:212 8.23457e-05
96 *2076:A3 *615:177 1.23244e-05
97 *2076:B1 *666:DIODE 6.82387e-05
98 *2076:B1 *2076:A1 1.40393e-05
99 *2078:B *2076:A1 7.19352e-05
100 *2078:B *615:177 2.92496e-05
101 *2081:A3 *615:156 0.00017946
102 *2081:A3 *615:177 3.13899e-05
103 *2081:A3 *615:212 0.000244781
104 *2085:C *2076:A1 1.00941e-05
105 *2085:C *615:177 6.47709e-05
106 *2090:C_N *615:156 1.07797e-05
107 *2145:A2 *615:102 2.99518e-06
108 *2145:A2 *615:124 5.86503e-05
109 *2152:A2 *677:DIODE 2.16833e-05
110 *2152:A2 *2152:B1 8.57024e-05
111 *2152:A3 *677:DIODE 0.000158965
112 *2152:A3 *2152:B1 2.05056e-05
113 *2159:A2 *615:177 0
114 *2159:B1 *667:DIODE 1.47256e-05
115 *2159:B1 *615:165 1.34503e-05
116 *2159:B1 *615:177 0.00070194
117 *2164:A1 *615:177 0
118 *2164:A2 *615:177 0.000105266
119 *2164:B1 *615:177 0.000353972
120 *2165:A2 *666:DIODE 8.40269e-05
121 *2165:A3 *666:DIODE 4.21666e-05
122 *2166:C *615:177 2.25075e-05
123 *2226:A2 *2226:B1 4.88478e-05
124 *2269:CLK *697:DIODE 1.16854e-05
125 *2269:D *697:DIODE 0.000121536
126 *2295:D *2226:B1 0.000199309
127 *2304:RESET_B *615:60 0
128 *2307:D *615:102 0.000586622
129 *2310:CLK *615:102 0
130 *2310:CLK *615:124 0
131 *2335:CLK *615:142 0.000183971
132 *2337:D *2149:B 0
133 *2361:CLK *615:36 1.83756e-05
134 *2361:D *2225:B1 4.99619e-05
135 *2361:D *615:36 2.93331e-05
136 *2420:A *615:245 6.52265e-05
137 *291:33 *2226:B1 8.09021e-06
138 *291:33 *615:60 0
139 *316:8 *615:156 0
140 *316:8 *615:212 0
141 *326:8 *615:102 3.81908e-06
142 *334:68 *677:DIODE 3.09233e-05
143 *334:68 *615:245 0.000158297
144 *345:6 *615:102 0.000157655
145 *347:10 *615:102 0
146 *352:16 *615:102 0.000318894
147 *362:8 *666:DIODE 4.66108e-05
148 *362:8 *2076:A1 1.03423e-05
149 *369:8 *2076:A1 3.0559e-05
150 *414:10 *615:156 0
151 *414:16 *615:156 0
152 *465:16 *615:124 0
153 *465:191 *615:212 0.00013994
154 *467:89 *2225:B1 4.43871e-06
155 *467:108 *2225:B1 4.02905e-05
156 *467:108 *615:49 0.000115391
157 *467:114 *615:49 0
158 *467:114 *615:60 0
159 *469:93 *2149:B 4.00541e-06
160 *472:61 *615:142 6.26028e-05
161 *472:61 *615:226 9.58678e-06
162 *472:61 *615:239 3.96467e-05
163 *495:10 *615:102 0
164 *497:8 *615:102 0
165 *540:69 *615:177 0.000421956
166 *554:96 *2076:A1 3.21081e-06
167 *555:10 *615:245 4.66826e-05
168 *556:16 *615:239 0.000113237
169 *556:16 *615:245 0.000351268
170 *601:18 *615:156 0.000183043
*RES
1 *2395:X *615:4 1.6 
2 *615:4 *615:8 6.245 
3 *615:8 *615:10 4.95 
4 *615:10 *2226:B1 6.3 
5 *615:10 *682:DIODE 3.6 
6 *615:8 *615:36 14.77 
7 *615:36 *2225:B1 5.61 
8 *615:36 *615:49 1.89 
9 *615:49 *681:DIODE 3.6 
10 *615:49 *615:60 14.6 
11 *615:60 *2269:RESET_B 1.2075 
12 *615:60 *697:DIODE 4.12 
13 *615:4 *615:79 1.14 
14 *615:79 *715:DIODE 1.6 
15 *615:79 *615:102 29.265 
16 *615:102 *615:106 2.45 
17 *615:106 *2149:B 4.315 
18 *615:106 *675:DIODE 1.6 
19 *615:102 *615:124 5.46 
20 *615:124 *615:128 2.45 
21 *615:128 *673:DIODE 2.74 
22 *615:128 *2147:B 1.6 
23 *615:124 *615:142 5.5875 
24 *615:142 *615:148 4.59227 
25 *615:148 *615:156 10.1825 
26 *615:156 *667:DIODE 2.395 
27 *615:156 *615:165 0.795 
28 *615:165 *615:177 15.89 
29 *615:177 *2076:A1 5.73 
30 *615:177 *666:DIODE 7.5 
31 *615:165 *2081:A1 1.6 
32 *615:148 *615:212 9.6575 
33 *615:212 *668:DIODE 1.6 
34 *615:212 *2087:B1 2.395 
35 *615:142 *615:226 0.2325 
36 *615:226 *671:DIODE 3.6 
37 *615:226 *615:239 4.7 
38 *615:239 *615:245 7.1 
39 *615:245 *2152:B1 4.74 
40 *615:245 *677:DIODE 7.68 
41 *615:239 *2145:B1 1.6 
*END

*D_NET *616 0.0111625
*CONN
*I *2232:A I *D sky130_fd_sc_hd__inv_2
*I *1937:A I *D sky130_fd_sc_hd__inv_2
*I *2252:A I *D sky130_fd_sc_hd__inv_2
*I *2255:A I *D sky130_fd_sc_hd__inv_2
*I *2250:A I *D sky130_fd_sc_hd__inv_2
*I *2247:A I *D sky130_fd_sc_hd__inv_2
*I *2256:A I *D sky130_fd_sc_hd__inv_2
*I *2257:A I *D sky130_fd_sc_hd__inv_2
*I *2243:A I *D sky130_fd_sc_hd__inv_2
*I *2246:A I *D sky130_fd_sc_hd__inv_2
*I *2396:X O *D sky130_fd_sc_hd__buf_4
*CAP
1 *2232:A 0
2 *1937:A 0.000203653
3 *2252:A 8.85112e-05
4 *2255:A 7.18814e-05
5 *2250:A 8.02637e-05
6 *2247:A 0.000239744
7 *2256:A 5.2049e-05
8 *2257:A 0.00011107
9 *2243:A 0.000462244
10 *2246:A 9.76494e-05
11 *2396:X 0.000282677
12 *616:51 0.000866266
13 *616:45 0.000618084
14 *616:43 0.000805869
15 *616:39 0.000615922
16 *616:37 0.000643145
17 *616:24 0.000583199
18 *616:20 0.000604256
19 *616:18 0.000799713
20 *616:12 0.000519895
21 *616:12 *2396:A 0
22 *616:12 *617:20 0
23 *616:12 *622:14 0.000335858
24 *616:18 *2225:A2 4.80285e-05
25 *616:18 *617:20 6.28843e-05
26 *616:18 *622:14 4.24292e-06
27 *616:18 *622:30 0.00010344
28 *616:18 *622:72 8.65961e-05
29 *654:DIODE *1937:A 4.99619e-05
30 *2025:C *616:45 0
31 *2025:C *616:51 0
32 *2026:C *2243:A 0
33 *2026:C *616:51 0
34 *2029:B *616:18 0
35 *2137:B *2250:A 0
36 *2226:A2 *1937:A 0.000273835
37 *2275:D *616:12 0.000128039
38 *2275:RESET_B *616:12 0.000162325
39 *2286:D *2243:A 8.64421e-05
40 *2286:RESET_B *2243:A 0.000433928
41 *2289:CLK *616:20 0
42 *2289:CLK *616:24 0
43 *2289:CLK *616:37 9.24049e-05
44 *2293:CLK *2250:A 9.91257e-05
45 *2293:D *2250:A 3.5292e-05
46 *2293:RESET_B *2250:A 0.000241483
47 *2295:CLK *616:20 0
48 *2295:RESET_B *616:20 0
49 *2298:RESET_B *2255:A 2.75229e-05
50 *2298:RESET_B *616:39 9.71067e-05
51 *2299:CLK *2256:A 0.0001249
52 *2299:D *616:45 4.70256e-05
53 *2299:RESET_B *2256:A 5.05521e-05
54 *2300:D *2243:A 2.66935e-05
55 *2300:D *2257:A 7.10578e-05
56 *2478:A *2243:A 1.08943e-05
57 *2479:A *2257:A 0.000354719
58 *2488:A *2246:A 0.000142661
59 *2488:A *616:24 0
60 *2488:A *616:37 0.000136284
61 *2489:A *2252:A 8.31082e-05
62 *2490:A *616:39 0
63 *408:12 *616:43 0
64 *466:75 *2243:A 0
*RES
1 *2396:X *616:12 12.05 
2 *616:12 *616:18 6.98 
3 *616:18 *616:20 5.97 
4 *616:20 *616:24 4.4 
5 *616:24 *2246:A 3.775 
6 *616:24 *616:37 8.36 
7 *616:37 *616:39 4.44 
8 *616:39 *616:43 4.38 
9 *616:43 *616:45 4.44 
10 *616:45 *616:51 4.485 
11 *616:51 *2243:A 10.98 
12 *616:51 *2257:A 6.81 
13 *616:45 *2256:A 5.1 
14 *616:43 *2247:A 7.155 
15 *616:39 *2250:A 6.48 
16 *616:37 *2255:A 4.74 
17 *616:20 *2252:A 5.43 
18 *616:18 *1937:A 8.19 
19 *616:12 *2232:A 1.6 
*END

*D_NET *617 0.0165423
*CONN
*I *2396:A I *D sky130_fd_sc_hd__buf_4
*I *2264:A I *D sky130_fd_sc_hd__inv_2
*I *2253:A I *D sky130_fd_sc_hd__inv_2
*I *2066:B1 I *D sky130_fd_sc_hd__a31oi_1
*I *2046:B1 I *D sky130_fd_sc_hd__a31o_1
*I *2064:B1 I *D sky130_fd_sc_hd__a211oi_1
*I *2097:A I *D sky130_fd_sc_hd__or4b_1
*I *2060:A I *D sky130_fd_sc_hd__nor2_1
*I *2254:A I *D sky130_fd_sc_hd__inv_2
*I *2259:A I *D sky130_fd_sc_hd__inv_2
*I *2397:X O *D sky130_fd_sc_hd__clkbuf_4
*CAP
1 *2396:A 0.00016609
2 *2264:A 0.00041474
3 *2253:A 0.000374605
4 *2066:B1 0.000408825
5 *2046:B1 0
6 *2064:B1 0
7 *2097:A 0
8 *2060:A 2.08101e-05
9 *2254:A 8.19007e-05
10 *2259:A 0
11 *2397:X 0
12 *617:97 0.000586401
13 *617:86 0.000463077
14 *617:71 0.00101799
15 *617:54 0.00195585
16 *617:37 0.00135007
17 *617:33 0.000801971
18 *617:31 0.000832797
19 *617:20 0.000770069
20 *617:6 0.000879839
21 *2264:A *1955:A1 3.68265e-05
22 *2264:A *1955:A2 0.00013051
23 *2264:A *1955:B1_N 3.83194e-05
24 *2264:A *640:25 3.05373e-05
25 *2396:A *622:14 0
26 *709:DIODE *2253:A 3.83041e-05
27 *2023:A *617:54 0.000195399
28 *2023:C *617:54 1.70906e-05
29 *2024:B *617:37 0
30 *2029:B *2396:A 0
31 *2029:B *617:20 0
32 *2046:A1 *617:97 0.00011456
33 *2058:C *2066:B1 0.000124445
34 *2059:B1 *617:97 1.71013e-05
35 *2060:B *617:71 0.000394699
36 *2062:B *617:86 0.0001279
37 *2062:B *617:97 2.75145e-05
38 *2066:A2 *2066:B1 8.49205e-05
39 *2097:C *617:86 0.000172703
40 *2097:D_N *617:86 0.000124895
41 *2098:B *617:71 0.00011852
42 *2099:A *617:71 4.66826e-05
43 *2099:B *617:71 5.63318e-05
44 *2275:D *2396:A 7.55313e-05
45 *2275:RESET_B *2396:A 4.49328e-05
46 *2275:RESET_B *617:20 4.18603e-06
47 *2296:CLK *617:33 0.000119221
48 *2296:CLK *617:37 0.000116158
49 *2296:CLK *617:54 0.000253224
50 *2296:D *617:54 0.000197269
51 *2297:CLK *2253:A 1.1728e-05
52 *2297:D *2253:A 5.83121e-06
53 *2297:D *617:33 4.44927e-05
54 *2297:D *617:37 7.4027e-05
55 *2302:CLK *617:20 5.25374e-05
56 *2302:D *617:20 0.000124007
57 *2302:RESET_B *617:20 0.000202377
58 *2311:CLK *2264:A 0.000196669
59 *2311:CLK *617:31 0
60 *2388:A *2253:A 6.11328e-05
61 *2395:A *2264:A 0.000115762
62 *2425:A *617:20 2.26739e-05
63 *2425:A *617:31 7.00889e-06
64 *2427:A *2264:A 0.000275553
65 *2488:A *2254:A 0.00011588
66 *2488:A *617:54 1.09281e-05
67 *170:21 *2264:A 0
68 *170:32 *2264:A 6.77501e-05
69 *170:42 *2264:A 1.88602e-05
70 *338:31 *617:97 6.02273e-05
71 *338:35 *617:97 4.13249e-05
72 *347:10 *2066:B1 0.000121179
73 *347:10 *617:97 0.00012111
74 *348:6 *617:71 1.03323e-05
75 *352:16 *2066:B1 0
76 *352:16 *617:97 0
77 *465:18 *2264:A 0
78 *467:17 *617:33 0.000155176
79 *467:19 *617:33 0.000285202
80 *467:36 *2253:A 3.1562e-06
81 *467:74 *617:33 0.000149766
82 *467:76 *2264:A 4.66108e-05
83 *467:76 *617:20 7.2601e-05
84 *467:76 *617:31 9.80032e-06
85 *467:89 *617:20 0
86 *467:89 *617:31 0
87 *467:89 *617:33 0
88 *496:8 *617:71 0
89 *607:38 *2253:A 0.000354725
90 *613:57 *617:71 0
91 *615:8 *2264:A 0.000469637
92 *615:79 *2264:A 0.000121437
93 *615:102 *2066:B1 9.05299e-05
94 *615:102 *2264:A 0.00012657
95 *616:12 *2396:A 0
96 *616:12 *617:20 0
97 *616:18 *617:20 6.28843e-05
*RES
1 *2397:X *617:6 3.6 
2 *617:6 *617:20 16.56 
3 *617:20 *2259:A 1.6 
4 *617:20 *617:31 3.065 
5 *617:31 *617:33 8.52 
6 *617:33 *617:37 3.635 
7 *617:37 *2254:A 3.43 
8 *617:37 *617:54 15.435 
9 *617:54 *2060:A 1.96 
10 *617:54 *617:71 16.24 
11 *617:71 *2097:A 1.6 
12 *617:71 *617:86 6.21 
13 *617:86 *2064:B1 1.6 
14 *617:86 *617:97 6.635 
15 *617:97 *2046:B1 3.6 
16 *617:97 *2066:B1 11.43 
17 *617:33 *2253:A 10.2 
18 *617:31 *2264:A 19.765 
19 *617:6 *2396:A 7.02 
*END

*D_NET *618 0.0128608
*CONN
*I *2258:A I *D sky130_fd_sc_hd__inv_2
*I *2227:A I *D sky130_fd_sc_hd__inv_2
*I *2267:A I *D sky130_fd_sc_hd__inv_2
*I *2268:A I *D sky130_fd_sc_hd__inv_2
*I *2261:A I *D sky130_fd_sc_hd__inv_2
*I *2266:A I *D sky130_fd_sc_hd__inv_2
*I *2265:A I *D sky130_fd_sc_hd__inv_2
*I *2233:A I *D sky130_fd_sc_hd__inv_2
*I *2263:A I *D sky130_fd_sc_hd__inv_2
*I *2228:A I *D sky130_fd_sc_hd__inv_2
*I *2398:X O *D sky130_fd_sc_hd__buf_4
*CAP
1 *2258:A 0
2 *2227:A 0
3 *2267:A 0.000134319
4 *2268:A 2.08101e-05
5 *2261:A 0
6 *2266:A 0
7 *2265:A 0.000338757
8 *2233:A 0.000320163
9 *2263:A 7.8325e-05
10 *2228:A 0.000166795
11 *2398:X 0.000404722
12 *618:122 0.000521011
13 *618:91 0.000689065
14 *618:72 0.000905287
15 *618:66 0.000513878
16 *618:54 0.000981026
17 *618:43 0.000687029
18 *618:30 0.000910233
19 *618:24 0.00123983
20 *618:20 0.00117374
21 *2265:A *1953:A2 5.05521e-05
22 *2265:A *637:29 6.20274e-05
23 *2267:A *636:10 8.53113e-06
24 *2267:A *636:23 0.000183738
25 *618:20 *2398:A 6.16226e-06
26 *618:20 *622:14 0.000124695
27 *618:24 *2398:A 0
28 *618:24 *619:23 0
29 *618:24 *622:14 0
30 *618:30 *622:14 0
31 *618:43 *622:14 0.000391783
32 *618:91 *1953:B1_N 9.0009e-05
33 *618:122 *2363:D 6.90044e-05
34 *656:DIODE *2267:A 4.66108e-05
35 *726:DIODE *618:24 0
36 *735:DIODE *2228:A 4.82919e-05
37 *737:DIODE *618:24 0
38 *2028:C *618:24 0
39 *2269:D *2267:A 2.49909e-05
40 *2269:D *618:66 0.00015518
41 *2269:D *618:122 0.000499457
42 *2271:D *2228:A 3.64998e-06
43 *2271:D *618:30 0.000189485
44 *2276:D *2265:A 0.000253484
45 *2301:CLK *618:20 6.88211e-05
46 *2301:RESET_B *618:20 0.000164874
47 *2304:RESET_B *618:72 9.03138e-05
48 *2306:RESET_B *618:43 0.000210846
49 *2312:CLK *618:91 2.85764e-05
50 *2363:RESET_B *2267:A 2.16917e-05
51 *2363:RESET_B *618:122 9.30977e-05
52 *2414:A *2265:A 0
53 *2460:A *2233:A 0.000733793
54 *2460:A *618:91 4.37569e-05
55 *273:22 *618:43 0
56 *291:17 *618:24 0
57 *291:33 *618:24 0
58 *465:64 *2267:A 0
59 *470:12 *618:30 0
60 *470:92 *618:30 0
61 *470:115 *618:43 7.45881e-05
62 *470:139 *618:24 0
63 *470:139 *618:30 0
64 *555:20 *618:91 3.78518e-05
65 *615:60 *2233:A 0
66 *615:60 *618:66 0
67 *615:60 *618:72 0
*RES
1 *2398:X *618:20 10.5576 
2 *618:20 *618:24 14.345 
3 *618:24 *618:30 10.43 
4 *618:30 *2228:A 4.12 
5 *618:30 *618:43 12.01 
6 *618:43 *2263:A 2.755 
7 *618:43 *618:54 4.935 
8 *618:54 *618:66 7.55 
9 *618:66 *618:72 3.975 
10 *618:72 *2233:A 11.13 
11 *618:72 *618:91 8.77 
12 *618:91 *2265:A 10.635 
13 *618:91 *2266:A 3.6 
14 *618:66 *2261:A 3.6 
15 *618:54 *618:122 8.385 
16 *618:122 *2268:A 1.96 
17 *618:122 *2267:A 8.645 
18 *618:24 *2227:A 3.6 
19 *618:20 *2258:A 1.6 
*END

*D_NET *619 0.0114226
*CONN
*I *2231:A I *D sky130_fd_sc_hd__inv_2
*I *2234:A I *D sky130_fd_sc_hd__inv_2
*I *2229:A I *D sky130_fd_sc_hd__inv_2
*I *2260:A I *D sky130_fd_sc_hd__inv_2
*I *2262:A I *D sky130_fd_sc_hd__inv_2
*I *2398:A I *D sky130_fd_sc_hd__buf_4
*I *2399:X O *D sky130_fd_sc_hd__buf_2
*CAP
1 *2231:A 3.60381e-05
2 *2234:A 0.000656145
3 *2229:A 2.08101e-05
4 *2260:A 0
5 *2262:A 0.000589258
6 *2398:A 0.000188989
7 *2399:X 1.41866e-05
8 *619:64 0.00104961
9 *619:51 0.000730796
10 *619:23 0.00103634
11 *619:19 0.00091198
12 *619:6 0.000315514
13 *2398:A *622:14 2.78879e-05
14 *619:6 *622:8 8.65905e-05
15 *619:19 *622:8 7.57202e-05
16 *619:19 *622:95 0.000241483
17 *619:19 *622:102 8.696e-05
18 *619:19 *622:121 0.000273375
19 *619:51 *622:121 0.00123434
20 *619:64 *622:121 1.53583e-05
21 *737:DIODE *2398:A 3.18219e-05
22 *738:DIODE *619:64 0.000199833
23 *740:DIODE *619:6 8.65905e-05
24 *740:DIODE *619:19 0.000239813
25 *2028:C *619:23 9.37731e-05
26 *2274:RESET_B *2231:A 5.83121e-06
27 *2274:RESET_B *2234:A 5.39718e-05
28 *2277:RESET_B *2234:A 4.9253e-06
29 *2301:D *2398:A 0.000133164
30 *2402:A *2398:A 3.39151e-05
31 *2440:A *619:51 4.82919e-05
32 *2461:A *2262:A 3.1835e-05
33 *2462:A *619:19 0.000169596
34 *2462:A *619:51 0.000843153
35 *2494:A *619:64 4.47209e-05
36 *2496:A *2234:A 3.72916e-05
37 *291:17 *2262:A 0.000496728
38 *291:17 *619:23 0.000106655
39 *291:33 *2262:A 0.00058031
40 *471:108 *2231:A 8.65961e-05
41 *541:10 *619:64 9.4087e-05
42 *541:12 *2234:A 0
43 *541:12 *619:64 0
44 *542:10 *619:51 0.000164874
45 *542:10 *619:64 0.000237243
46 *618:20 *2398:A 6.16226e-06
47 *618:24 *2398:A 0
48 *618:24 *619:23 0
*RES
1 *2399:X *619:6 2.395 
2 *619:6 *2398:A 9.275 
3 *619:6 *619:19 5.97 
4 *619:19 *619:23 9.755 
5 *619:23 *2262:A 16.74 
6 *619:23 *2260:A 3.6 
7 *619:19 *619:51 18.535 
8 *619:51 *2229:A 1.96 
9 *619:51 *619:64 9.245 
10 *619:64 *2234:A 14.145 
11 *619:64 *2231:A 4.395 
*END

*D_NET *620 0.0203919
*CONN
*I *719:DIODE I *D sky130_fd_sc_hd__diode_2
*I *683:DIODE I *D sky130_fd_sc_hd__diode_2
*I *684:DIODE I *D sky130_fd_sc_hd__diode_2
*I *2235:A I *D sky130_fd_sc_hd__inv_2
*I *2230:A I *D sky130_fd_sc_hd__inv_2
*I *670:DIODE I *D sky130_fd_sc_hd__diode_2
*I *2095:B1 I *D sky130_fd_sc_hd__a21oi_1
*I *676:DIODE I *D sky130_fd_sc_hd__diode_2
*I *2150:B I *D sky130_fd_sc_hd__nor2_1
*I *2236:A I *D sky130_fd_sc_hd__inv_2
*I *685:DIODE I *D sky130_fd_sc_hd__diode_2
*I *689:DIODE I *D sky130_fd_sc_hd__diode_2
*I *2240:A I *D sky130_fd_sc_hd__inv_2
*I *688:DIODE I *D sky130_fd_sc_hd__diode_2
*I *2239:A I *D sky130_fd_sc_hd__inv_2
*I *687:DIODE I *D sky130_fd_sc_hd__diode_2
*I *2238:A I *D sky130_fd_sc_hd__inv_2
*I *686:DIODE I *D sky130_fd_sc_hd__diode_2
*I *2237:A I *D sky130_fd_sc_hd__inv_2
*I *674:DIODE I *D sky130_fd_sc_hd__diode_2
*I *2148:B I *D sky130_fd_sc_hd__nor2_1
*I *2400:X O *D sky130_fd_sc_hd__buf_4
*CAP
1 *719:DIODE 0
2 *683:DIODE 0.000138931
3 *684:DIODE 2.71885e-05
4 *2235:A 0
5 *2230:A 0
6 *670:DIODE 0
7 *2095:B1 0.000155761
8 *676:DIODE 0
9 *2150:B 0
10 *2236:A 0.000125637
11 *685:DIODE 0
12 *689:DIODE 7.22852e-05
13 *2240:A 0
14 *688:DIODE 7.22852e-05
15 *2239:A 0
16 *687:DIODE 2.11983e-05
17 *2238:A 0
18 *686:DIODE 7.22852e-05
19 *2237:A 0
20 *674:DIODE 1.92441e-05
21 *2148:B 0
22 *2400:X 0
23 *620:213 0.000197907
24 *620:199 0.000549855
25 *620:188 0.000757375
26 *620:180 0.000321934
27 *620:136 0.000211228
28 *620:122 0.000658914
29 *620:104 0.00019758
30 *620:100 0.000829742
31 *620:86 2.11983e-05
32 *620:84 0.00045974
33 *620:70 0.000180668
34 *620:66 0.000666602
35 *620:62 0.00093404
36 *620:44 4.43735e-05
37 *620:40 0.00169335
38 *620:30 0.00108565
39 *620:26 0.000289089
40 *620:20 0.000466516
41 *620:18 0.00134386
42 *620:4 0.00130087
43 *674:DIODE *649:23 4.99619e-05
44 *683:DIODE *2400:A 3.23663e-05
45 *683:DIODE *621:21 2.49907e-05
46 *683:DIODE *621:36 4.82863e-05
47 *620:18 *2424:A 0
48 *620:26 *1969:B2 0
49 *620:26 *1975:B2 8.09157e-05
50 *620:30 *1975:B2 8.8266e-05
51 *620:40 *1969:B2 0.000688835
52 *620:40 *645:16 0
53 *620:40 *648:61 0.000403117
54 *620:66 *621:203 0
55 *620:84 *621:203 0
56 *620:100 *621:203 0
57 *620:188 *621:10 0
58 *620:213 *2400:A 4.99619e-05
59 wb_dat_o[11] *620:84 0
60 wb_dat_o[13] *620:122 0
61 *1957:A *620:44 2.28346e-05
62 *1957:A *620:62 6.67222e-05
63 *1982:A2 *620:18 0.000204463
64 *1999:A1 *620:18 0.000113196
65 *1999:A1 *620:20 4.11198e-05
66 *1999:A1 *620:26 3.18219e-05
67 *2073:A *620:18 0.000134099
68 *2073:B *620:18 5.54336e-05
69 *2073:C *620:18 0.000132128
70 *2089:B *620:66 0.000168275
71 *2089:B *620:84 9.57888e-05
72 *2153:B1 *2095:B1 0.00012864
73 *2204:B *620:18 3.89736e-05
74 *2273:D *620:18 0
75 *2273:RESET_B *620:188 0.000199833
76 *2278:RESET_B *620:199 0.000118651
77 *2280:CLK *620:66 0
78 *2280:CLK *620:84 0
79 *2281:CLK *620:100 0
80 *2281:CLK *620:122 0
81 *2282:D *620:100 7.89689e-05
82 *2282:D *620:122 7.53115e-05
83 *2282:RESET_B *620:122 0
84 *2283:CLK *620:122 0
85 *2284:RESET_B *620:122 0
86 *2338:D *620:26 0
87 *2351:D *620:18 8.98663e-05
88 *2365:A *2236:A 4.00541e-06
89 *2459:A *2236:A 5.25548e-05
90 *2472:A *687:DIODE 4.82919e-05
91 *2500:A *620:199 3.00381e-05
92 *271:64 *620:44 5.53249e-06
93 *273:42 *620:26 0.000201508
94 *273:42 *620:30 4.83066e-05
95 *316:28 *620:62 0.00107314
96 *316:28 *620:66 1.0183e-05
97 *334:68 *2095:B1 3.09088e-05
98 *473:44 *620:188 0
99 *473:123 *620:122 0
100 *493:23 *620:18 0.000710022
101 *493:25 *620:18 0.00011852
102 *493:33 *620:18 6.47228e-05
103 *494:10 *620:18 0.000245456
104 *494:16 *620:18 0.000203762
105 *494:20 *620:18 0.00015625
106 *554:10 *2236:A 3.72916e-05
107 *554:10 *620:62 4.43682e-05
108 *554:10 *620:136 6.27529e-05
109 *560:100 *620:18 8.96387e-05
110 *560:100 *620:188 0
111 *613:89 *620:44 0
112 *613:89 *620:62 0
113 *615:148 *620:40 0.000976567
*RES
1 *2400:X *620:4 1.6 
2 *620:4 *620:18 31.145 
3 *620:18 *620:20 1.38 
4 *620:20 *620:26 6.995 
5 *620:26 *620:30 1.41 
6 *620:30 *620:40 6.61363 
7 *620:40 *620:44 2.4875 
8 *620:44 *2148:B 1.6 
9 *620:44 *674:DIODE 2.05 
10 *620:40 *620:62 14.3075 
11 *620:62 *620:66 6.695 
12 *620:66 *620:70 3.485 
13 *620:70 *2237:A 1.6 
14 *620:70 *686:DIODE 2.74 
15 *620:66 *620:84 5.97 
16 *620:84 *620:86 2 
17 *620:86 *2238:A 1.6 
18 *620:86 *687:DIODE 2.05 
19 *620:84 *620:100 2.4 
20 *620:100 *620:104 3.83 
21 *620:104 *2239:A 1.6 
22 *620:104 *688:DIODE 2.74 
23 *620:100 *620:122 11.75 
24 *620:122 *2240:A 1.6 
25 *620:122 *689:DIODE 2.74 
26 *620:62 *620:136 1.485 
27 *620:136 *685:DIODE 1.6 
28 *620:136 *2236:A 4.045 
29 *620:30 *2150:B 1.6 
30 *620:26 *676:DIODE 1.6 
31 *620:20 *2095:B1 5.79 
32 *620:18 *670:DIODE 3.6 
33 *620:4 *620:180 0.45 
34 *620:180 *620:188 8.32 
35 *620:188 *2230:A 1.6 
36 *620:188 *620:199 8.76 
37 *620:199 *2235:A 1.6 
38 *620:199 *684:DIODE 2.05 
39 *620:180 *620:213 1.14 
40 *620:213 *683:DIODE 3.7 
41 *620:213 *719:DIODE 1.6 
*END

*D_NET *621 0.0309299
*CONN
*I *721:DIODE I *D sky130_fd_sc_hd__diode_2
*I *2170:D1 I *D sky130_fd_sc_hd__a2111o_1
*I *2241:A I *D sky130_fd_sc_hd__inv_2
*I *690:DIODE I *D sky130_fd_sc_hd__diode_2
*I *669:DIODE I *D sky130_fd_sc_hd__diode_2
*I *2093:B1 I *D sky130_fd_sc_hd__a21o_1
*I *679:DIODE I *D sky130_fd_sc_hd__diode_2
*I *2146:B I *D sky130_fd_sc_hd__or2_1
*I *672:DIODE I *D sky130_fd_sc_hd__diode_2
*I *696:DIODE I *D sky130_fd_sc_hd__diode_2
*I *2251:A I *D sky130_fd_sc_hd__inv_2
*I *695:DIODE I *D sky130_fd_sc_hd__diode_2
*I *2249:A I *D sky130_fd_sc_hd__inv_2
*I *2248:A I *D sky130_fd_sc_hd__inv_2
*I *694:DIODE I *D sky130_fd_sc_hd__diode_2
*I *693:DIODE I *D sky130_fd_sc_hd__diode_2
*I *2245:A I *D sky130_fd_sc_hd__inv_2
*I *718:DIODE I *D sky130_fd_sc_hd__diode_2
*I *2400:A I *D sky130_fd_sc_hd__buf_4
*I *2401:X O *D sky130_fd_sc_hd__clkbuf_4
*CAP
1 *721:DIODE 0.000190994
2 *2170:D1 2.4963e-05
3 *2241:A 0.000122576
4 *690:DIODE 0
5 *669:DIODE 0
6 *2093:B1 0.000116017
7 *679:DIODE 3.98087e-05
8 *2146:B 0
9 *672:DIODE 9.16531e-05
10 *696:DIODE 4.43379e-05
11 *2251:A 0
12 *695:DIODE 0
13 *2249:A 6.54036e-05
14 *2248:A 7.43268e-05
15 *694:DIODE 0
16 *693:DIODE 0
17 *2245:A 4.85345e-05
18 *718:DIODE 0
19 *2400:A 5.17547e-05
20 *2401:X 0
21 *621:203 0.00263002
22 *621:173 0.00031631
23 *621:167 0.00307827
24 *621:158 0.000750509
25 *621:138 9.16531e-05
26 *621:106 0.00114344
27 *621:82 0.000182637
28 *621:66 8.29618e-05
29 *621:64 0.000576265
30 *621:56 0.00158869
31 *621:54 0.000123765
32 *621:52 0.00103733
33 *621:46 0.00132893
34 *621:42 0.000862915
35 *621:36 0.00177215
36 *621:21 0.00165676
37 *621:10 0.000284446
38 *621:4 0.000373944
39 *679:DIODE *648:21 2.49909e-05
40 *721:DIODE *720:DIODE 7.66083e-05
41 *721:DIODE *622:121 0.0001249
42 *621:36 *1956:A 3.4222e-05
43 *621:36 *2169:B2 7.21296e-06
44 *621:36 *2171:A1 5.10957e-05
45 *621:36 *648:40 0
46 *621:36 *651:72 5.73518e-05
47 *621:36 *651:81 5.73362e-05
48 *621:42 *648:40 0
49 *621:167 *648:21 0.000112631
50 *621:173 *648:19 0.000427489
51 *683:DIODE *2400:A 3.23663e-05
52 *683:DIODE *621:21 2.49907e-05
53 *683:DIODE *621:36 4.82863e-05
54 *742:DIODE *2245:A 5.30673e-05
55 *742:DIODE *621:66 2.30292e-05
56 *1933:A *621:36 5.12942e-05
57 *1995:A *621:36 2.86623e-05
58 *1995:B *621:36 0
59 *2000:A2 *621:36 0.000251321
60 *2004:A *621:203 0
61 *2006:B *621:203 0
62 *2017:A *621:64 0
63 *2017:A *621:106 0.000288573
64 *2047:C *621:52 0
65 *2084:B *621:203 3.73028e-05
66 *2090:C_N *621:203 2.16917e-05
67 *2092:A2 *621:203 0.00027476
68 *2092:B1_N *621:203 8.65961e-05
69 *2093:A1 *621:173 3.86529e-05
70 *2093:A2 *2093:B1 4.99619e-05
71 *2093:A2 *621:203 0.00015639
72 *2118:A *621:106 0
73 *2118:B *621:106 0
74 *2120:B *621:52 0.000105805
75 *2123:A *621:52 0.000138551
76 *2126:A *621:52 0
77 *2127:B *621:52 0
78 *2146:A *672:DIODE 8.65905e-05
79 *2151:A *621:36 5.33085e-05
80 *2158:B1 *621:203 2.8185e-05
81 *2159:A1 *621:203 0.000202095
82 *2159:A2 *621:203 7.06865e-05
83 *2162:A_N *621:167 0.00039046
84 *2162:A_N *621:203 0.000233004
85 *2163:A2 *621:203 7.16524e-05
86 *2164:A1 *621:203 0.000457696
87 *2166:B *621:173 0
88 *2169:B1 *2170:D1 8.65905e-05
89 *2170:B1 *621:36 0.00024756
90 *2170:C1 *2170:D1 2.75145e-05
91 *2171:A2 *621:36 0.000137578
92 *2171:B1 *621:36 7.8458e-05
93 *2171:B1 *621:42 1.22762e-05
94 *2172:B1 *621:36 0.000135808
95 *2172:C1 *621:36 0.000235523
96 *2191:B1 *621:36 0.0006462
97 *2278:CLK *621:10 7.07801e-05
98 *2278:D *621:36 0.00152457
99 *2280:CLK *621:203 0.000298442
100 *2281:CLK *621:203 0.000365327
101 *2291:RESET_B *621:64 0.000143266
102 *2294:D *621:52 0
103 *2294:D *621:54 0
104 *2294:D *621:56 0
105 *2294:D *621:64 0
106 *2294:RESET_B *621:56 8.69157e-05
107 *2294:RESET_B *621:64 8.53113e-06
108 *2323:CLK *621:106 0.00046026
109 *2323:D *621:106 0
110 *2334:D *672:DIODE 3.00381e-05
111 *2334:D *621:46 3.47837e-05
112 *2340:D *621:203 0
113 *2347:D *621:36 0.000141599
114 *2390:A *621:36 0
115 *2452:A *2245:A 4.00541e-06
116 *2495:A *621:10 2.87867e-05
117 *4:9 *2245:A 7.60965e-05
118 *170:48 *2093:B1 4.85494e-05
119 *170:48 *621:158 1.7635e-05
120 *170:70 *621:158 5.8678e-05
121 *272:10 *621:36 0.000116151
122 *272:12 *621:36 7.37606e-05
123 *272:16 *621:36 0.000115377
124 *276:12 *621:42 0
125 *276:12 *621:46 0
126 *278:10 *621:42 3.11325e-05
127 *286:12 *621:36 0
128 *291:99 *621:36 0
129 *316:28 *621:203 0
130 *316:34 *621:203 0
131 *364:12 *621:203 2.86623e-05
132 *367:36 *621:203 7.21296e-06
133 *430:10 *621:36 0
134 *465:135 *621:52 0
135 *468:12 *621:64 0
136 *468:14 *621:64 0
137 *468:20 *621:64 0
138 *468:138 *621:106 0.000309612
139 *469:10 *621:52 0.000144537
140 *469:14 *621:52 4.31189e-05
141 *469:47 *621:52 5.7344e-05
142 *469:58 *621:46 8.78813e-05
143 *469:58 *621:52 0.000110315
144 *469:76 *621:46 0.000200937
145 *469:93 *621:42 8.65905e-05
146 *469:93 *621:46 0.000127181
147 *469:93 *621:158 7.40446e-05
148 *473:38 *621:36 0
149 *473:44 *621:10 1.71013e-05
150 *473:48 *621:36 6.0011e-05
151 *473:123 *621:203 0.000109009
152 *509:26 *621:52 0
153 *509:36 *621:52 0.000125618
154 *512:12 *621:54 0
155 *512:12 *621:56 0
156 *512:38 *621:52 0
157 *513:43 *621:52 0.000109016
158 *514:10 *621:52 0
159 *514:18 *621:52 0
160 *560:100 *621:10 0
161 *582:14 *2245:A 0.000203178
162 *582:14 *2248:A 0.000164874
163 *582:14 *621:66 0.000124895
164 *582:14 *621:82 0.000316421
165 *603:16 *621:36 0
166 *609:31 *621:203 0
167 *609:53 *621:203 0
168 *620:66 *621:203 0
169 *620:84 *621:203 0
170 *620:100 *621:203 0
171 *620:188 *621:10 0
172 *620:213 *2400:A 4.99619e-05
*RES
1 *2401:X *621:4 1.6 
2 *621:4 *621:10 7.42 
3 *621:10 *2400:A 2.74 
4 *621:10 *621:21 1.065 
5 *621:21 *718:DIODE 1.6 
6 *621:21 *621:36 42.995 
7 *621:36 *621:42 4.175 
8 *621:42 *621:46 10.775 
9 *621:46 *621:52 18.51 
10 *621:52 *621:54 0.87 
11 *621:54 *621:56 1.635 
12 *621:56 *621:64 9.035 
13 *621:64 *621:66 1.14 
14 *621:66 *2245:A 3.79 
15 *621:66 *693:DIODE 1.6 
16 *621:64 *621:82 2.865 
17 *621:82 *694:DIODE 1.6 
18 *621:82 *2248:A 3.445 
19 *621:56 *621:106 24.525 
20 *621:106 *2249:A 2.665 
21 *621:106 *695:DIODE 1.6 
22 *621:54 *2251:A 3.6 
23 *621:52 *696:DIODE 4.05 
24 *621:46 *621:138 2 
25 *621:138 *672:DIODE 3.43 
26 *621:138 *2146:B 1.6 
27 *621:42 *621:158 8.08 
28 *621:158 *679:DIODE 2.05 
29 *621:158 *621:167 5.28 
30 *621:167 *621:173 8.95 
31 *621:173 *2093:B1 3.805 
32 *621:173 *669:DIODE 1.6 
33 *621:167 *621:203 47.26 
34 *621:203 *690:DIODE 1.6 
35 *621:203 *2241:A 3.61 
36 *621:36 *2170:D1 4.395 
37 *621:4 *721:DIODE 4.12 
*END

*D_NET *622 0.0287227
*CONN
*I *720:DIODE I *D sky130_fd_sc_hd__diode_2
*I *2401:A I *D sky130_fd_sc_hd__clkbuf_4
*I *717:DIODE I *D sky130_fd_sc_hd__diode_2
*I *722:DIODE I *D sky130_fd_sc_hd__diode_2
*I *2399:A I *D sky130_fd_sc_hd__buf_2
*I *2397:A I *D sky130_fd_sc_hd__clkbuf_4
*I *716:DIODE I *D sky130_fd_sc_hd__diode_2
*I *691:DIODE I *D sky130_fd_sc_hd__diode_2
*I *2242:A I *D sky130_fd_sc_hd__inv_2
*I *692:DIODE I *D sky130_fd_sc_hd__diode_2
*I *2244:A I *D sky130_fd_sc_hd__inv_2
*I *2402:X O *D sky130_fd_sc_hd__buf_2
*CAP
1 *720:DIODE 2.79449e-05
2 *2401:A 3.55506e-05
3 *717:DIODE 0
4 *722:DIODE 0
5 *2399:A 3.52021e-05
6 *2397:A 0
7 *716:DIODE 4.25609e-05
8 *691:DIODE 3.72196e-05
9 *2242:A 3.55506e-05
10 *692:DIODE 2.70112e-05
11 *2244:A 4.36766e-05
12 *2402:X 0
13 *622:121 0.00278356
14 *622:102 0.00276873
15 *622:95 0.000190981
16 *622:72 0.00020594
17 *622:54 7.27702e-05
18 *622:38 0.000915595
19 *622:32 0.00224298
20 *622:30 0.0028456
21 *622:14 0.0038093
22 *622:8 0.00239886
23 *622:4 0.000307588
24 *716:DIODE *2225:A2 3.72916e-05
25 *622:72 *2225:A2 8.87273e-05
26 wb_dat_o[8] *622:121 2.66586e-05
27 *721:DIODE *720:DIODE 7.66083e-05
28 *721:DIODE *622:121 0.0001249
29 *738:DIODE *622:121 3.23663e-05
30 *740:DIODE *622:8 3.96737e-05
31 *1962:C *622:14 0
32 *1963:B *622:14 9.14049e-05
33 *2012:A *622:32 0
34 *2012:B *622:38 0
35 *2027:C *622:121 0.000158066
36 *2103:B *622:32 3.47668e-05
37 *2144:A *622:32 0.000324965
38 *2144:A *622:38 5.23362e-05
39 *2225:B1 *622:14 0
40 *2226:A2 *622:30 0.000431328
41 *2271:D *622:14 6.55328e-05
42 *2276:RESET_B *622:14 0
43 *2285:CLK *622:32 0
44 *2296:D *622:32 0
45 *2301:CLK *622:14 0.000167535
46 *2301:D *622:14 0.000191525
47 *2304:D *622:14 0
48 *2306:RESET_B *622:14 9.29751e-06
49 *2307:D *622:30 1.99587e-05
50 *2308:CLK *622:32 0.000150019
51 *2329:D *622:32 0
52 *2396:A *622:14 0
53 *2398:A *622:14 2.78879e-05
54 *2402:A *2399:A 7.47284e-05
55 *2402:A *622:14 7.06865e-05
56 *2462:A *622:121 0.000203924
57 *2464:A *622:121 2.75145e-05
58 *2465:A *2399:A 0
59 *2478:A *622:38 0.000316421
60 *2494:A *622:121 2.16917e-05
61 *2499:A *622:121 7.35813e-05
62 *131:11 *2399:A 0
63 *170:21 *622:30 0.000713926
64 *170:21 *622:32 0
65 *273:22 *622:14 0
66 *465:33 *622:32 0
67 *466:20 *622:32 0
68 *467:89 *622:14 0
69 *467:89 *622:30 0
70 *467:114 *622:14 0.000362264
71 *467:148 *622:30 6.90876e-05
72 *467:159 *622:30 2.04592e-05
73 *467:159 *622:32 6.73665e-05
74 *470:115 *622:14 1.61546e-05
75 *506:37 *622:32 0
76 *541:10 *622:121 0.000243094
77 *553:10 *622:14 5.61507e-05
78 *576:24 *691:DIODE 1.83847e-05
79 *576:24 *692:DIODE 1.7386e-05
80 *576:24 *2244:A 1.85674e-05
81 *576:24 *622:38 0.000487243
82 *606:17 *622:32 0.000345677
83 *606:19 *622:32 0.000304941
84 *606:23 *622:32 0.00115557
85 *615:49 *622:14 0
86 *615:60 *622:14 0
87 *615:102 *622:32 0
88 *616:12 *622:14 0.000335858
89 *616:18 *622:14 4.24292e-06
90 *616:18 *622:30 0.00010344
91 *616:18 *622:72 8.65961e-05
92 *618:20 *622:14 0.000124695
93 *618:24 *622:14 0
94 *618:30 *622:14 0
95 *618:43 *622:14 0.000391783
96 *619:6 *622:8 8.65905e-05
97 *619:19 *622:8 7.57202e-05
98 *619:19 *622:95 0.000241483
99 *619:19 *622:102 8.696e-05
100 *619:19 *622:121 0.000273375
101 *619:51 *622:121 0.00123434
102 *619:64 *622:121 1.53583e-05
*RES
1 *2402:X *622:4 1.6 
2 *622:4 *622:8 4.175 
3 *622:8 *622:14 43.59 
4 *622:14 *622:30 25.105 
5 *622:30 *622:32 30.705 
6 *622:32 *622:38 13.835 
7 *622:38 *2244:A 2.47 
8 *622:38 *692:DIODE 2.05 
9 *622:32 *622:54 2 
10 *622:54 *2242:A 2.215 
11 *622:54 *691:DIODE 2.05 
12 *622:14 *622:72 4.865 
13 *622:72 *716:DIODE 2.395 
14 *622:72 *2397:A 1.6 
15 *622:8 *2399:A 4.47 
16 *622:4 *622:95 2.175 
17 *622:95 *722:DIODE 1.6 
18 *622:95 *622:102 0.795 
19 *622:102 *717:DIODE 1.6 
20 *622:102 *622:121 40.14 
21 *622:121 *2401:A 2.215 
22 *622:121 *720:DIODE 2.395 
*END

*D_NET *623 0.00102428
*CONN
*I *2225:A2 I *D sky130_fd_sc_hd__o21a_1
*I *2458:X O *D sky130_fd_sc_hd__clkbuf_1
*CAP
1 *2225:A2 0.000401403
2 *2458:X 0.000401403
3 *2225:A2 *2225:A1 1.7386e-05
4 *716:DIODE *2225:A2 3.72916e-05
5 *748:DIODE *2225:A2 3.00381e-05
6 *616:18 *2225:A2 4.80285e-05
7 *622:72 *2225:A2 8.87273e-05
*RES
1 *2458:X *2225:A2 9.515 
*END

*D_NET *624 0.000689209
*CONN
*I *1953:B1_N I *D sky130_fd_sc_hd__o21ba_1
*I *2403:X O *D sky130_fd_sc_hd__dlygate4sd3_1
*CAP
1 *1953:B1_N 0.000165509
2 *2403:X 0.000165509
3 *1953:B1_N *1953:A2 8.41307e-05
4 *2460:A *1953:B1_N 4.27069e-05
5 *273:22 *1953:B1_N 2.68526e-05
6 *291:33 *1953:B1_N 0.000114492
7 *618:91 *1953:B1_N 9.0009e-05
*RES
1 *2403:X *1953:B1_N 10.875 
*END

*D_NET *625 0.000273665
*CONN
*I *2313:D I *D sky130_fd_sc_hd__dfrtp_1
*I *2414:X O *D sky130_fd_sc_hd__dlygate4sd3_1
*CAP
1 *2313:D 0.00013402
2 *2414:X 0.00013402
3 *2275:D *2313:D 5.62464e-06
4 *615:60 *2313:D 0
*RES
1 *2414:X *2313:D 9.03 
*END

*D_NET *626 0.00101813
*CONN
*I *1955:B1_N I *D sky130_fd_sc_hd__o21ba_1
*I *2425:X O *D sky130_fd_sc_hd__dlygate4sd3_1
*CAP
1 *1955:B1_N 0.000207035
2 *2425:X 0.000207035
3 *1955:B1_N *1955:A2 0.000192125
4 *1955:B1_N *635:40 2.37321e-05
5 *2264:A *1955:B1_N 3.83194e-05
6 *2427:A *1955:B1_N 0.000122337
7 *615:36 *1955:B1_N 0.000227543
*RES
1 *2425:X *1955:B1_N 12.45 
*END

*D_NET *627 0.000255145
*CONN
*I *2311:D I *D sky130_fd_sc_hd__dfrtp_1
*I *2427:X O *D sky130_fd_sc_hd__dlygate4sd3_1
*CAP
1 *2311:D 2.70334e-05
2 *2427:X 2.70334e-05
3 *2311:D *635:19 8.53113e-06
4 *2311:D *635:40 9.54399e-05
5 *615:36 *2311:D 9.71067e-05
*RES
1 *2427:X *2311:D 8.325 
*END

*D_NET *628 0.00105768
*CONN
*I *1952:B1_N I *D sky130_fd_sc_hd__o21ba_1
*I *2428:X O *D sky130_fd_sc_hd__dlygate4sd3_1
*CAP
1 *1952:B1_N 0.000323921
2 *2428:X 0.000323921
3 *1954:B1_N *1952:B1_N 7.33378e-05
4 *2429:A *1952:B1_N 0.000298442
5 *470:6 *1952:B1_N 1.03323e-05
6 *470:10 *1952:B1_N 2.77283e-05
7 *560:40 *1952:B1_N 0
8 *560:76 *1952:B1_N 0
*RES
1 *2428:X *1952:B1_N 13.8 
*END

*D_NET *629 0.000211636
*CONN
*I *2314:D I *D sky130_fd_sc_hd__dfrtp_1
*I *2429:X O *D sky130_fd_sc_hd__dlygate4sd3_1
*CAP
1 *2314:D 5.40103e-05
2 *2429:X 5.40103e-05
3 *2461:A *2314:D 6.31104e-05
4 *291:33 *2314:D 4.05053e-05
*RES
1 *2429:X *2314:D 8.58 
*END

*D_NET *630 0.000877917
*CONN
*I *1946:B1_N I *D sky130_fd_sc_hd__o21ba_1
*I *2430:X O *D sky130_fd_sc_hd__dlygate4sd3_1
*CAP
1 *1946:B1_N 0.000125493
2 *2430:X 0.000125493
3 *2431:A *1946:B1_N 4.8854e-05
4 *291:33 *1946:B1_N 0.000293733
5 *470:18 *1946:B1_N 0.000122687
6 *470:22 *1946:B1_N 8.82858e-05
7 *470:37 *1946:B1_N 7.33706e-05
*RES
1 *2430:X *1946:B1_N 11.76 
*END

*D_NET *631 0.000732244
*CONN
*I *2363:D I *D sky130_fd_sc_hd__dfrtp_1
*I *2431:X O *D sky130_fd_sc_hd__dlygate4sd3_1
*CAP
1 *2363:D 0.000266156
2 *2431:X 0.000266156
3 *2461:A *2363:D 7.97845e-05
4 *291:33 *2363:D 5.11434e-05
5 *618:122 *2363:D 6.90044e-05
*RES
1 *2431:X *2363:D 11.37 
*END

*D_NET *632 0.000592149
*CONN
*I *2024:A I *D sky130_fd_sc_hd__and3_1
*I *2432:X O *D sky130_fd_sc_hd__dlygate4sd3_1
*CAP
1 *2024:A 0.000135227
2 *2432:X 0.000135227
3 *2024:B *2024:A 5.13737e-05
4 *611:26 *2024:A 0.000270322
*RES
1 *2432:X *2024:A 10.5 
*END

*D_NET *633 0.000824518
*CONN
*I *1954:A2 I *D sky130_fd_sc_hd__o21ba_1
*I *2404:X O *D sky130_fd_sc_hd__dlygate4sd3_1
*CAP
1 *1954:A2 0.000256926
2 *2404:X 0.000256926
3 *1954:A2 *637:29 0.000279787
4 *1954:B1_N *1954:A2 4.18603e-06
5 *2405:A *1954:A2 2.66935e-05
*RES
1 *2404:X *1954:A2 11.1 
*END

*D_NET *634 0.0125672
*CONN
*I *1954:A1 I *D sky130_fd_sc_hd__o21ba_1
*I *1987:A1 I *D sky130_fd_sc_hd__a22o_1
*I *2152:A1 I *D sky130_fd_sc_hd__o31a_1
*I *2044:B I *D sky130_fd_sc_hd__nor2_2
*I *2058:B I *D sky130_fd_sc_hd__or3_1
*I *2225:A1 I *D sky130_fd_sc_hd__o21a_1
*I *2361:Q O *D sky130_fd_sc_hd__dfxtp_1
*CAP
1 *1954:A1 0.000816257
2 *1987:A1 0.000146029
3 *2152:A1 0
4 *2044:B 0
5 *2058:B 0.000402156
6 *2225:A1 0.000664293
7 *2361:Q 0
8 *634:78 0.00112673
9 *634:63 0.000654252
10 *634:48 0.000696251
11 *634:21 0.00188553
12 *634:4 0.00194123
13 *1954:A1 *1969:A1 2.81759e-05
14 *1954:A1 *1969:B2 0.000169652
15 *1954:A1 *2034:C 0.000138791
16 *2058:B *2058:A 0.000112816
17 *634:21 *640:25 4.16353e-05
18 *634:48 *2058:A 2.75145e-05
19 *634:48 *635:50 4.18603e-06
20 *634:63 *1972:B2 0
21 *634:63 *1975:B2 0
22 *634:63 *2058:A 3.77818e-05
23 *634:63 *635:50 0.000114492
24 *634:78 *1969:B2 0.000462294
25 *659:DIODE *1987:A1 0.00016979
26 *677:DIODE *634:78 5.08889e-05
27 *1960:B *634:21 2.49909e-05
28 *1960:C *634:21 0.000122331
29 *1960:D_N *634:21 0.000160541
30 *1961:A *1954:A1 0
31 *1961:A *1987:A1 0
32 *1961:A *634:21 7.25441e-05
33 *1969:A2 *1954:A1 5.05521e-05
34 *1969:B1 *1954:A1 2.75145e-05
35 *1984:A2 *1987:A1 9.50342e-06
36 *1985:A2 *634:63 0
37 *2035:C *1954:A1 3.95409e-05
38 *2057:B *634:21 6.44695e-05
39 *2066:A2 *2058:B 4.5526e-05
40 *2225:A2 *2225:A1 1.7386e-05
41 *2225:B1 *2225:A1 4.60584e-05
42 *2310:CLK *2058:B 0.000186401
43 *2310:CLK *634:21 4.82863e-05
44 *2310:D *2058:B 5.20335e-05
45 *2310:D *634:48 2.97004e-06
46 *2311:RESET_B *634:21 0.000114789
47 *2339:D *634:63 4.94404e-05
48 *2361:D *2225:A1 0.000187459
49 *2393:A *1954:A1 2.86623e-05
50 *2393:A *1987:A1 2.23407e-05
51 *2467:A *1954:A1 0.000109101
52 *59:21 *634:48 2.05056e-05
53 *59:21 *634:63 0.000122331
54 *292:59 *1987:A1 0.000221424
55 *334:10 *634:48 4.30292e-05
56 *334:68 *634:48 8.08153e-06
57 *334:68 *634:63 0
58 *335:16 *2058:B 3.76596e-05
59 *465:16 *634:21 0.000101386
60 *498:21 *2058:B 0
61 *556:8 *634:63 0.000102411
62 *556:48 *634:63 6.81237e-05
63 *613:23 *1987:A1 0.000136877
64 *613:47 *634:63 5.51158e-05
65 *613:57 *634:48 0
66 *613:57 *634:63 0.000316806
67 *615:36 *2225:A1 5.00675e-05
68 *615:36 *634:21 0.000110205
*RES
1 *2361:Q *634:4 1.6 
2 *634:4 *2225:A1 9.91 
3 *634:4 *634:21 22.05 
4 *634:21 *2058:B 11.66 
5 *634:21 *634:48 7.66 
6 *634:48 *2044:B 1.6 
7 *634:48 *634:63 15.295 
8 *634:63 *2152:A1 1.6 
9 *634:63 *634:78 6.575 
10 *634:78 *1987:A1 7.785 
11 *634:78 *1954:A1 17.355 
*END

*D_NET *635 0.00840343
*CONN
*I *1984:A1 I *D sky130_fd_sc_hd__a22o_1
*I *2044:A I *D sky130_fd_sc_hd__nor2_2
*I *2058:A I *D sky130_fd_sc_hd__or3_1
*I *1955:A1 I *D sky130_fd_sc_hd__o21ba_1
*I *2226:A1 I *D sky130_fd_sc_hd__o21a_1
*I *2362:Q O *D sky130_fd_sc_hd__dfxtp_1
*CAP
1 *1984:A1 0
2 *2044:A 0
3 *2058:A 0.000447763
4 *1955:A1 0.000211872
5 *2226:A1 5.62516e-05
6 *2362:Q 0.000269083
7 *635:50 0.000890209
8 *635:40 0.00129603
9 *635:19 0.00119074
10 *635:8 0.000450622
11 *1955:A1 *1955:A2 0.000225602
12 *1955:B1_N *635:40 2.37321e-05
13 *1984:A2 *635:40 8.26509e-05
14 *1984:A2 *635:50 2.57174e-05
15 *1984:B1 *635:40 3.63745e-05
16 *1984:B2 *635:40 4.82863e-05
17 *1988:A1 *635:40 0.000232105
18 *1988:A2 *635:40 0.000179651
19 *2058:B *2058:A 0.000112816
20 *2226:B1 *2226:A1 3.24046e-05
21 *2264:A *1955:A1 3.68265e-05
22 *2275:D *635:40 0.000414601
23 *2311:D *635:19 8.53113e-06
24 *2311:D *635:40 9.54399e-05
25 *2366:A *2058:A 3.99879e-05
26 *2414:A *635:40 0
27 *59:21 *2058:A 4.60836e-05
28 *291:33 *2226:A1 0.000233231
29 *291:33 *635:19 0.000344024
30 *291:33 *635:40 0.000448855
31 *334:8 *2058:A 8.65905e-05
32 *334:10 *2058:A 0
33 *334:68 *635:50 0
34 *335:16 *2058:A 0.000307286
35 *498:21 *2058:A 0
36 *613:57 *635:50 1.34361e-05
37 *615:10 *2226:A1 0.000100308
38 *615:10 *635:19 0.000132883
39 *615:36 *635:19 5.02411e-05
40 *615:36 *635:40 4.92206e-05
41 *634:48 *2058:A 2.75145e-05
42 *634:48 *635:50 4.18603e-06
43 *634:63 *2058:A 3.77818e-05
44 *634:63 *635:50 0.000114492
*RES
1 *2362:Q *635:8 6.465 
2 *635:8 *2226:A1 6.255 
3 *635:8 *635:19 4.185 
4 *635:19 *1955:A1 6.84 
5 *635:19 *635:40 22.325 
6 *635:40 *635:50 10.585 
7 *635:50 *2058:A 14.48 
8 *635:50 *2044:A 1.6 
9 *635:40 *1984:A1 1.6 
*END

*D_NET *636 0.00277046
*CONN
*I *1978:A1 I *D sky130_fd_sc_hd__a22o_1
*I *2034:B I *D sky130_fd_sc_hd__or3_1
*I *1952:A1 I *D sky130_fd_sc_hd__o21ba_1
*I *2314:Q O *D sky130_fd_sc_hd__dfrtp_1
*CAP
1 *1978:A1 0.000319555
2 *2034:B 8.35809e-05
3 *1952:A1 4.83914e-05
4 *2314:Q 0.000116779
5 *636:23 0.00060168
6 *636:10 0.000363714
7 *2034:B *2034:A 0.000139238
8 *2034:B *638:8 3.09233e-05
9 *636:23 *638:8 8.59296e-05
10 *656:DIODE *1952:A1 4.99619e-05
11 *1954:B1_N *636:23 0
12 *1978:A2 *1978:A1 8.65961e-05
13 *1979:A2 *1978:A1 0.0001249
14 *2267:A *636:10 8.53113e-06
15 *2267:A *636:23 0.000183738
16 *2314:RESET_B *636:10 0.000118964
17 *465:64 *2034:B 0
18 *465:64 *636:10 0
19 *465:64 *636:23 0
20 *556:48 *1978:A1 0.000349153
21 *560:36 *636:10 1.47347e-05
22 *560:40 *636:10 4.11198e-05
23 *560:40 *636:23 2.97004e-06
*RES
1 *2314:Q *636:10 5.775 
2 *636:10 *1952:A1 4.5 
3 *636:10 *636:23 3.93 
4 *636:23 *2034:B 5.49 
5 *636:23 *1978:A1 9.915 
*END

*D_NET *637 0.00362912
*CONN
*I *1975:A1 I *D sky130_fd_sc_hd__a22o_1
*I *2035:A I *D sky130_fd_sc_hd__or3_1
*I *1953:A2 I *D sky130_fd_sc_hd__o21ba_1
*I *2313:Q O *D sky130_fd_sc_hd__dfrtp_1
*CAP
1 *1975:A1 7.60154e-05
2 *2035:A 2.08101e-05
3 *1953:A2 0.000472875
4 *2313:Q 0
5 *637:29 0.00062831
6 *637:4 0.00100436
7 *1953:B1_N *1953:A2 8.41307e-05
8 *1954:A2 *637:29 0.000279787
9 *1975:A2 *2035:A 0
10 *1976:A2 *1975:A1 0.000122331
11 *2265:A *1953:A2 5.05521e-05
12 *2265:A *637:29 6.20274e-05
13 *2276:D *1953:A2 4.05897e-05
14 *2312:D *637:29 0.000118513
15 *2312:RESET_B *637:29 0
16 *2339:CLK *1975:A1 3.65279e-05
17 *2339:CLK *637:29 1.19928e-05
18 *2405:A *637:29 1.89685e-05
19 *2460:A *1953:A2 8.41307e-05
20 *273:22 *637:29 0.000404896
21 *291:33 *1953:A2 5.47426e-05
22 *292:31 *1975:A1 2.75229e-05
23 *292:44 *1975:A1 3.00381e-05
24 *292:44 *2035:A 0
25 *615:60 *1953:A2 0
*RES
1 *2313:Q *637:4 1.6 
2 *637:4 *1953:A2 12.02 
3 *637:4 *637:29 15.04 
4 *637:29 *2035:A 1.96 
5 *637:29 *1975:A1 3.43 
*END

*D_NET *638 0.0047459
*CONN
*I *1981:A1 I *D sky130_fd_sc_hd__a22o_1
*I *1946:A1 I *D sky130_fd_sc_hd__o21ba_1
*I *2034:A I *D sky130_fd_sc_hd__or3_1
*I *2363:Q O *D sky130_fd_sc_hd__dfrtp_1
*CAP
1 *1981:A1 0.00109773
2 *1946:A1 0.00013917
3 *2034:A 0.000102978
4 *2363:Q 0
5 *638:8 0.000299256
6 *638:4 0.00115484
7 *1954:B1_N *2034:A 0
8 *1954:B1_N *638:8 0
9 *1964:B *1981:A1 0.000198046
10 *1965:A *1981:A1 0
11 *1965:B *1981:A1 0.000183512
12 *1970:A1 *1981:A1 2.75229e-05
13 *1970:B1 *1981:A1 0.000122337
14 *1981:B1 *1981:A1 9.50342e-06
15 *1990:B2 *1981:A1 0.00022448
16 *2034:B *2034:A 0.000139238
17 *2034:B *638:8 3.09233e-05
18 *2269:D *1981:A1 4.37226e-05
19 *2363:RESET_B *1981:A1 8.40269e-05
20 *292:10 *1981:A1 0.00023468
21 *465:64 *2034:A 0
22 *556:48 *1946:A1 0.000353049
23 *608:20 *1981:A1 0.000214959
24 *636:23 *638:8 8.59296e-05
*RES
1 *2363:Q *638:4 1.6 
2 *638:4 *638:8 3.38 
3 *638:8 *2034:A 5.745 
4 *638:8 *1946:A1 6.81 
5 *638:4 *1981:A1 25.04 
*END

*D_NET *639 0.00179836
*CONN
*I *1972:A1 I *D sky130_fd_sc_hd__a22o_1
*I *2034:C I *D sky130_fd_sc_hd__or3_1
*I *2404:A I *D sky130_fd_sc_hd__dlygate4sd3_1
*I *2312:Q O *D sky130_fd_sc_hd__dfrtp_1
*CAP
1 *1972:A1 0.000148733
2 *2034:C 0.00010666
3 *2404:A 0
4 *2312:Q 0
5 *639:10 0.000200225
6 *639:4 0.000242298
7 *1972:A1 *1972:B2 9.72742e-06
8 *1954:A1 *2034:C 0.000138791
9 *2467:A *2034:C 0.00028667
10 *273:42 *1972:A1 0.000166204
11 *295:43 *1972:A1 5.4155e-06
12 *465:64 *2034:C 0.000148092
13 *465:64 *639:10 0.000138551
14 *555:20 *1972:A1 0.000126028
15 *555:20 *639:10 5.062e-06
16 *608:71 *2034:C 2.46007e-05
17 *608:71 *639:10 5.13029e-05
*RES
1 *2312:Q *639:4 1.6 
2 *639:4 *639:10 4.085 
3 *639:10 *2404:A 3.6 
4 *639:10 *2034:C 7.665 
5 *639:4 *1972:A1 5.44 
*END

*D_NET *640 0.00445493
*CONN
*I *1969:A1 I *D sky130_fd_sc_hd__a22o_1
*I *2035:B I *D sky130_fd_sc_hd__or3_1
*I *1955:A2 I *D sky130_fd_sc_hd__o21ba_1
*I *2311:Q O *D sky130_fd_sc_hd__dfrtp_1
*CAP
1 *1969:A1 0.000171541
2 *2035:B 0
3 *1955:A2 0.000422624
4 *2311:Q 0
5 *640:25 0.000892779
6 *640:4 0.00114386
7 *1954:A1 *1969:A1 2.81759e-05
8 *1955:A1 *1955:A2 0.000225602
9 *1955:B1_N *1955:A2 0.000192125
10 *1969:A2 *1969:A1 8.65961e-05
11 *1972:A2 *1969:A1 3.86087e-05
12 *1972:A2 *640:25 7.28749e-05
13 *1973:A2 *1969:A1 5.95494e-05
14 *1973:A2 *640:25 7.23602e-05
15 *1988:B1 *640:25 0
16 *2035:C *1969:A1 0.000116158
17 *2264:A *1955:A2 0.00013051
18 *2264:A *640:25 3.05373e-05
19 *2311:RESET_B *640:25 8.65961e-05
20 *2395:A *1955:A2 0.000198934
21 *2427:A *1955:A2 9.21168e-05
22 *170:32 *1955:A2 4.82919e-05
23 *170:42 *1955:A2 1.17036e-05
24 *273:22 *640:25 1.15688e-05
25 *292:18 *1969:A1 0.000150453
26 *295:43 *640:25 0
27 *295:49 *640:25 0
28 *465:18 *1955:A2 5.21046e-05
29 *465:18 *640:25 0
30 *465:64 *640:25 0
31 *608:71 *640:25 7.76237e-05
32 *634:21 *640:25 4.16353e-05
*RES
1 *2311:Q *640:4 1.6 
2 *640:4 *1955:A2 14.78 
3 *640:4 *640:25 14.135 
4 *640:25 *2035:B 3.6 
5 *640:25 *1969:A1 8.04 
*END

*D_NET *641 0.00497449
*CONN
*I *2155:A1 I *D sky130_fd_sc_hd__o31a_1
*I *2083:A I *D sky130_fd_sc_hd__or2_1
*I *2221:B1 I *D sky130_fd_sc_hd__o21ai_1
*I *2222:A1 I *D sky130_fd_sc_hd__o211a_1
*I *2220:A2 I *D sky130_fd_sc_hd__a21boi_1
*I *2359:Q O *D sky130_fd_sc_hd__dfxtp_1
*CAP
1 *2155:A1 0.000285279
2 *2083:A 0.000144036
3 *2221:B1 0
4 *2222:A1 1.04051e-05
5 *2220:A2 7.42661e-05
6 *2359:Q 0.000164381
7 *641:53 0.0010843
8 *641:16 0.000110469
9 *641:14 0.000515789
10 *641:6 0.00130935
11 *641:53 *642:8 0
12 *641:53 *642:42 0
13 *666:DIODE *2155:A1 0.000158066
14 *2078:B *2083:A 4.82863e-05
15 *2082:A *2155:A1 0.000114943
16 *2165:A3 *2155:A1 2.0514e-05
17 *2165:B1 *2155:A1 9.50342e-06
18 *2166:C *2155:A1 0
19 *2221:A1 *641:53 0
20 *2221:A2 *2222:A1 0
21 *2221:A2 *641:16 4.82863e-05
22 *2222:A2 *641:14 0
23 *2222:C1 *2220:A2 0.000163835
24 *2222:C1 *641:16 9.26286e-05
25 *2223:B *641:14 4.9968e-05
26 *2359:CLK *641:14 5.98621e-05
27 *2359:CLK *641:53 0
28 *2359:D *641:14 3.10498e-05
29 *2359:D *641:16 4.82863e-05
30 *2359:D *641:53 0
31 *355:10 *641:53 0
32 *355:21 *2155:A1 0
33 *355:21 *641:53 0
34 *364:12 *2083:A 0.000131791
35 *364:12 *2155:A1 7.07957e-05
36 *364:12 *641:53 2.86623e-05
37 *469:115 *2220:A2 0.000113844
38 *469:115 *641:16 6.90876e-05
39 *554:96 *2155:A1 1.68017e-05
*RES
1 *2359:Q *641:6 3.43 
2 *641:6 *641:14 9.97 
3 *641:14 *641:16 1.485 
4 *641:16 *2220:A2 4.27 
5 *641:16 *2222:A1 1.96 
6 *641:14 *2221:B1 1.6 
7 *641:6 *641:53 12.605 
8 *641:53 *2083:A 6.12 
9 *641:53 *2155:A1 9.405 
*END

*D_NET *642 0.00359453
*CONN
*I *2068:A I *D sky130_fd_sc_hd__nor2_1
*I *2069:A I *D sky130_fd_sc_hd__or2_1
*I *2223:A_N I *D sky130_fd_sc_hd__nand2b_1
*I *2220:A1 I *D sky130_fd_sc_hd__a21boi_1
*I *2360:Q O *D sky130_fd_sc_hd__dfxtp_1
*CAP
1 *2068:A 7.80097e-05
2 *2069:A 0
3 *2223:A_N 3.33099e-05
4 *2220:A1 0.000407618
5 *2360:Q 6.02947e-05
6 *642:42 0.000406572
7 *642:12 0.000888232
8 *642:8 0.000836161
9 *2053:B *2220:A1 0
10 *2069:B *2068:A 4.99619e-05
11 *2077:A *642:12 0.000323033
12 *2155:B1 *2068:A 4.9253e-06
13 *2221:A2 *2220:A1 0.000188957
14 *2222:B1 *2220:A1 3.60364e-05
15 *2222:C1 *2220:A1 5.53249e-06
16 *2223:B *2220:A1 1.20789e-05
17 *2360:D *2220:A1 7.23602e-05
18 *353:10 *642:42 0
19 *355:10 *642:42 2.65814e-06
20 *462:12 *2220:A1 0.000123225
21 *559:34 *2220:A1 4.16372e-05
22 *559:34 *2223:A_N 9.53428e-06
23 *559:34 *642:12 1.4389e-05
24 *641:53 *642:8 0
25 *641:53 *642:42 0
*RES
1 *2360:Q *642:8 4.47 
2 *642:8 *642:12 7.97 
3 *642:12 *2220:A1 11.78 
4 *642:12 *2223:A_N 2.215 
5 *642:8 *642:42 7.235 
6 *642:42 *2069:A 1.6 
7 *642:42 *2068:A 3.1 
*END

*D_NET *643 0.000322017
*CONN
*I *1938:A I *D sky130_fd_sc_hd__inv_2
*I *2334:Q O *D sky130_fd_sc_hd__dfxtp_1
*CAP
1 *1938:A 0.000122345
2 *2334:Q 0.000122345
3 *2315:D *1938:A 0
4 *170:48 *1938:A 7.73272e-05
5 *469:76 *1938:A 0
*RES
1 *2334:Q *1938:A 9.285 
*END

*D_NET *644 0.000276073
*CONN
*I *1939:A I *D sky130_fd_sc_hd__inv_2
*I *2335:Q O *D sky130_fd_sc_hd__dfxtp_1
*CAP
1 *1939:A 0.000103208
2 *2335:Q 0.000103208
3 *1939:A *649:58 6.96579e-05
*RES
1 *2335:Q *1939:A 5.3 
*END

*D_NET *645 0.00350361
*CONN
*I *2168:A2 I *D sky130_fd_sc_hd__o22ai_1
*I *2167:B1 I *D sky130_fd_sc_hd__a2bb2o_1
*I *2336:Q O *D sky130_fd_sc_hd__dfxtp_1
*CAP
1 *2168:A2 0.000217959
2 *2167:B1 1.93269e-05
3 *2336:Q 0.000897371
4 *645:16 0.00113466
5 *2167:B1 *650:10 1.88602e-05
6 *2168:A2 *1975:B2 9.96764e-05
7 *2168:A2 *650:10 0.000148268
8 *2168:A2 *650:42 0.000108044
9 *645:16 *648:61 0
10 *2168:A1 *2168:A2 4.66108e-05
11 *170:70 *2167:B1 2.3528e-05
12 *170:70 *2168:A2 1.97442e-05
13 *286:46 *2167:B1 6.43623e-05
14 *286:46 *2168:A2 0.000289505
15 *414:10 *645:16 8.37447e-05
16 *613:89 *645:16 0.000331947
17 *615:156 *645:16 0
18 *620:40 *645:16 0
*RES
1 *2336:Q *645:16 11.7895 
2 *645:16 *2167:B1 4.3425 
3 *645:16 *2168:A2 9.3225 
*END

*D_NET *646 0.000155523
*CONN
*I *1940:A I *D sky130_fd_sc_hd__inv_2
*I *2337:Q O *D sky130_fd_sc_hd__dfxtp_1
*CAP
1 *1940:A 5.27807e-05
2 *2337:Q 5.27807e-05
3 *469:93 *1940:A 4.99619e-05
*RES
1 *2337:Q *1940:A 4.265 
*END

*D_NET *647 0.000817427
*CONN
*I *2172:A2 I *D sky130_fd_sc_hd__a211o_1
*I *2168:B1 I *D sky130_fd_sc_hd__o22ai_1
*I *2338:Q O *D sky130_fd_sc_hd__dfxtp_1
*CAP
1 *2172:A2 0
2 *2168:B1 0.00011602
3 *2338:Q 8.14407e-05
4 *647:8 0.000197461
5 *2150:A *2168:B1 2.75145e-05
6 *2168:B2 *2168:B1 2.75229e-05
7 *2338:D *2168:B1 0
8 *272:12 *2168:B1 6.46607e-05
9 *272:16 *2168:B1 9.16941e-05
10 *273:42 *2168:B1 0.00011255
11 *273:42 *647:8 2.49909e-05
12 *472:55 *647:8 7.35729e-05
*RES
1 *2338:Q *647:8 3.355 
2 *647:8 *2168:B1 8.285 
3 *647:8 *2172:A2 1.6 
*END

*D_NET *648 0.0133088
*CONN
*I *2084:A I *D sky130_fd_sc_hd__nor2_1
*I *2169:A1 I *D sky130_fd_sc_hd__o22ai_1
*I *2001:A_N I *D sky130_fd_sc_hd__and3b_2
*I *1997:B I *D sky130_fd_sc_hd__and3b_1
*I *1947:B I *D sky130_fd_sc_hd__or2_1
*I *1969:B2 I *D sky130_fd_sc_hd__a22o_1
*I *2170:A1 I *D sky130_fd_sc_hd__a2111o_1
*I *2416:A I *D sky130_fd_sc_hd__dlygate4sd3_1
*I *2315:Q O *D sky130_fd_sc_hd__dfxtp_2
*CAP
1 *2084:A 1.96054e-05
2 *2169:A1 0
3 *2001:A_N 0.000177595
4 *1997:B 0
5 *1947:B 8.87626e-06
6 *1969:B2 0.00176335
7 *2170:A1 8.02472e-05
8 *2416:A 0.000114203
9 *2315:Q 0
10 *648:76 0.00053028
11 *648:61 0.000552315
12 *648:40 0.00233977
13 *648:27 0.000555262
14 *648:21 0.000366265
15 *648:19 0.00056668
16 *648:6 0.000384361
17 *1947:B *649:45 4.55864e-06
18 *2001:A_N *649:29 2.75145e-05
19 *2001:A_N *649:33 9.21168e-05
20 *648:40 *2169:B2 4.94326e-05
21 *648:40 *651:55 0.000146107
22 *648:76 *649:33 0.000145735
23 *677:DIODE *1969:B2 7.68414e-06
24 *679:DIODE *648:21 2.49909e-05
25 *1948:B *648:76 0.00015896
26 *1954:A1 *1969:B2 0.000169652
27 *1996:B *2001:A_N 0
28 *1999:A1 *1969:B2 0
29 *2053:B *2416:A 9.99492e-05
30 *2053:B *648:19 0.000255635
31 *2152:A2 *1969:B2 4.21973e-05
32 *2152:A3 *1969:B2 8.34281e-06
33 *2152:B1 *1969:B2 0.000122331
34 *2162:A_N *2084:A 3.74161e-05
35 *2162:A_N *648:21 0.000428764
36 *2168:A1 *648:40 0.000300765
37 *2169:B1 *2170:A1 8.8266e-05
38 *2170:A2 *2170:A1 1.46744e-05
39 *2170:A2 *648:27 9.61303e-05
40 *2315:D *2416:A 0
41 *2315:D *648:19 0
42 *2316:CLK *1969:B2 9.37731e-05
43 *2335:CLK *1969:B2 1.88904e-05
44 *170:70 *648:40 0
45 *276:12 *648:21 4.82863e-05
46 *276:12 *648:27 1.60203e-05
47 *286:46 *648:40 0.000214227
48 *316:8 *2001:A_N 0
49 *334:68 *1969:B2 0.000354985
50 *335:16 *1947:B 1.00941e-05
51 *335:16 *648:76 3.80597e-05
52 *414:16 *648:21 5.05521e-05
53 *465:171 *1947:B 3.63701e-06
54 *465:171 *648:76 2.61946e-05
55 *472:61 *1969:B2 0.00024728
56 *615:148 *1969:B2 0.000241032
57 *615:156 *2001:A_N 7.13722e-05
58 *620:26 *1969:B2 0
59 *620:40 *1969:B2 0.000688835
60 *620:40 *648:61 0.000403117
61 *621:36 *648:40 0
62 *621:42 *648:40 0
63 *621:167 *648:21 0.000112631
64 *621:173 *648:19 0.000427489
65 *634:78 *1969:B2 0.000462294
66 *645:16 *648:61 0
*RES
1 *2315:Q *648:6 3.6 
2 *648:6 *2416:A 6.255 
3 *648:6 *648:19 9.5 
4 *648:19 *648:21 6.66 
5 *648:21 *648:27 1.86 
6 *648:27 *2170:A1 2.74 
7 *648:27 *648:40 11.1475 
8 *648:40 *1969:B2 26.3368 
9 *648:40 *648:61 1.12067 
10 *648:61 *1947:B 3.8325 
11 *648:61 *648:76 6.8975 
12 *648:76 *1997:B 1.6 
13 *648:76 *2001:A_N 8.3 
14 *648:21 *2169:A1 1.6 
15 *648:19 *2084:A 2.05 
*END

*D_NET *649 0.011968
*CONN
*I *2001:C I *D sky130_fd_sc_hd__and3b_2
*I *1997:A_N I *D sky130_fd_sc_hd__and3b_1
*I *1947:A I *D sky130_fd_sc_hd__or2_1
*I *2171:A1 I *D sky130_fd_sc_hd__a221o_1
*I *2147:A I *D sky130_fd_sc_hd__and2_1
*I *1972:B2 I *D sky130_fd_sc_hd__a22o_1
*I *2167:A1_N I *D sky130_fd_sc_hd__a2bb2o_1
*I *2154:A I *D sky130_fd_sc_hd__and2_1
*I *2340:Q O *D sky130_fd_sc_hd__dfxtp_1
*CAP
1 *2001:C 0
2 *1997:A_N 0
3 *1947:A 0
4 *2171:A1 0.000106407
5 *2147:A 0
6 *1972:B2 0.000778026
7 *2167:A1_N 0
8 *2154:A 7.3759e-05
9 *2340:Q 7.56888e-05
10 *649:58 0.00168761
11 *649:54 0.00121321
12 *649:45 0.000541638
13 *649:33 0.000521034
14 *649:29 0.000315903
15 *649:23 0.00100572
16 *649:8 0.00101588
17 *1972:B2 *1975:B2 0.000503702
18 *649:33 *1996:A 8.23457e-05
19 *673:DIODE *1972:B2 4.82863e-05
20 *673:DIODE *649:58 2.67275e-05
21 *674:DIODE *649:23 4.99619e-05
22 *1939:A *649:58 6.96579e-05
23 *1947:B *649:45 4.55864e-06
24 *1948:B *649:33 8.57024e-05
25 *1972:A1 *1972:B2 9.72742e-06
26 *1987:B2 *1972:B2 2.0514e-05
27 *2001:A_N *649:29 2.75145e-05
28 *2001:A_N *649:33 9.21168e-05
29 *2001:B *649:29 9.82325e-05
30 *2001:B *649:33 9.91257e-05
31 *2089:B *2154:A 0
32 *2089:B *649:23 0
33 *2154:B *2154:A 4.18603e-06
34 *2167:A2_N *649:45 3.29384e-05
35 *2167:A2_N *649:54 3.95409e-05
36 *2167:B2 *649:45 9.53428e-06
37 *2167:B2 *649:54 0
38 *2168:A1 *649:45 0.000106208
39 *2171:A2 *2171:A1 0.000116158
40 *2335:D *649:58 5.28825e-05
41 *2336:D *649:23 0.000390454
42 *170:70 *649:45 0
43 *271:16 *649:45 0.000181284
44 *273:42 *1972:B2 0.000660578
45 *277:6 *649:54 8.73389e-06
46 *277:6 *649:58 6.77062e-05
47 *286:46 *649:45 0.000230925
48 *295:43 *1972:B2 0.000106136
49 *315:6 *649:33 9.66106e-05
50 *316:28 *2154:A 0.000138551
51 *316:28 *649:23 0.000201335
52 *319:8 *649:23 4.66108e-05
53 *334:68 *1972:B2 0.000198196
54 *335:16 *649:45 0
55 *465:129 *2171:A1 0
56 *465:171 *649:45 0.000334789
57 *555:20 *1972:B2 6.83629e-05
58 *613:27 *1972:B2 3.09088e-05
59 *613:47 *1972:B2 7.70938e-05
60 *615:128 *649:58 1.83756e-05
61 *621:36 *2171:A1 5.10957e-05
62 *634:63 *1972:B2 0
63 *648:76 *649:33 0.000145735
*RES
1 *2340:Q *649:8 4.395 
2 *649:8 *2154:A 5.235 
3 *649:8 *649:23 16.5462 
4 *649:23 *649:29 2.58375 
5 *649:29 *649:33 5.205 
6 *649:33 *649:45 13.33 
7 *649:45 *2167:A1_N 1.6 
8 *649:45 *649:54 2.445 
9 *649:54 *649:58 11.07 
10 *649:58 *1972:B2 24.845 
11 *649:58 *2147:A 1.6 
12 *649:54 *2171:A1 8 
13 *649:33 *1947:A 1.6 
14 *649:29 *1997:A_N 1.6 
15 *649:23 *2001:C 1.6 
*END

*D_NET *650 0.00865195
*CONN
*I *1948:A I *D sky130_fd_sc_hd__nor2_1
*I *1975:B2 I *D sky130_fd_sc_hd__a22o_1
*I *1932:A I *D sky130_fd_sc_hd__inv_2
*I *1996:A I *D sky130_fd_sc_hd__nor2_1
*I *2341:Q O *D sky130_fd_sc_hd__dfxtp_1
*CAP
1 *1948:A 5.52177e-05
2 *1975:B2 0.0013346
3 *1932:A 2.05757e-05
4 *1996:A 8.48697e-05
5 *2341:Q 8.80168e-05
6 *650:42 0.00142319
7 *650:18 0.000314582
8 *650:10 0.00033052
9 *1948:B *1948:A 4.87465e-06
10 *1972:B2 *1975:B2 0.000503702
11 *1985:A2 *1975:B2 0.000180682
12 *1987:B2 *1975:B2 0.000573644
13 *1990:A2 *1975:B2 0
14 *1990:B2 *1975:B2 0.000192125
15 *2150:A *1975:B2 0.000318091
16 *2167:B1 *650:10 1.88602e-05
17 *2168:A1 *1975:B2 4.66108e-05
18 *2168:A2 *1975:B2 9.96764e-05
19 *2168:A2 *650:10 0.000148268
20 *2168:A2 *650:42 0.000108044
21 *2168:B2 *1975:B2 0.000112349
22 *2333:CLK *1975:B2 0.0001947
23 *2333:D *1975:B2 1.54049e-05
24 *2339:CLK *1975:B2 0.000604875
25 *2341:CLK *1996:A 5.4003e-05
26 *170:70 *650:10 0.000155952
27 *170:70 *650:42 0.000115888
28 *271:16 *650:10 4.82863e-05
29 *273:42 *1975:B2 0.000290386
30 *292:44 *1975:B2 0.000198379
31 *292:59 *1975:B2 6.00111e-05
32 *335:16 *650:18 0.00015896
33 *465:171 *1996:A 0.000164686
34 *472:14 *1996:A 0.000109016
35 *472:39 *1932:A 1.08758e-05
36 *472:39 *650:18 0
37 *555:10 *1975:B2 9.80032e-06
38 *613:89 *1932:A 3.66286e-05
39 *613:89 *650:18 0.000214066
40 *620:26 *1975:B2 8.09157e-05
41 *620:30 *1975:B2 8.8266e-05
42 *634:63 *1975:B2 0
43 *649:33 *1996:A 8.23457e-05
*RES
1 *2341:Q *650:10 5.94 
2 *650:10 *650:18 6.02 
3 *650:18 *1996:A 8.285 
4 *650:18 *1932:A 2.05 
5 *650:10 *650:42 3.38 
6 *650:42 *1975:B2 37.07 
7 *650:42 *1948:A 2.41 
*END

*D_NET *651 0.0129789
*CONN
*I *1956:A I *D sky130_fd_sc_hd__or2_1
*I *1978:B2 I *D sky130_fd_sc_hd__a22o_1
*I *1950:A_N I *D sky130_fd_sc_hd__and3b_1
*I *1949:A I *D sky130_fd_sc_hd__and3_1
*I *2169:B2 I *D sky130_fd_sc_hd__o22ai_1
*I *2171:B2 I *D sky130_fd_sc_hd__a221o_1
*I *2149:A I *D sky130_fd_sc_hd__and2_1
*I *2342:Q O *D sky130_fd_sc_hd__dfxtp_1
*CAP
1 *1956:A 8.51752e-05
2 *1978:B2 0.000879582
3 *1950:A_N 0
4 *1949:A 3.45662e-05
5 *2169:B2 0.000103939
6 *2171:B2 5.12815e-05
7 *2149:A 0.000438123
8 *2342:Q 0.000261557
9 *651:81 0.00103842
10 *651:72 0.000233585
11 *651:55 0.000498471
12 *651:40 0.000654378
13 *651:27 0.000589154
14 *651:10 0.000991101
15 *1956:A *1950:B 2.59981e-05
16 *1956:A *1956:B 0.000123225
17 *1956:A *652:17 8.49205e-05
18 *651:81 *1950:B 5.20968e-05
19 *1933:A *1978:B2 0.000123225
20 *1950:C *651:72 1.70935e-05
21 *2000:A2 *1956:A 0.000275553
22 *2093:A1 *651:10 0.000110691
23 *2149:B *2149:A 7.34993e-05
24 *2151:A *651:72 9.50342e-06
25 *2151:A *651:81 4.21314e-05
26 *2168:A1 *651:55 0.000309735
27 *2170:A2 *2169:B2 0.000124007
28 *2170:B1 *2169:B2 3.67779e-05
29 *2170:B1 *651:55 6.34101e-06
30 *2170:C1 *2169:B2 8.17697e-05
31 *2171:A2 *651:40 5.80482e-06
32 *2171:B1 *651:27 0
33 *2171:C1 *651:27 0
34 *2172:C1 *651:40 4.82919e-05
35 *2172:C1 *651:55 0.000741299
36 *2316:CLK *1978:B2 4.82863e-05
37 *2316:D *1978:B2 1.43717e-05
38 *2337:D *2149:A 1.61831e-05
39 *273:42 *1949:A 2.75229e-05
40 *278:10 *651:27 0
41 *286:12 *651:55 2.60687e-05
42 *286:12 *651:72 8.09021e-06
43 *286:12 *651:81 0
44 *286:46 *651:55 0
45 *295:16 *1978:B2 0.000424824
46 *295:101 *1956:A 4.47209e-05
47 *295:101 *1978:B2 0.00238857
48 *465:129 *651:10 0.000207512
49 *465:129 *651:27 0.000213878
50 *465:171 *2171:B2 7.25921e-06
51 *465:171 *651:27 2.21696e-05
52 *465:171 *651:40 2.63094e-05
53 *469:93 *2149:A 0.000427088
54 *472:55 *1949:A 2.75229e-05
55 *556:48 *1978:B2 0.000545595
56 *621:36 *1956:A 3.4222e-05
57 *621:36 *2169:B2 7.21296e-06
58 *621:36 *651:72 5.73518e-05
59 *621:36 *651:81 5.73362e-05
60 *648:40 *2169:B2 4.94326e-05
61 *648:40 *651:55 0.000146107
*RES
1 *2342:Q *651:10 8.865 
2 *651:10 *2149:A 9.84 
3 *651:10 *651:27 6.74 
4 *651:27 *2171:B2 2.57875 
5 *651:27 *651:40 4.865 
6 *651:40 *2169:B2 6.225 
7 *651:40 *651:55 9.03 
8 *651:55 *1949:A 4.41 
9 *651:55 *651:72 2.79 
10 *651:72 *1950:A_N 3.6 
11 *651:72 *651:81 1.89 
12 *651:81 *1978:B2 29.88 
13 *651:81 *1956:A 6.99 
*END

*D_NET *652 0.00219364
*CONN
*I *2424:A I *D sky130_fd_sc_hd__dlygate4sd3_1
*I *1956:B I *D sky130_fd_sc_hd__or2_1
*I *1950:B I *D sky130_fd_sc_hd__and3b_1
*I *2409:A I *D sky130_fd_sc_hd__dlygate4sd3_1
*I *2316:Q O *D sky130_fd_sc_hd__dfxtp_1
*CAP
1 *2424:A 9.39173e-05
2 *1956:B 2.09567e-05
3 *1950:B 0.000118982
4 *2409:A 0
5 *2316:Q 5.80153e-05
6 *652:17 0.000265178
7 *652:10 0.000194795
8 *652:6 0.000221489
9 *1956:A *1950:B 2.59981e-05
10 *1956:A *1956:B 0.000123225
11 *1956:A *652:17 8.49205e-05
12 *2000:A2 *652:17 8.69098e-05
13 *2151:A *1950:B 8.8266e-05
14 *286:12 *1950:B 5.21627e-05
15 *295:101 *1956:B 0.000112349
16 *295:101 *652:6 3.23663e-05
17 *295:101 *652:10 0.00015003
18 *295:101 *652:17 0.000411979
19 *430:10 *2424:A 0
20 *620:18 *2424:A 0
21 *651:81 *1950:B 5.20968e-05
*RES
1 *2316:Q *652:6 2.395 
2 *652:6 *652:10 1.755 
3 *652:10 *2409:A 1.6 
4 *652:10 *652:17 3.9 
5 *652:17 *1950:B 8.03 
6 *652:17 *1956:B 2.74 
7 *652:6 *2424:A 6.98 
*END
