*SPEF "ieee 1481-1999"
*DESIGN "secure_boot_system_wrapper"
*DATE "03:19:40 Friday February 20, 2026"
*VENDOR "The OpenROAD Project"
*PROGRAM "OpenROAD"
*VERSION "edf00dff99f6c40d67a30c0e22a8191c5d2ed9d6"
*DESIGN_FLOW "NAME_SCOPE LOCAL" "PIN_CAP NONE"
*DIVIDER /
*DELIMITER :
*BUS_DELIMITER []
*T_UNIT 1 NS
*C_UNIT 1 PF
*R_UNIT 1 OHM
*L_UNIT 1 HENRY

*NAME_MAP
*3 clk
*4 clock_glitch
*5 cold_reset_req
*6 debug_enable
*7 file_denied
*8 fsm_error
*9 fw_fail
*10 fw_ok
*11 global_pin_ok
*12 global_state_authorized
*13 global_state_bits[0]
*14 global_state_bits[1]
*15 global_state_bits[2]
*16 global_state_bits[3]
*17 global_state_bits[4]
*18 global_state_boot
*19 global_state_escalated
*20 global_state_locked
*21 global_state_safe_mode
*22 global_timeout_count[0]
*23 global_timeout_count[10]
*24 global_timeout_count[11]
*25 global_timeout_count[12]
*26 global_timeout_count[13]
*27 global_timeout_count[14]
*28 global_timeout_count[15]
*29 global_timeout_count[1]
*30 global_timeout_count[2]
*31 global_timeout_count[3]
*32 global_timeout_count[4]
*33 global_timeout_count[5]
*34 global_timeout_count[6]
*35 global_timeout_count[7]
*36 global_timeout_count[8]
*37 global_timeout_count[9]
*38 group_autolock
*39 group_error
*40 group_locked
*41 group_state_bits[0]
*42 group_state_bits[1]
*43 group_state_bits[2]
*44 group_state_bits[3]
*45 group_state_disabled
*46 group_state_locked
*47 group_state_suspended
*48 group_state_unlocked
*49 group_suspended
*50 group_timeout_count[0]
*51 group_timeout_count[10]
*52 group_timeout_count[11]
*53 group_timeout_count[12]
*54 group_timeout_count[13]
*55 group_timeout_count[14]
*56 group_timeout_count[15]
*57 group_timeout_count[1]
*58 group_timeout_count[2]
*59 group_timeout_count[3]
*60 group_timeout_count[4]
*61 group_timeout_count[5]
*62 group_timeout_count[6]
*63 group_timeout_count[7]
*64 group_timeout_count[8]
*65 group_timeout_count[9]
*66 group_unlocked
*67 hdr_parse_fail
*68 illegal_in
*69 power_glitch
*70 reset
*71 safe_led
*72 security_breach
*73 size_mismatch
*74 sticky_illegal
*75 sticky_tamper
*76 tamper_in
*77 unlock_enable
*78 unlock_req
*79 warm_reset_req
*80 _000_
*81 _001_
*82 _002_
*83 _003_
*84 _004_
*85 _005_
*86 _006_
*87 _007_
*88 _008_
*89 _009_
*90 _010_
*91 _011_
*92 _012_
*93 _013_
*94 _014_
*95 _015_
*96 _016_
*97 _017_
*98 _018_
*99 _019_
*100 _020_
*101 _021_
*102 _022_
*103 _023_
*104 _024_
*105 _025_
*106 _026_
*107 _027_
*108 _028_
*109 _029_
*110 _030_
*111 _031_
*112 _032_
*113 _033_
*114 _034_
*115 _035_
*116 _036_
*117 _037_
*118 _038_
*119 _039_
*120 _040_
*121 _041_
*122 _042_
*123 _043_
*124 _044_
*125 _045_
*126 _046_
*127 _047_
*128 _048_
*129 _049_
*130 _050_
*131 _051_
*132 _052_
*133 _053_
*134 _054_
*135 _055_
*136 _056_
*137 _057_
*138 _058_
*139 _059_
*140 _060_
*141 _061_
*142 _062_
*143 _063_
*144 _064_
*145 _065_
*146 _066_
*147 _067_
*148 _068_
*149 _069_
*150 _070_
*151 _071_
*152 _072_
*153 _073_
*154 _074_
*155 _075_
*156 _076_
*157 _077_
*158 _078_
*159 _079_
*160 _080_
*161 _081_
*162 _082_
*163 _083_
*164 _084_
*165 _085_
*166 _086_
*167 _087_
*168 _088_
*169 _089_
*170 _090_
*171 _091_
*172 _092_
*173 _093_
*174 _094_
*175 _095_
*176 _096_
*177 _097_
*178 _098_
*179 _099_
*180 _100_
*181 _101_
*182 _102_
*183 _103_
*184 _104_
*185 _105_
*186 _106_
*187 _107_
*188 _108_
*189 _109_
*190 _110_
*191 _111_
*192 _112_
*193 _113_
*194 _114_
*195 _115_
*196 _116_
*197 _117_
*198 _118_
*199 _119_
*200 _120_
*201 _121_
*202 _122_
*203 _123_
*204 _124_
*205 _125_
*206 _126_
*207 _127_
*208 _128_
*209 _129_
*210 _130_
*211 _131_
*212 _132_
*213 _133_
*214 _134_
*215 _135_
*216 _136_
*217 _137_
*218 _138_
*219 _139_
*220 _140_
*221 _141_
*222 _142_
*223 _143_
*224 _144_
*225 _145_
*226 _146_
*227 _147_
*228 _148_
*229 _149_
*230 _150_
*231 _151_
*232 _152_
*233 _153_
*234 _154_
*235 _155_
*236 _156_
*237 _157_
*238 _158_
*239 _159_
*240 _160_
*241 _161_
*242 _162_
*243 _163_
*244 _164_
*245 _165_
*246 _166_
*247 _167_
*248 _168_
*249 _169_
*250 _170_
*251 _171_
*252 _172_
*253 _173_
*254 _174_
*255 _175_
*256 _176_
*257 _177_
*258 _178_
*259 _179_
*260 _180_
*261 _181_
*262 _182_
*263 _183_
*264 _184_
*265 _185_
*266 _186_
*267 _187_
*268 _188_
*269 _189_
*270 _190_
*271 _191_
*272 _192_
*273 _193_
*274 _194_
*275 _195_
*276 _196_
*277 _197_
*278 _198_
*279 _199_
*280 _200_
*281 _201_
*282 _202_
*283 _203_
*284 _204_
*285 _205_
*286 _206_
*287 _207_
*288 _208_
*289 _209_
*290 clknet_0_clk
*291 clknet_2_0__leaf_clk
*292 clknet_2_1__leaf_clk
*293 clknet_2_2__leaf_clk
*294 clknet_2_3__leaf_clk
*295 net1
*296 net10
*297 net11
*298 net12
*299 net13
*300 net14
*301 net15
*302 net16
*303 net17
*304 net18
*305 net19
*306 net2
*307 net20
*308 net21
*309 net22
*310 net23
*311 net24
*312 net25
*313 net26
*314 net27
*315 net28
*316 net29
*317 net3
*318 net30
*319 net31
*320 net32
*321 net33
*322 net34
*323 net35
*324 net36
*325 net37
*326 net38
*327 net39
*328 net4
*329 net40
*330 net41
*331 net42
*332 net43
*333 net44
*334 net45
*335 net46
*336 net47
*337 net48
*338 net49
*339 net5
*340 net50
*341 net51
*342 net52
*343 net53
*344 net54
*345 net55
*346 net56
*347 net57
*348 net58
*349 net59
*350 net6
*351 net60
*352 net61
*353 net62
*354 net63
*355 net64
*356 net65
*357 net66
*358 net67
*359 net68
*360 net69
*361 net7
*362 net70
*363 net71
*364 net72
*365 net73
*366 net74
*367 net75
*368 net76
*369 net77
*370 net78
*371 net79
*372 net8
*373 net80
*374 net81
*375 net82
*376 net83
*377 net84
*378 net85
*379 net86
*380 net87
*381 net88
*382 net89
*383 net9
*384 net90
*385 net91
*386 net92
*387 net93
*388 net94
*389 net95
*390 net96
*391 u_global\.denial_counter\[0\]
*392 u_global\.denial_counter\[1\]
*393 u_global\.prev_state\[0\]
*394 u_global\.prev_state\[1\]
*395 u_global\.prev_state\[2\]
*396 u_global\.prev_state\[3\]
*397 u_global\.prev_state\[4\]
*398 ANTENNA_1
*399 FILLER_0_106
*400 FILLER_0_110
*401 FILLER_0_113
*402 FILLER_0_119
*403 FILLER_0_121
*404 FILLER_0_126
*405 FILLER_0_128
*406 FILLER_0_133
*407 FILLER_0_135
*408 FILLER_0_141
*409 FILLER_0_15
*410 FILLER_0_153
*411 FILLER_0_165
*412 FILLER_0_167
*413 FILLER_0_169
*414 FILLER_0_181
*415 FILLER_0_27
*416 FILLER_0_29
*417 FILLER_0_3
*418 FILLER_0_37
*419 FILLER_0_50
*420 FILLER_0_57
*421 FILLER_0_65
*422 FILLER_0_78
*423 FILLER_0_85
*424 FILLER_0_93
*425 FILLER_10_101
*426 FILLER_10_110
*427 FILLER_10_124
*428 FILLER_10_136
*429 FILLER_10_14
*430 FILLER_10_141
*431 FILLER_10_153
*432 FILLER_10_157
*433 FILLER_10_162
*434 FILLER_10_166
*435 FILLER_10_183
*436 FILLER_10_27
*437 FILLER_10_29
*438 FILLER_10_57
*439 FILLER_10_69
*440 FILLER_10_81
*441 FILLER_10_83
*442 FILLER_11_105
*443 FILLER_11_109
*444 FILLER_11_111
*445 FILLER_11_113
*446 FILLER_11_125
*447 FILLER_11_137
*448 FILLER_11_149
*449 FILLER_11_161
*450 FILLER_11_165
*451 FILLER_11_167
*452 FILLER_11_169
*453 FILLER_11_177
*454 FILLER_11_19
*455 FILLER_11_31
*456 FILLER_11_35
*457 FILLER_11_47
*458 FILLER_11_57
*459 FILLER_11_69
*460 FILLER_11_81
*461 FILLER_11_93
*462 FILLER_12_105
*463 FILLER_12_107
*464 FILLER_12_116
*465 FILLER_12_120
*466 FILLER_12_122
*467 FILLER_12_139
*468 FILLER_12_141
*469 FILLER_12_149
*470 FILLER_12_157
*471 FILLER_12_176
*472 FILLER_12_180
*473 FILLER_12_21
*474 FILLER_12_25
*475 FILLER_12_27
*476 FILLER_12_29
*477 FILLER_12_31
*478 FILLER_12_38
*479 FILLER_12_72
*480 FILLER_12_85
*481 FILLER_12_9
*482 FILLER_12_97
*483 FILLER_13_104
*484 FILLER_13_113
*485 FILLER_13_121
*486 FILLER_13_167
*487 FILLER_13_169
*488 FILLER_13_18
*489 FILLER_13_181
*490 FILLER_13_53
*491 FILLER_13_55
*492 FILLER_13_6
*493 FILLER_13_70
*494 FILLER_13_82
*495 FILLER_13_92
*496 FILLER_14_10
*497 FILLER_14_107
*498 FILLER_14_111
*499 FILLER_14_113
*500 FILLER_14_122
*501 FILLER_14_128
*502 FILLER_14_135
*503 FILLER_14_139
*504 FILLER_14_141
*505 FILLER_14_153
*506 FILLER_14_16
*507 FILLER_14_165
*508 FILLER_14_29
*509 FILLER_14_41
*510 FILLER_14_49
*511 FILLER_14_58
*512 FILLER_14_66
*513 FILLER_14_68
*514 FILLER_14_72
*515 FILLER_15_106
*516 FILLER_15_110
*517 FILLER_15_113
*518 FILLER_15_121
*519 FILLER_15_123
*520 FILLER_15_131
*521 FILLER_15_135
*522 FILLER_15_142
*523 FILLER_15_154
*524 FILLER_15_166
*525 FILLER_15_169
*526 FILLER_15_171
*527 FILLER_15_175
*528 FILLER_15_26
*529 FILLER_15_3
*530 FILLER_15_38
*531 FILLER_15_50
*532 FILLER_15_54
*533 FILLER_15_57
*534 FILLER_15_69
*535 FILLER_15_77
*536 FILLER_15_94
*537 FILLER_16_107
*538 FILLER_16_128
*539 FILLER_16_130
*540 FILLER_16_137
*541 FILLER_16_139
*542 FILLER_16_14
*543 FILLER_16_141
*544 FILLER_16_161
*545 FILLER_16_169
*546 FILLER_16_26
*547 FILLER_16_29
*548 FILLER_16_31
*549 FILLER_16_55
*550 FILLER_16_59
*551 FILLER_16_65
*552 FILLER_16_7
*553 FILLER_16_77
*554 FILLER_16_81
*555 FILLER_16_83
*556 FILLER_16_85
*557 FILLER_17_103
*558 FILLER_17_111
*559 FILLER_17_113
*560 FILLER_17_12
*561 FILLER_17_121
*562 FILLER_17_123
*563 FILLER_17_132
*564 FILLER_17_159
*565 FILLER_17_24
*566 FILLER_17_28
*567 FILLER_17_3
*568 FILLER_17_35
*569 FILLER_17_45
*570 FILLER_17_53
*571 FILLER_17_55
*572 FILLER_17_57
*573 FILLER_17_77
*574 FILLER_17_85
*575 FILLER_18_108
*576 FILLER_18_116
*577 FILLER_18_121
*578 FILLER_18_133
*579 FILLER_18_137
*580 FILLER_18_139
*581 FILLER_18_141
*582 FILLER_18_153
*583 FILLER_18_163
*584 FILLER_18_176
*585 FILLER_18_180
*586 FILLER_18_24
*587 FILLER_18_29
*588 FILLER_18_34
*589 FILLER_18_46
*590 FILLER_18_58
*591 FILLER_18_6
*592 FILLER_18_64
*593 FILLER_18_76
*594 FILLER_18_85
*595 FILLER_18_87
*596 FILLER_18_96
*597 FILLER_19_111
*598 FILLER_19_120
*599 FILLER_19_138
*600 FILLER_19_14
*601 FILLER_19_150
*602 FILLER_19_162
*603 FILLER_19_18
*604 FILLER_19_182
*605 FILLER_19_184
*606 FILLER_19_20
*607 FILLER_19_28
*608 FILLER_19_30
*609 FILLER_19_36
*610 FILLER_19_48
*611 FILLER_19_65
*612 FILLER_19_67
*613 FILLER_19_7
*614 FILLER_19_73
*615 FILLER_19_91
*616 FILLER_1_113
*617 FILLER_1_117
*618 FILLER_1_119
*619 FILLER_1_141
*620 FILLER_1_15
*621 FILLER_1_161
*622 FILLER_1_165
*623 FILLER_1_167
*624 FILLER_1_177
*625 FILLER_1_27
*626 FILLER_1_3
*627 FILLER_1_31
*628 FILLER_1_57
*629 FILLER_1_61
*630 FILLER_1_63
*631 FILLER_1_73
*632 FILLER_1_90
*633 FILLER_1_94
*634 FILLER_20_10
*635 FILLER_20_100
*636 FILLER_20_112
*637 FILLER_20_116
*638 FILLER_20_118
*639 FILLER_20_139
*640 FILLER_20_141
*641 FILLER_20_150
*642 FILLER_20_162
*643 FILLER_20_18
*644 FILLER_20_180
*645 FILLER_20_27
*646 FILLER_20_29
*647 FILLER_20_33
*648 FILLER_20_71
*649 FILLER_20_82
*650 FILLER_20_85
*651 FILLER_21_103
*652 FILLER_21_113
*653 FILLER_21_121
*654 FILLER_21_139
*655 FILLER_21_156
*656 FILLER_21_16
*657 FILLER_21_169
*658 FILLER_21_173
*659 FILLER_21_178
*660 FILLER_21_180
*661 FILLER_21_28
*662 FILLER_21_37
*663 FILLER_21_49
*664 FILLER_21_53
*665 FILLER_21_55
*666 FILLER_21_69
*667 FILLER_21_7
*668 FILLER_21_79
*669 FILLER_21_91
*670 FILLER_22_101
*671 FILLER_22_121
*672 FILLER_22_133
*673 FILLER_22_137
*674 FILLER_22_139
*675 FILLER_22_141
*676 FILLER_22_153
*677 FILLER_22_158
*678 FILLER_22_170
*679 FILLER_22_174
*680 FILLER_22_176
*681 FILLER_22_182
*682 FILLER_22_184
*683 FILLER_22_26
*684 FILLER_22_3
*685 FILLER_22_34
*686 FILLER_22_46
*687 FILLER_22_50
*688 FILLER_22_56
*689 FILLER_22_65
*690 FILLER_22_77
*691 FILLER_22_79
*692 FILLER_23_10
*693 FILLER_23_103
*694 FILLER_23_111
*695 FILLER_23_113
*696 FILLER_23_125
*697 FILLER_23_135
*698 FILLER_23_147
*699 FILLER_23_151
*700 FILLER_23_161
*701 FILLER_23_165
*702 FILLER_23_167
*703 FILLER_23_169
*704 FILLER_23_22
*705 FILLER_23_3
*706 FILLER_23_30
*707 FILLER_23_40
*708 FILLER_23_45
*709 FILLER_23_55
*710 FILLER_23_67
*711 FILLER_23_79
*712 FILLER_23_91
*713 FILLER_24_109
*714 FILLER_24_121
*715 FILLER_24_129
*716 FILLER_24_131
*717 FILLER_24_141
*718 FILLER_24_175
*719 FILLER_24_177
*720 FILLER_24_19
*721 FILLER_24_27
*722 FILLER_24_29
*723 FILLER_24_41
*724 FILLER_24_53
*725 FILLER_24_60
*726 FILLER_24_68
*727 FILLER_24_7
*728 FILLER_24_85
*729 FILLER_24_97
*730 FILLER_25_110
*731 FILLER_25_116
*732 FILLER_25_134
*733 FILLER_25_138
*734 FILLER_25_148
*735 FILLER_25_160
*736 FILLER_25_169
*737 FILLER_25_180
*738 FILLER_25_27
*739 FILLER_25_38
*740 FILLER_25_50
*741 FILLER_25_54
*742 FILLER_25_57
*743 FILLER_25_69
*744 FILLER_25_7
*745 FILLER_25_71
*746 FILLER_25_96
*747 FILLER_26_122
*748 FILLER_26_141
*749 FILLER_26_143
*750 FILLER_26_147
*751 FILLER_26_156
*752 FILLER_26_160
*753 FILLER_26_184
*754 FILLER_26_19
*755 FILLER_26_27
*756 FILLER_26_3
*757 FILLER_26_52
*758 FILLER_26_79
*759 FILLER_26_83
*760 FILLER_26_85
*761 FILLER_26_97
*762 FILLER_27_100
*763 FILLER_27_11
*764 FILLER_27_113
*765 FILLER_27_125
*766 FILLER_27_129
*767 FILLER_27_138
*768 FILLER_27_140
*769 FILLER_27_160
*770 FILLER_27_169
*771 FILLER_27_23
*772 FILLER_27_27
*773 FILLER_27_35
*774 FILLER_27_39
*775 FILLER_27_51
*776 FILLER_27_55
*777 FILLER_27_64
*778 FILLER_27_76
*779 FILLER_27_88
*780 FILLER_28_100
*781 FILLER_28_11
*782 FILLER_28_110
*783 FILLER_28_118
*784 FILLER_28_126
*785 FILLER_28_136
*786 FILLER_28_149
*787 FILLER_28_153
*788 FILLER_28_160
*789 FILLER_28_164
*790 FILLER_28_166
*791 FILLER_28_174
*792 FILLER_28_182
*793 FILLER_28_184
*794 FILLER_28_23
*795 FILLER_28_27
*796 FILLER_28_3
*797 FILLER_28_35
*798 FILLER_28_47
*799 FILLER_28_49
*800 FILLER_28_5
*801 FILLER_28_66
*802 FILLER_28_70
*803 FILLER_28_77
*804 FILLER_28_81
*805 FILLER_28_83
*806 FILLER_28_88
*807 FILLER_28_92
*808 FILLER_28_96
*809 FILLER_29_113
*810 FILLER_29_147
*811 FILLER_29_151
*812 FILLER_29_169
*813 FILLER_29_27
*814 FILLER_29_29
*815 FILLER_29_46
*816 FILLER_29_54
*817 FILLER_29_60
*818 FILLER_2_101
*819 FILLER_2_107
*820 FILLER_2_119
*821 FILLER_2_123
*822 FILLER_2_125
*823 FILLER_2_138
*824 FILLER_2_141
*825 FILLER_2_164
*826 FILLER_2_168
*827 FILLER_2_19
*828 FILLER_2_27
*829 FILLER_2_29
*830 FILLER_2_41
*831 FILLER_2_53
*832 FILLER_2_65
*833 FILLER_2_67
*834 FILLER_2_7
*835 FILLER_2_81
*836 FILLER_2_83
*837 FILLER_2_85
*838 FILLER_2_97
*839 FILLER_30_100
*840 FILLER_30_113
*841 FILLER_30_118
*842 FILLER_30_126
*843 FILLER_30_128
*844 FILLER_30_132
*845 FILLER_30_141
*846 FILLER_30_147
*847 FILLER_30_149
*848 FILLER_30_154
*849 FILLER_30_159
*850 FILLER_30_167
*851 FILLER_30_169
*852 FILLER_30_174
*853 FILLER_30_178
*854 FILLER_30_180
*855 FILLER_30_19
*856 FILLER_30_27
*857 FILLER_30_29
*858 FILLER_30_37
*859 FILLER_30_49
*860 FILLER_30_51
*861 FILLER_30_57
*862 FILLER_30_63
*863 FILLER_30_65
*864 FILLER_30_70
*865 FILLER_30_72
*866 FILLER_30_77
*867 FILLER_30_79
*868 FILLER_30_85
*869 FILLER_30_91
*870 FILLER_30_93
*871 FILLER_30_98
*872 FILLER_3_109
*873 FILLER_3_111
*874 FILLER_3_120
*875 FILLER_3_132
*876 FILLER_3_144
*877 FILLER_3_15
*878 FILLER_3_156
*879 FILLER_3_169
*880 FILLER_3_27
*881 FILLER_3_3
*882 FILLER_3_39
*883 FILLER_3_47
*884 FILLER_3_53
*885 FILLER_3_55
*886 FILLER_3_57
*887 FILLER_3_69
*888 FILLER_3_81
*889 FILLER_3_97
*890 FILLER_4_109
*891 FILLER_4_125
*892 FILLER_4_133
*893 FILLER_4_138
*894 FILLER_4_141
*895 FILLER_4_152
*896 FILLER_4_160
*897 FILLER_4_169
*898 FILLER_4_173
*899 FILLER_4_183
*900 FILLER_4_19
*901 FILLER_4_27
*902 FILLER_4_45
*903 FILLER_4_7
*904 FILLER_4_76
*905 FILLER_5_11
*906 FILLER_5_111
*907 FILLER_5_118
*908 FILLER_5_122
*909 FILLER_5_124
*910 FILLER_5_148
*911 FILLER_5_150
*912 FILLER_5_164
*913 FILLER_5_23
*914 FILLER_5_35
*915 FILLER_5_47
*916 FILLER_5_55
*917 FILLER_5_57
*918 FILLER_5_74
*919 FILLER_5_86
*920 FILLER_5_90
*921 FILLER_5_99
*922 FILLER_6_110
*923 FILLER_6_112
*924 FILLER_6_125
*925 FILLER_6_13
*926 FILLER_6_137
*927 FILLER_6_139
*928 FILLER_6_141
*929 FILLER_6_153
*930 FILLER_6_155
*931 FILLER_6_170
*932 FILLER_6_178
*933 FILLER_6_180
*934 FILLER_6_20
*935 FILLER_6_34
*936 FILLER_6_42
*937 FILLER_6_49
*938 FILLER_6_61
*939 FILLER_6_63
*940 FILLER_6_85
*941 FILLER_6_97
*942 FILLER_7_105
*943 FILLER_7_109
*944 FILLER_7_111
*945 FILLER_7_120
*946 FILLER_7_132
*947 FILLER_7_144
*948 FILLER_7_156
*949 FILLER_7_169
*950 FILLER_7_26
*951 FILLER_7_38
*952 FILLER_7_57
*953 FILLER_7_69
*954 FILLER_7_81
*955 FILLER_7_93
*956 FILLER_7_97
*957 FILLER_7_99
*958 FILLER_8_111
*959 FILLER_8_113
*960 FILLER_8_118
*961 FILLER_8_130
*962 FILLER_8_138
*963 FILLER_8_146
*964 FILLER_8_148
*965 FILLER_8_163
*966 FILLER_8_167
*967 FILLER_8_184
*968 FILLER_8_19
*969 FILLER_8_27
*970 FILLER_8_29
*971 FILLER_8_41
*972 FILLER_8_43
*973 FILLER_8_49
*974 FILLER_8_61
*975 FILLER_8_65
*976 FILLER_8_7
*977 FILLER_8_71
*978 FILLER_8_83
*979 FILLER_8_85
*980 FILLER_8_89
*981 FILLER_8_99
*982 FILLER_9_104
*983 FILLER_9_142
*984 FILLER_9_153
*985 FILLER_9_157
*986 FILLER_9_159
*987 FILLER_9_173
*988 FILLER_9_19
*989 FILLER_9_28
*990 FILLER_9_37
*991 FILLER_9_49
*992 FILLER_9_53
*993 FILLER_9_55
*994 FILLER_9_57
*995 FILLER_9_7
*996 FILLER_9_81
*997 FILLER_9_85
*998 FILLER_9_87
*999 FILLER_9_92
*1000 PHY_EDGE_ROW_0_Left_31
*1001 PHY_EDGE_ROW_0_Right_0
*1002 PHY_EDGE_ROW_10_Left_41
*1003 PHY_EDGE_ROW_10_Right_10
*1004 PHY_EDGE_ROW_11_Left_42
*1005 PHY_EDGE_ROW_11_Right_11
*1006 PHY_EDGE_ROW_12_Left_43
*1007 PHY_EDGE_ROW_12_Right_12
*1008 PHY_EDGE_ROW_13_Left_44
*1009 PHY_EDGE_ROW_13_Right_13
*1010 PHY_EDGE_ROW_14_Left_45
*1011 PHY_EDGE_ROW_14_Right_14
*1012 PHY_EDGE_ROW_15_Left_46
*1013 PHY_EDGE_ROW_15_Right_15
*1014 PHY_EDGE_ROW_16_Left_47
*1015 PHY_EDGE_ROW_16_Right_16
*1016 PHY_EDGE_ROW_17_Left_48
*1017 PHY_EDGE_ROW_17_Right_17
*1018 PHY_EDGE_ROW_18_Left_49
*1019 PHY_EDGE_ROW_18_Right_18
*1020 PHY_EDGE_ROW_19_Left_50
*1021 PHY_EDGE_ROW_19_Right_19
*1022 PHY_EDGE_ROW_1_Left_32
*1023 PHY_EDGE_ROW_1_Right_1
*1024 PHY_EDGE_ROW_20_Left_51
*1025 PHY_EDGE_ROW_20_Right_20
*1026 PHY_EDGE_ROW_21_Left_52
*1027 PHY_EDGE_ROW_21_Right_21
*1028 PHY_EDGE_ROW_22_Left_53
*1029 PHY_EDGE_ROW_22_Right_22
*1030 PHY_EDGE_ROW_23_Left_54
*1031 PHY_EDGE_ROW_23_Right_23
*1032 PHY_EDGE_ROW_24_Left_55
*1033 PHY_EDGE_ROW_24_Right_24
*1034 PHY_EDGE_ROW_25_Left_56
*1035 PHY_EDGE_ROW_25_Right_25
*1036 PHY_EDGE_ROW_26_Left_57
*1037 PHY_EDGE_ROW_26_Right_26
*1038 PHY_EDGE_ROW_27_Left_58
*1039 PHY_EDGE_ROW_27_Right_27
*1040 PHY_EDGE_ROW_28_Left_59
*1041 PHY_EDGE_ROW_28_Right_28
*1042 PHY_EDGE_ROW_29_Left_60
*1043 PHY_EDGE_ROW_29_Right_29
*1044 PHY_EDGE_ROW_2_Left_33
*1045 PHY_EDGE_ROW_2_Right_2
*1046 PHY_EDGE_ROW_30_Left_61
*1047 PHY_EDGE_ROW_30_Right_30
*1048 PHY_EDGE_ROW_3_Left_34
*1049 PHY_EDGE_ROW_3_Right_3
*1050 PHY_EDGE_ROW_4_Left_35
*1051 PHY_EDGE_ROW_4_Right_4
*1052 PHY_EDGE_ROW_5_Left_36
*1053 PHY_EDGE_ROW_5_Right_5
*1054 PHY_EDGE_ROW_6_Left_37
*1055 PHY_EDGE_ROW_6_Right_6
*1056 PHY_EDGE_ROW_7_Left_38
*1057 PHY_EDGE_ROW_7_Right_7
*1058 PHY_EDGE_ROW_8_Left_39
*1059 PHY_EDGE_ROW_8_Right_8
*1060 PHY_EDGE_ROW_9_Left_40
*1061 PHY_EDGE_ROW_9_Right_9
*1062 TAP_TAPCELL_ROW_0_62
*1063 TAP_TAPCELL_ROW_0_63
*1064 TAP_TAPCELL_ROW_0_64
*1065 TAP_TAPCELL_ROW_0_65
*1066 TAP_TAPCELL_ROW_0_66
*1067 TAP_TAPCELL_ROW_0_67
*1068 TAP_TAPCELL_ROW_10_95
*1069 TAP_TAPCELL_ROW_10_96
*1070 TAP_TAPCELL_ROW_10_97
*1071 TAP_TAPCELL_ROW_11_100
*1072 TAP_TAPCELL_ROW_11_98
*1073 TAP_TAPCELL_ROW_11_99
*1074 TAP_TAPCELL_ROW_12_101
*1075 TAP_TAPCELL_ROW_12_102
*1076 TAP_TAPCELL_ROW_12_103
*1077 TAP_TAPCELL_ROW_13_104
*1078 TAP_TAPCELL_ROW_13_105
*1079 TAP_TAPCELL_ROW_13_106
*1080 TAP_TAPCELL_ROW_14_107
*1081 TAP_TAPCELL_ROW_14_108
*1082 TAP_TAPCELL_ROW_14_109
*1083 TAP_TAPCELL_ROW_15_110
*1084 TAP_TAPCELL_ROW_15_111
*1085 TAP_TAPCELL_ROW_15_112
*1086 TAP_TAPCELL_ROW_16_113
*1087 TAP_TAPCELL_ROW_16_114
*1088 TAP_TAPCELL_ROW_16_115
*1089 TAP_TAPCELL_ROW_17_116
*1090 TAP_TAPCELL_ROW_17_117
*1091 TAP_TAPCELL_ROW_17_118
*1092 TAP_TAPCELL_ROW_18_119
*1093 TAP_TAPCELL_ROW_18_120
*1094 TAP_TAPCELL_ROW_18_121
*1095 TAP_TAPCELL_ROW_19_122
*1096 TAP_TAPCELL_ROW_19_123
*1097 TAP_TAPCELL_ROW_19_124
*1098 TAP_TAPCELL_ROW_1_68
*1099 TAP_TAPCELL_ROW_1_69
*1100 TAP_TAPCELL_ROW_1_70
*1101 TAP_TAPCELL_ROW_20_125
*1102 TAP_TAPCELL_ROW_20_126
*1103 TAP_TAPCELL_ROW_20_127
*1104 TAP_TAPCELL_ROW_21_128
*1105 TAP_TAPCELL_ROW_21_129
*1106 TAP_TAPCELL_ROW_21_130
*1107 TAP_TAPCELL_ROW_22_131
*1108 TAP_TAPCELL_ROW_22_132
*1109 TAP_TAPCELL_ROW_22_133
*1110 TAP_TAPCELL_ROW_23_134
*1111 TAP_TAPCELL_ROW_23_135
*1112 TAP_TAPCELL_ROW_23_136
*1113 TAP_TAPCELL_ROW_24_137
*1114 TAP_TAPCELL_ROW_24_138
*1115 TAP_TAPCELL_ROW_24_139
*1116 TAP_TAPCELL_ROW_25_140
*1117 TAP_TAPCELL_ROW_25_141
*1118 TAP_TAPCELL_ROW_25_142
*1119 TAP_TAPCELL_ROW_26_143
*1120 TAP_TAPCELL_ROW_26_144
*1121 TAP_TAPCELL_ROW_26_145
*1122 TAP_TAPCELL_ROW_27_146
*1123 TAP_TAPCELL_ROW_27_147
*1124 TAP_TAPCELL_ROW_27_148
*1125 TAP_TAPCELL_ROW_28_149
*1126 TAP_TAPCELL_ROW_28_150
*1127 TAP_TAPCELL_ROW_28_151
*1128 TAP_TAPCELL_ROW_29_152
*1129 TAP_TAPCELL_ROW_29_153
*1130 TAP_TAPCELL_ROW_29_154
*1131 TAP_TAPCELL_ROW_2_71
*1132 TAP_TAPCELL_ROW_2_72
*1133 TAP_TAPCELL_ROW_2_73
*1134 TAP_TAPCELL_ROW_30_155
*1135 TAP_TAPCELL_ROW_30_156
*1136 TAP_TAPCELL_ROW_30_157
*1137 TAP_TAPCELL_ROW_30_158
*1138 TAP_TAPCELL_ROW_30_159
*1139 TAP_TAPCELL_ROW_30_160
*1140 TAP_TAPCELL_ROW_3_74
*1141 TAP_TAPCELL_ROW_3_75
*1142 TAP_TAPCELL_ROW_3_76
*1143 TAP_TAPCELL_ROW_4_77
*1144 TAP_TAPCELL_ROW_4_78
*1145 TAP_TAPCELL_ROW_4_79
*1146 TAP_TAPCELL_ROW_5_80
*1147 TAP_TAPCELL_ROW_5_81
*1148 TAP_TAPCELL_ROW_5_82
*1149 TAP_TAPCELL_ROW_6_83
*1150 TAP_TAPCELL_ROW_6_84
*1151 TAP_TAPCELL_ROW_6_85
*1152 TAP_TAPCELL_ROW_7_86
*1153 TAP_TAPCELL_ROW_7_87
*1154 TAP_TAPCELL_ROW_7_88
*1155 TAP_TAPCELL_ROW_8_89
*1156 TAP_TAPCELL_ROW_8_90
*1157 TAP_TAPCELL_ROW_8_91
*1158 TAP_TAPCELL_ROW_9_92
*1159 TAP_TAPCELL_ROW_9_93
*1160 TAP_TAPCELL_ROW_9_94
*1161 _210_
*1162 _211_
*1163 _212_
*1164 _213_
*1165 _214_
*1166 _215_
*1167 _216_
*1168 _217_
*1169 _218_
*1170 _219_
*1171 _220_
*1172 _221_
*1173 _222_
*1174 _223_
*1175 _224_
*1176 _225_
*1177 _226_
*1178 _227_
*1179 _228_
*1180 _229_
*1181 _230_
*1182 _231_
*1183 _232_
*1184 _233_
*1185 _234_
*1186 _235_
*1187 _236_
*1188 _237_
*1189 _238_
*1190 _239_
*1191 _240_
*1192 _241_
*1193 _242_
*1194 _243_
*1195 _244_
*1196 _245_
*1197 _246_
*1198 _247_
*1199 _248_
*1200 _249_
*1201 _250_
*1202 _251_
*1203 _252_
*1204 _253_
*1205 _254_
*1206 _255_
*1207 _256_
*1208 _257_
*1209 _258_
*1210 _259_
*1211 _260_
*1212 _261_
*1213 _262_
*1214 _263_
*1215 _264_
*1216 _265_
*1217 _266_
*1218 _267_
*1219 _268_
*1220 _269_
*1221 _270_
*1222 _271_
*1223 _272_
*1224 _273_
*1225 _274_
*1226 _275_
*1227 _276_
*1228 _277_
*1229 _278_
*1230 _279_
*1231 _280_
*1232 _281_
*1233 _282_
*1234 _283_
*1235 _284_
*1236 _285_
*1237 _286_
*1238 _287_
*1239 _288_
*1240 _289_
*1241 _290_
*1242 _291_
*1243 _292_
*1244 _293_
*1245 _294_
*1246 _295_
*1247 _296_
*1248 _297_
*1249 _298_
*1250 _299_
*1251 _300_
*1252 _301_
*1253 _302_
*1254 _303_
*1255 _304_
*1256 _305_
*1257 _306_
*1258 _307_
*1259 _308_
*1260 _309_
*1261 _310_
*1262 _311_
*1263 _312_
*1264 _313_
*1265 _314_
*1266 _315_
*1267 _316_
*1268 _317_
*1269 _318_
*1270 _319_
*1271 _320_
*1272 _321_
*1273 _322_
*1274 _323_
*1275 _324_
*1276 _325_
*1277 _326_
*1278 _327_
*1279 _328_
*1280 _329_
*1281 _330_
*1282 _331_
*1283 _332_
*1284 _333_
*1285 _334_
*1286 _335_
*1287 _336_
*1288 _337_
*1289 _338_
*1290 _339_
*1291 _340_
*1292 _341_
*1293 _342_
*1294 _343_
*1295 _344_
*1296 _345_
*1297 _346_
*1298 _347_
*1299 _348_
*1300 _349_
*1301 _350_
*1302 _351_
*1303 _352_
*1304 _353_
*1305 _354_
*1306 _355_
*1307 _356_
*1308 _357_
*1309 _358_
*1310 _359_
*1311 _360_
*1312 _361_
*1313 _362_
*1314 _363_
*1315 _364_
*1316 _365_
*1317 _366_
*1318 _367_
*1319 _368_
*1320 _369_
*1321 _370_
*1322 _371_
*1323 _372_
*1324 _373_
*1325 _374_
*1326 _375_
*1327 _376_
*1328 _377_
*1329 _378_
*1330 _379_
*1331 _380_
*1332 _381_
*1333 _382_
*1334 _383_
*1335 _384_
*1336 _385_
*1337 _386_
*1338 _387_
*1339 _388_
*1340 _389_
*1341 _390_
*1342 _391_
*1343 _392_
*1344 _393_
*1345 _394_
*1346 _395_
*1347 _396_
*1348 _397_
*1349 _398_
*1350 _399_
*1351 _400_
*1352 _401_
*1353 _402_
*1354 _403_
*1355 _404_
*1356 _405_
*1357 _406_
*1358 _407_
*1359 _408_
*1360 _409_
*1361 _410_
*1362 _411_
*1363 _412_
*1364 _413_
*1365 _414_
*1366 _415_
*1367 _416_
*1368 _417_
*1369 _418_
*1370 _419_
*1371 _420_
*1372 _421_
*1373 _422_
*1374 _423_
*1375 _424_
*1376 _425_
*1377 _426_
*1378 _427_
*1379 _428_
*1380 _429_
*1381 _430_
*1382 _431_
*1383 _432_
*1384 _433_
*1385 _434_
*1386 _435_
*1387 _436_
*1388 _437_
*1389 _438_
*1390 _439_
*1391 _440_
*1392 _441_
*1393 _442_
*1394 _443_
*1395 _444_
*1396 _445_
*1397 _446_
*1398 _447_
*1399 _448_
*1400 _449_
*1401 _450_
*1402 _451_
*1403 _452_
*1404 _453_
*1405 _454_
*1406 _455_
*1407 _456_
*1408 _457_
*1409 _458_
*1410 _459_
*1411 _460_
*1412 _461_
*1413 _462_
*1414 _463_
*1415 _464_
*1416 _465_
*1417 _466_
*1418 _467_
*1419 _468_
*1420 _469_
*1421 _470_
*1422 _471_
*1423 _472_
*1424 _473_
*1425 _474_
*1426 _475_
*1427 _476_
*1428 _477_
*1429 _478_
*1430 _479_
*1431 _480_
*1432 _481_
*1433 _482_
*1434 _483_
*1435 _484_
*1436 _485_
*1437 _486_
*1438 _487_
*1439 clkbuf_0_clk
*1440 clkbuf_2_0__f_clk
*1441 clkbuf_2_1__f_clk
*1442 clkbuf_2_2__f_clk
*1443 clkbuf_2_3__f_clk
*1444 clkload0
*1445 clkload1
*1446 clkload2
*1447 fanout77
*1448 fanout78
*1449 fanout79
*1450 fanout80
*1451 fanout82
*1452 hold1
*1453 hold10
*1454 hold11
*1455 hold12
*1456 hold13
*1457 hold14
*1458 hold2
*1459 hold3
*1460 hold4
*1461 hold5
*1462 hold6
*1463 hold7
*1464 hold8
*1465 hold9
*1466 input1
*1467 input10
*1468 input11
*1469 input12
*1470 input13
*1471 input14
*1472 input15
*1473 input2
*1474 input3
*1475 input4
*1476 input5
*1477 input6
*1478 input7
*1479 input8
*1480 input9
*1481 output16
*1482 output17
*1483 output18
*1484 output19
*1485 output20
*1486 output21
*1487 output22
*1488 output23
*1489 output24
*1490 output25
*1491 output26
*1492 output27
*1493 output28
*1494 output29
*1495 output30
*1496 output31
*1497 output32
*1498 output33
*1499 output34
*1500 output35
*1501 output36
*1502 output37
*1503 output38
*1504 output39
*1505 output40
*1506 output41
*1507 output42
*1508 output43
*1509 output44
*1510 output45
*1511 output46
*1512 output47
*1513 output48
*1514 output49
*1515 output50
*1516 output51
*1517 output52
*1518 output53
*1519 output54
*1520 output55
*1521 output56
*1522 output57
*1523 output58
*1524 output59
*1525 output60
*1526 output61
*1527 output62
*1528 output63
*1529 output64
*1530 output65
*1531 output66
*1532 output67
*1533 output68
*1534 output69
*1535 output70
*1536 output71
*1537 output72
*1538 output73
*1539 output74
*1540 output75
*1541 output76
*1542 wire81

*PORTS
clk I
clock_glitch I
cold_reset_req I
debug_enable O
file_denied I
fsm_error O
fw_fail I
fw_ok I
global_pin_ok I
global_state_authorized O
global_state_bits[0] O
global_state_bits[1] O
global_state_bits[2] O
global_state_bits[3] O
global_state_bits[4] O
global_state_boot O
global_state_escalated O
global_state_locked O
global_state_safe_mode O
global_timeout_count[0] O
global_timeout_count[10] O
global_timeout_count[11] O
global_timeout_count[12] O
global_timeout_count[13] O
global_timeout_count[14] O
global_timeout_count[15] O
global_timeout_count[1] O
global_timeout_count[2] O
global_timeout_count[3] O
global_timeout_count[4] O
global_timeout_count[5] O
global_timeout_count[6] O
global_timeout_count[7] O
global_timeout_count[8] O
global_timeout_count[9] O
group_autolock I
group_error O
group_locked O
group_state_bits[0] O
group_state_bits[1] O
group_state_bits[2] O
group_state_bits[3] O
group_state_disabled O
group_state_locked O
group_state_suspended O
group_state_unlocked O
group_suspended O
group_timeout_count[0] O
group_timeout_count[10] O
group_timeout_count[11] O
group_timeout_count[12] O
group_timeout_count[13] O
group_timeout_count[14] O
group_timeout_count[15] O
group_timeout_count[1] O
group_timeout_count[2] O
group_timeout_count[3] O
group_timeout_count[4] O
group_timeout_count[5] O
group_timeout_count[6] O
group_timeout_count[7] O
group_timeout_count[8] O
group_timeout_count[9] O
group_unlocked O
hdr_parse_fail I
illegal_in I
power_glitch I
reset I
safe_led O
security_breach O
size_mismatch I
sticky_illegal O
sticky_tamper O
tamper_in I
unlock_enable O
unlock_req I
warm_reset_req I

*D_NET *3 0.00988198
*CONN
*P clk I
*I *1439:A I *D sky130_fd_sc_hd__clkbuf_16
*CAP
1 clk 0.00263466
2 *1439:A 0.000817173
3 *3:15 0.00345183
4 *1439:A *1291:A1 0.000279787
5 *1439:A *1333:A 0.000535974
6 *1439:A *1333:B 4.32926e-05
7 *1439:A *1333:C 1.70906e-05
8 *1439:A *1414:D 2.78804e-05
9 *1439:A *290:8 0.000138743
10 *1439:A *357:12 0.000195603
11 *3:15 debug_enable 5.79603e-05
12 *3:15 group_state_unlocked 8.81467e-05
13 *3:15 group_timeout_count[10] 0
14 *3:15 group_timeout_count[11] 3.44025e-05
15 *3:15 group_timeout_count[12] 3.44025e-05
16 *3:15 group_timeout_count[13] 6.06593e-05
17 *3:15 group_timeout_count[14] 6.12746e-05
18 *3:15 group_timeout_count[5] 9.5799e-06
19 *3:15 *1212:A 0
20 *3:15 *1336:B 2.39461e-05
21 *3:15 *1337:B 4.82863e-05
22 *3:15 *1339:B 0.000163204
23 *3:15 *1360:B 0
24 *3:15 *1361:A_N 3.89528e-05
25 *3:15 *1361:C 0
26 *3:15 *1414:CLK 3.00381e-05
27 *3:15 *1414:D 0.00013418
28 *3:15 *1436:A 0
29 *3:15 *1474:A 8.41015e-06
30 *3:15 *1477:A 8.41703e-06
31 *3:15 *1478:A 0
32 *3:15 *1518:A 0
33 *3:15 *1524:A 0
34 *3:15 *1536:A 0
35 *3:15 *262:14 0.000682943
36 *3:15 *348:12 5.50794e-05
37 *3:15 *349:29 0
38 *3:15 *358:29 3.51884e-05
39 *3:15 *358:39 0.000164874
40 *3:15 *361:12 0
*RES
1 clk *3:15 48.537 
2 *3:15 *1439:A 18.04 
*END

*D_NET *4 0.00040703
*CONN
*P clock_glitch I
*I *1466:A I *D sky130_fd_sc_hd__clkbuf_1
*CAP
1 clock_glitch 0.000119407
2 *1466:A 0.000119407
3 *1466:A global_state_locked 8.53361e-05
4 *1466:A *1226:A 0
5 *1466:A *1467:A 8.28789e-05
*RES
1 clock_glitch *1466:A 4.84677 
*END

*D_NET *5 0.000498008
*CONN
*P cold_reset_req I
*I *1473:A I *D sky130_fd_sc_hd__clkbuf_2
*CAP
1 cold_reset_req 0.00014643
2 *1473:A 0.00014643
3 *1473:A global_timeout_count[11] 9.50048e-05
4 *1473:A global_timeout_count[12] 8.44576e-05
5 *1473:A *319:28 2.56866e-05
*RES
1 cold_reset_req *1473:A 5.16003 
*END

*D_NET *6 0.000619199
*CONN
*P debug_enable O
*I *1481:X O *D sky130_fd_sc_hd__buf_2
*CAP
1 debug_enable 0.000263355
2 *1481:X 0.000263355
3 debug_enable group_timeout_count[14] 3.45293e-05
4 *3:15 debug_enable 5.79603e-05
*RES
1 *1481:X debug_enable 6.98543 
*END

*D_NET *7 0.00046202
*CONN
*P file_denied I
*I *1474:A I *D sky130_fd_sc_hd__buf_1
*CAP
1 file_denied 0.000191044
2 *1474:A 0.000191044
3 *1474:A *1477:A 3.45293e-05
4 *1474:A *1478:A 3.6993e-05
5 *3:15 *1474:A 8.41015e-06
*RES
1 file_denied *1474:A 6.38543 
*END

*D_NET *8 0.00104768
*CONN
*P fsm_error O
*I *1482:X O *D sky130_fd_sc_hd__buf_2
*CAP
1 fsm_error 0.00052384
2 *1482:X 0.00052384
3 fsm_error sticky_tamper 0
*RES
1 *1482:X fsm_error 12.06 
*END

*D_NET *9 0.00127803
*CONN
*P fw_fail I
*I *1475:A I *D sky130_fd_sc_hd__clkbuf_1
*CAP
1 fw_fail 0.00045586
2 *1475:A 0.00045586
3 *1475:A *1162:A 4.99619e-05
4 *1475:A *1226:B 4.66108e-05
5 *1475:A *1454:A 3.00381e-05
6 *1475:A *1467:A 7.56675e-05
7 *1475:A *1469:A 0.000111246
8 *1475:A *133:10 5.27885e-05
*RES
1 fw_fail *1475:A 10.3385 
*END

*D_NET *10 0.000549271
*CONN
*P fw_ok I
*I *1476:A I *D sky130_fd_sc_hd__buf_1
*CAP
1 fw_ok 0.000149468
2 *1476:A 0.000149468
3 *1476:A global_state_locked 7.68632e-05
4 *1476:A *1472:A 0.000173473
*RES
1 fw_ok *1476:A 5.61177 
*END

*D_NET *11 0.000469158
*CONN
*P global_pin_ok I
*I *1477:A I *D sky130_fd_sc_hd__clkbuf_1
*CAP
1 global_pin_ok 0.000195841
2 *1477:A 0.000195841
3 *1477:A group_timeout_count[5] 3.45293e-05
4 *1474:A *1477:A 3.45293e-05
5 *3:15 *1477:A 8.41703e-06
*RES
1 global_pin_ok *1477:A 6.38543 
*END

*D_NET *12 0.00104558
*CONN
*P global_state_authorized O
*I *1483:X O *D sky130_fd_sc_hd__buf_2
*CAP
1 global_state_authorized 0.000512236
2 *1483:X 0.000512236
3 global_state_authorized unlock_enable 0
4 global_state_authorized *1470:A 0
5 global_state_authorized *1483:A 2.11084e-05
*RES
1 *1483:X global_state_authorized 12.06 
*END

*D_NET *13 0.000526126
*CONN
*P global_state_bits[0] O
*I *1484:X O *D sky130_fd_sc_hd__buf_2
*CAP
1 global_state_bits[0] 0.000198652
2 *1484:X 0.000198652
3 global_state_bits[0] global_state_bits[1] 9.50048e-05
4 global_state_bits[0] *1484:A 3.38178e-05
*RES
1 *1484:X global_state_bits[0] 5.41503 
*END

*D_NET *14 0.000590596
*CONN
*P global_state_bits[1] O
*I *1485:X O *D sky130_fd_sc_hd__buf_2
*CAP
1 global_state_bits[1] 0.000169948
2 *1485:X 0.000169948
3 global_state_bits[1] global_state_bits[4] 9.50048e-05
4 global_state_bits[1] *1484:A 6.06899e-05
5 global_state_bits[0] global_state_bits[1] 9.50048e-05
*RES
1 *1485:X global_state_bits[1] 5.92503 
*END

*D_NET *15 0.000459667
*CONN
*P global_state_bits[2] O
*I *1486:X O *D sky130_fd_sc_hd__buf_2
*CAP
1 global_state_bits[2] 0.00013037
2 *1486:X 0.00013037
3 global_state_bits[2] global_state_boot 9.50048e-05
4 global_state_bits[2] *1190:A2 2.10433e-05
5 global_state_bits[2] *1469:A 8.28789e-05
*RES
1 *1486:X global_state_bits[2] 4.90503 
*END

*D_NET *16 0.000725742
*CONN
*P global_state_bits[3] O
*I *1487:X O *D sky130_fd_sc_hd__buf_2
*CAP
1 global_state_bits[3] 0.000273511
2 *1487:X 0.000273511
3 global_state_bits[3] global_state_bits[4] 8.37139e-05
4 global_state_bits[3] security_breach 9.50048e-05
5 global_state_bits[3] *297:21 0
*RES
1 *1487:X global_state_bits[3] 6.94503 
*END

*D_NET *17 0.000697645
*CONN
*P global_state_bits[4] O
*I *1488:X O *D sky130_fd_sc_hd__buf_2
*CAP
1 global_state_bits[4] 0.000253612
2 *1488:X 0.000253612
3 global_state_bits[4] *297:21 1.17036e-05
4 global_state_bits[1] global_state_bits[4] 9.50048e-05
5 global_state_bits[3] global_state_bits[4] 8.37139e-05
*RES
1 *1488:X global_state_bits[4] 5.1381 
*END

*D_NET *18 0.000528577
*CONN
*P global_state_boot O
*I *1489:X O *D sky130_fd_sc_hd__buf_2
*CAP
1 global_state_boot 0.000153316
2 *1489:X 0.000153316
3 global_state_boot global_state_safe_mode 9.50048e-05
4 global_state_boot *314:44 3.19349e-05
5 global_state_bits[2] global_state_boot 9.50048e-05
*RES
1 *1489:X global_state_boot 5.41503 
*END

*D_NET *19 0.00066944
*CONN
*P global_state_escalated O
*I *1490:X O *D sky130_fd_sc_hd__buf_2
*CAP
1 global_state_escalated 0.000226322
2 *1490:X 0.000226322
3 global_state_escalated global_state_safe_mode 8.37139e-05
4 global_state_escalated safe_led 9.25475e-05
5 global_state_escalated *1490:A 0
6 global_state_escalated *364:10 4.05358e-05
*RES
1 *1490:X global_state_escalated 6.43503 
*END

*D_NET *20 0.000492623
*CONN
*P global_state_locked O
*I *1491:X O *D sky130_fd_sc_hd__buf_2
*CAP
1 global_state_locked 0.000155494
2 *1491:X 0.000155494
3 global_state_locked *1472:A 0
4 global_state_locked *339:10 1.94351e-05
5 *1466:A global_state_locked 8.53361e-05
6 *1476:A global_state_locked 7.68632e-05
*RES
1 *1491:X global_state_locked 5.16003 
*END

*D_NET *21 0.000636215
*CONN
*P global_state_safe_mode O
*I *1492:X O *D sky130_fd_sc_hd__buf_2
*CAP
1 global_state_safe_mode 0.000186536
2 *1492:X 0.000186536
3 global_state_safe_mode *1188:A 3.24046e-05
4 global_state_safe_mode *314:44 5.20196e-05
5 global_state_boot global_state_safe_mode 9.50048e-05
6 global_state_escalated global_state_safe_mode 8.37139e-05
*RES
1 *1492:X global_state_safe_mode 6.18003 
*END

*D_NET *22 0.000818544
*CONN
*P global_timeout_count[0] O
*I *1493:X O *D sky130_fd_sc_hd__buf_2
*CAP
1 global_timeout_count[0] 0.000395965
2 *1493:X 0.000395965
3 global_timeout_count[0] global_timeout_count[1] 0
4 global_timeout_count[0] group_timeout_count[15] 0
5 global_timeout_count[0] *1249:A2 2.66148e-05
*RES
1 *1493:X global_timeout_count[0] 10.395 
*END

*D_NET *23 0.000816818
*CONN
*P global_timeout_count[10] O
*I *1494:X O *D sky130_fd_sc_hd__buf_2
*CAP
1 global_timeout_count[10] 0.000404904
2 *1494:X 0.000404904
3 global_timeout_count[10] global_timeout_count[7] 0
4 global_timeout_count[10] global_timeout_count[8] 0
5 global_timeout_count[10] *1494:A 7.00889e-06
*RES
1 *1494:X global_timeout_count[10] 10.185 
*END

*D_NET *24 0.000601831
*CONN
*P global_timeout_count[11] O
*I *1495:X O *D sky130_fd_sc_hd__buf_2
*CAP
1 global_timeout_count[11] 0.000187809
2 *1495:X 0.000187809
3 global_timeout_count[11] *1472:A 9.25475e-05
4 global_timeout_count[11] *318:22 3.86607e-05
5 *1473:A global_timeout_count[11] 9.50048e-05
*RES
1 *1495:X global_timeout_count[11] 5.92503 
*END

*D_NET *25 0.000482261
*CONN
*P global_timeout_count[12] O
*I *1496:X O *D sky130_fd_sc_hd__buf_2
*CAP
1 global_timeout_count[12] 0.000152628
2 *1496:X 0.000152628
3 global_timeout_count[12] global_timeout_count[13] 9.25475e-05
4 *1473:A global_timeout_count[12] 8.44576e-05
*RES
1 *1496:X global_timeout_count[12] 4.90503 
*END

*D_NET *26 0.000886213
*CONN
*P global_timeout_count[13] O
*I *1497:X O *D sky130_fd_sc_hd__buf_2
*CAP
1 global_timeout_count[13] 0.000279427
2 *1497:X 0.000279427
3 global_timeout_count[13] global_timeout_count[15] 9.25475e-05
4 global_timeout_count[13] *1497:A 0.000103688
5 global_timeout_count[13] *320:34 3.85757e-05
6 global_timeout_count[12] global_timeout_count[13] 9.25475e-05
*RES
1 *1497:X global_timeout_count[13] 7.96503 
*END

*D_NET *27 0.00061513
*CONN
*P global_timeout_count[14] O
*I *1498:X O *D sky130_fd_sc_hd__buf_2
*CAP
1 global_timeout_count[14] 0.000241965
2 *1498:X 0.000241965
3 global_timeout_count[14] global_timeout_count[15] 9.25475e-05
4 global_timeout_count[14] *1399:D 0
5 global_timeout_count[14] *321:12 3.86529e-05
*RES
1 *1498:X global_timeout_count[14] 5.92503 
*END

*D_NET *28 0.00071822
*CONN
*P global_timeout_count[15] O
*I *1499:X O *D sky130_fd_sc_hd__buf_2
*CAP
1 global_timeout_count[15] 0.000261516
2 *1499:X 0.000261516
3 global_timeout_count[15] *1497:A 1.00941e-05
4 global_timeout_count[13] global_timeout_count[15] 9.25475e-05
5 global_timeout_count[14] global_timeout_count[15] 9.25475e-05
*RES
1 *1499:X global_timeout_count[15] 5.6481 
*END

*D_NET *29 0.000817102
*CONN
*P global_timeout_count[1] O
*I *1500:X O *D sky130_fd_sc_hd__buf_2
*CAP
1 global_timeout_count[1] 0.000408551
2 *1500:X 0.000408551
3 global_timeout_count[0] global_timeout_count[1] 0
*RES
1 *1500:X global_timeout_count[1] 10.185 
*END

*D_NET *30 0.000659347
*CONN
*P global_timeout_count[2] O
*I *1501:X O *D sky130_fd_sc_hd__buf_2
*CAP
1 global_timeout_count[2] 0.000329673
2 *1501:X 0.000329673
3 global_timeout_count[2] global_timeout_count[3] 0
4 global_timeout_count[2] global_timeout_count[4] 0
*RES
1 *1501:X global_timeout_count[2] 9.39 
*END

*D_NET *31 0.000825206
*CONN
*P global_timeout_count[3] O
*I *1502:X O *D sky130_fd_sc_hd__buf_2
*CAP
1 global_timeout_count[3] 0.00039075
2 *1502:X 0.00039075
3 global_timeout_count[3] *1252:A2 2.75229e-05
4 global_timeout_count[3] *371:87 1.61831e-05
5 global_timeout_count[2] global_timeout_count[3] 0
*RES
1 *1502:X global_timeout_count[3] 10.185 
*END

*D_NET *32 0.000864128
*CONN
*P global_timeout_count[4] O
*I *1503:X O *D sky130_fd_sc_hd__buf_2
*CAP
1 global_timeout_count[4] 0.000388766
2 *1503:X 0.000388766
3 global_timeout_count[4] *1252:B1 8.65961e-05
4 global_timeout_count[2] global_timeout_count[4] 0
*RES
1 *1503:X global_timeout_count[4] 10.185 
*END

*D_NET *33 0.000821981
*CONN
*P global_timeout_count[5] O
*I *1504:X O *D sky130_fd_sc_hd__buf_2
*CAP
1 global_timeout_count[5] 0.000393707
2 *1504:X 0.000393707
3 global_timeout_count[5] global_timeout_count[6] 0
4 global_timeout_count[5] *371:87 3.45679e-05
*RES
1 *1504:X global_timeout_count[5] 10.185 
*END

*D_NET *34 0.000864935
*CONN
*P global_timeout_count[6] O
*I *1505:X O *D sky130_fd_sc_hd__buf_2
*CAP
1 global_timeout_count[6] 0.000432467
2 *1505:X 0.000432467
3 global_timeout_count[5] global_timeout_count[6] 0
*RES
1 *1505:X global_timeout_count[6] 10.74 
*END

*D_NET *35 0.000813966
*CONN
*P global_timeout_count[7] O
*I *1506:X O *D sky130_fd_sc_hd__buf_2
*CAP
1 global_timeout_count[7] 0.000406983
2 *1506:X 0.000406983
3 global_timeout_count[10] global_timeout_count[7] 0
*RES
1 *1506:X global_timeout_count[7] 10.185 
*END

*D_NET *36 0.00083395
*CONN
*P global_timeout_count[8] O
*I *1507:X O *D sky130_fd_sc_hd__buf_2
*CAP
1 global_timeout_count[8] 0.000391699
2 *1507:X 0.000391699
3 global_timeout_count[8] global_timeout_count[9] 0
4 global_timeout_count[8] *1507:A 5.05521e-05
5 global_timeout_count[10] global_timeout_count[8] 0
*RES
1 *1507:X global_timeout_count[8] 10.185 
*END

*D_NET *37 0.000876668
*CONN
*P global_timeout_count[9] O
*I *1508:X O *D sky130_fd_sc_hd__buf_2
*CAP
1 global_timeout_count[9] 0.000438334
2 *1508:X 0.000438334
3 global_timeout_count[8] global_timeout_count[9] 0
*RES
1 *1508:X global_timeout_count[9] 10.53 
*END

*D_NET *38 0.000939103
*CONN
*P group_autolock I
*I *1478:A I *D sky130_fd_sc_hd__buf_1
*CAP
1 group_autolock 0.000380408
2 *1478:A 0.000380408
3 *1478:A group_timeout_count[10] 0
4 *1478:A group_timeout_count[12] 3.6993e-05
5 *1478:A *1518:A 9.81389e-05
6 *1478:A *348:12 6.16226e-06
7 *1474:A *1478:A 3.6993e-05
8 *3:15 *1478:A 0
*RES
1 group_autolock *1478:A 7.57157 
*END

*D_NET *39 0.00105017
*CONN
*P group_error O
*I *1509:X O *D sky130_fd_sc_hd__buf_2
*CAP
1 group_error 0.000505357
2 *1509:X 0.000505357
3 group_error *1470:A 0
4 group_error *1480:A 0
5 group_error *1540:A 3.94592e-05
*RES
1 *1509:X group_error 12.06 
*END

*D_NET *40 0.00160282
*CONN
*P group_locked O
*I *1510:X O *D sky130_fd_sc_hd__buf_2
*CAP
1 group_locked 0.000573685
2 *1510:X 0.000573685
3 group_locked group_timeout_count[0] 0.000213971
4 group_locked group_timeout_count[1] 0.000241483
*RES
1 *1510:X group_locked 11.4035 
*END

*D_NET *41 0.000986746
*CONN
*P group_state_bits[0] O
*I *1511:X O *D sky130_fd_sc_hd__buf_2
*CAP
1 group_state_bits[0] 0.000474727
2 *1511:X 0.000474727
3 group_state_bits[0] group_state_bits[2] 0
4 group_state_bits[0] group_state_bits[3] 0
5 group_state_bits[0] *1514:A 3.72916e-05
*RES
1 *1511:X group_state_bits[0] 11.715 
*END

*D_NET *42 0.000977835
*CONN
*P group_state_bits[1] O
*I *1512:X O *D sky130_fd_sc_hd__buf_2
*CAP
1 group_state_bits[1] 0.000488918
2 *1512:X 0.000488918
3 group_state_bits[1] group_state_disabled 0
*RES
1 *1512:X group_state_bits[1] 11.715 
*END

*D_NET *43 0.000982494
*CONN
*P group_state_bits[2] O
*I *1513:X O *D sky130_fd_sc_hd__buf_2
*CAP
1 group_state_bits[2] 0.000475889
2 *1513:X 0.000475889
3 group_state_bits[2] group_state_suspended 0
4 group_state_bits[2] *1511:A 3.07153e-05
5 group_state_bits[0] group_state_bits[2] 0
*RES
1 *1513:X group_state_bits[2] 11.715 
*END

*D_NET *44 0.000977835
*CONN
*P group_state_bits[3] O
*I *1514:X O *D sky130_fd_sc_hd__buf_2
*CAP
1 group_state_bits[3] 0.000488918
2 *1514:X 0.000488918
3 group_state_bits[3] group_state_disabled 0
4 group_state_bits[0] group_state_bits[3] 0
*RES
1 *1514:X group_state_bits[3] 11.715 
*END

*D_NET *45 0.00104768
*CONN
*P group_state_disabled O
*I *1515:X O *D sky130_fd_sc_hd__buf_2
*CAP
1 group_state_disabled 0.00052384
2 *1515:X 0.00052384
3 group_state_bits[1] group_state_disabled 0
4 group_state_bits[3] group_state_disabled 0
*RES
1 *1515:X group_state_disabled 12.06 
*END

*D_NET *46 0.000653252
*CONN
*P group_state_locked O
*I *1516:X O *D sky130_fd_sc_hd__buf_2
*CAP
1 group_state_locked 0.000299676
2 *1516:X 0.000299676
3 group_state_locked group_timeout_count[4] 2.24901e-05
4 group_state_locked *1471:A 3.14094e-05
*RES
1 *1516:X group_state_locked 7.1793 
*END

*D_NET *47 0.000990812
*CONN
*P group_state_suspended O
*I *1517:X O *D sky130_fd_sc_hd__buf_2
*CAP
1 group_state_suspended 0.000480348
2 *1517:X 0.000480348
3 group_state_suspended group_suspended 0
4 group_state_suspended *1511:A 1.17409e-05
5 group_state_suspended *1513:A 1.83756e-05
6 group_state_bits[2] group_state_suspended 0
*RES
1 *1517:X group_state_suspended 11.715 
*END

*D_NET *48 0.000772294
*CONN
*P group_state_unlocked O
*I *1518:X O *D sky130_fd_sc_hd__buf_2
*CAP
1 group_state_unlocked 0.000305081
2 *1518:X 0.000305081
3 group_state_unlocked group_timeout_count[10] 3.6993e-05
4 group_state_unlocked group_timeout_count[13] 3.6993e-05
5 *3:15 group_state_unlocked 8.81467e-05
*RES
1 *1518:X group_state_unlocked 8.26043 
*END

*D_NET *49 0.00104768
*CONN
*P group_suspended O
*I *1519:X O *D sky130_fd_sc_hd__buf_2
*CAP
1 group_suspended 0.00052384
2 *1519:X 0.00052384
3 group_suspended unlock_enable 0
4 group_state_suspended group_suspended 0
*RES
1 *1519:X group_suspended 12.06 
*END

*D_NET *50 0.00151737
*CONN
*P group_timeout_count[0] O
*I *1520:X O *D sky130_fd_sc_hd__buf_2
*CAP
1 group_timeout_count[0] 0.000384183
2 *1520:X 0.000384183
3 group_timeout_count[0] group_timeout_count[1] 0.000324914
4 group_timeout_count[0] group_timeout_count[6] 0
5 group_timeout_count[0] *1510:A 4.82863e-05
6 group_timeout_count[0] *1527:A 0.000161837
7 group_locked group_timeout_count[0] 0.000213971
*RES
1 *1520:X group_timeout_count[0] 11.3902 
*END

*D_NET *51 0.000679753
*CONN
*P group_timeout_count[10] O
*I *1521:X O *D sky130_fd_sc_hd__buf_2
*CAP
1 group_timeout_count[10] 0.000302883
2 *1521:X 0.000302883
3 group_timeout_count[10] group_timeout_count[12] 3.6993e-05
4 group_timeout_count[10] group_timeout_count[13] 0
5 group_timeout_count[10] *1518:A 0
6 group_state_unlocked group_timeout_count[10] 3.6993e-05
7 *1478:A group_timeout_count[10] 0
8 *3:15 group_timeout_count[10] 0
*RES
1 *1521:X group_timeout_count[10] 5.92503 
*END

*D_NET *52 0.000910693
*CONN
*P group_timeout_count[11] O
*I *1522:X O *D sky130_fd_sc_hd__buf_2
*CAP
1 group_timeout_count[11] 0.000395252
2 *1522:X 0.000395252
3 group_timeout_count[11] group_timeout_count[13] 5.12559e-05
4 group_timeout_count[11] group_timeout_count[14] 3.45293e-05
5 *3:15 group_timeout_count[11] 3.44025e-05
*RES
1 *1522:X group_timeout_count[11] 8.62043 
*END

*D_NET *53 0.000656317
*CONN
*P group_timeout_count[12] O
*I *1523:X O *D sky130_fd_sc_hd__buf_2
*CAP
1 group_timeout_count[12] 0.000258945
2 *1523:X 0.000258945
3 group_timeout_count[12] *348:12 3.00381e-05
4 group_timeout_count[10] group_timeout_count[12] 3.6993e-05
5 *1478:A group_timeout_count[12] 3.6993e-05
6 *3:15 group_timeout_count[12] 3.44025e-05
*RES
1 *1523:X group_timeout_count[12] 7.24043 
*END

*D_NET *54 0.000674334
*CONN
*P group_timeout_count[13] O
*I *1524:X O *D sky130_fd_sc_hd__buf_2
*CAP
1 group_timeout_count[13] 0.000262713
2 *1524:X 0.000262713
3 group_timeout_count[13] *1524:A 0
4 group_state_unlocked group_timeout_count[13] 3.6993e-05
5 group_timeout_count[10] group_timeout_count[13] 0
6 group_timeout_count[11] group_timeout_count[13] 5.12559e-05
7 *3:15 group_timeout_count[13] 6.06593e-05
*RES
1 *1524:X group_timeout_count[13] 6.38023 
*END

*D_NET *55 0.000722515
*CONN
*P group_timeout_count[14] O
*I *1525:X O *D sky130_fd_sc_hd__buf_2
*CAP
1 group_timeout_count[14] 0.000296091
2 *1525:X 0.000296091
3 debug_enable group_timeout_count[14] 3.45293e-05
4 group_timeout_count[11] group_timeout_count[14] 3.45293e-05
5 *3:15 group_timeout_count[14] 6.12746e-05
*RES
1 *1525:X group_timeout_count[14] 7.75043 
*END

*D_NET *56 0.000865696
*CONN
*P group_timeout_count[15] O
*I *1526:X O *D sky130_fd_sc_hd__buf_2
*CAP
1 group_timeout_count[15] 0.00038955
2 *1526:X 0.00038955
3 group_timeout_count[15] *1249:B1 8.65961e-05
4 global_timeout_count[0] group_timeout_count[15] 0
*RES
1 *1526:X group_timeout_count[15] 10.185 
*END

*D_NET *57 0.00113852
*CONN
*P group_timeout_count[1] O
*I *1527:X O *D sky130_fd_sc_hd__buf_2
*CAP
1 group_timeout_count[1] 0.000267563
2 *1527:X 0.000267563
3 group_timeout_count[1] group_timeout_count[6] 3.6993e-05
4 group_timeout_count[1] *1527:A 0
5 group_timeout_count[1] *1532:A 0
6 group_locked group_timeout_count[1] 0.000241483
7 group_timeout_count[0] group_timeout_count[1] 0.000324914
*RES
1 *1527:X group_timeout_count[1] 9.64043 
*END

*D_NET *58 0.000799592
*CONN
*P group_timeout_count[2] O
*I *1528:X O *D sky130_fd_sc_hd__buf_2
*CAP
1 group_timeout_count[2] 0.000320737
2 *1528:X 0.000320737
3 group_timeout_count[2] group_timeout_count[3] 3.6993e-05
4 group_timeout_count[2] group_timeout_count[6] 3.45293e-05
5 group_timeout_count[2] *1529:A 8.65961e-05
*RES
1 *1528:X group_timeout_count[2] 8.11043 
*END

*D_NET *59 0.000914899
*CONN
*P group_timeout_count[3] O
*I *1529:X O *D sky130_fd_sc_hd__buf_2
*CAP
1 group_timeout_count[3] 0.000268095
2 *1529:X 0.000268095
3 group_timeout_count[3] group_timeout_count[6] 0
4 group_timeout_count[3] group_timeout_count[8] 3.14094e-05
5 group_timeout_count[3] group_timeout_count[9] 0
6 group_timeout_count[3] *1532:A 2.94565e-05
7 group_timeout_count[3] *345:37 5.16418e-05
8 group_timeout_count[3] *345:53 8.76033e-05
9 group_timeout_count[3] *353:45 0.000141606
10 group_timeout_count[2] group_timeout_count[3] 3.6993e-05
*RES
1 *1529:X group_timeout_count[3] 6.94503 
*END

*D_NET *60 0.000720962
*CONN
*P group_timeout_count[4] O
*I *1530:X O *D sky130_fd_sc_hd__buf_2
*CAP
1 group_timeout_count[4] 0.000281811
2 *1530:X 0.000281811
3 group_timeout_count[4] group_unlocked 0
4 group_timeout_count[4] *1342:A_N 0.000106344
5 group_timeout_count[4] *1471:A 0
6 group_timeout_count[4] *1479:A 2.85068e-05
7 group_state_locked group_timeout_count[4] 2.24901e-05
*RES
1 *1530:X group_timeout_count[4] 5.92503 
*END

*D_NET *61 0.000551194
*CONN
*P group_timeout_count[5] O
*I *1531:X O *D sky130_fd_sc_hd__buf_2
*CAP
1 group_timeout_count[5] 0.000218428
2 *1531:X 0.000218428
3 group_timeout_count[5] group_unlocked 7.02279e-05
4 *1477:A group_timeout_count[5] 3.45293e-05
5 *3:15 group_timeout_count[5] 9.5799e-06
*RES
1 *1531:X group_timeout_count[5] 5.5835 
*END

*D_NET *62 0.00112535
*CONN
*P group_timeout_count[6] O
*I *1532:X O *D sky130_fd_sc_hd__buf_2
*CAP
1 group_timeout_count[6] 0.000261482
2 *1532:X 0.000261482
3 group_timeout_count[6] *1322:A 0.000173222
4 group_timeout_count[6] *1527:A 0.000120186
5 group_timeout_count[6] *1532:A 6.18754e-05
6 group_timeout_count[6] *353:56 0.000175583
7 group_timeout_count[0] group_timeout_count[6] 0
8 group_timeout_count[1] group_timeout_count[6] 3.6993e-05
9 group_timeout_count[2] group_timeout_count[6] 3.45293e-05
10 group_timeout_count[3] group_timeout_count[6] 0
*RES
1 *1532:X group_timeout_count[6] 7.96503 
*END

*D_NET *63 0.000680428
*CONN
*P group_timeout_count[7] O
*I *1533:X O *D sky130_fd_sc_hd__buf_2
*CAP
1 group_timeout_count[7] 0.000277476
2 *1533:X 0.000277476
3 group_timeout_count[7] group_timeout_count[9] 6.35352e-05
4 group_timeout_count[7] *1342:A_N 0
5 group_timeout_count[7] *1471:A 6.19406e-05
*RES
1 *1533:X group_timeout_count[7] 6.89023 
*END

*D_NET *64 0.000653252
*CONN
*P group_timeout_count[8] O
*I *1534:X O *D sky130_fd_sc_hd__buf_2
*CAP
1 group_timeout_count[8] 0.000299676
2 *1534:X 0.000299676
3 group_timeout_count[8] group_timeout_count[9] 2.24901e-05
4 group_timeout_count[3] group_timeout_count[8] 3.14094e-05
*RES
1 *1534:X group_timeout_count[8] 7.1793 
*END

*D_NET *65 0.000602629
*CONN
*P group_timeout_count[9] O
*I *1535:X O *D sky130_fd_sc_hd__buf_2
*CAP
1 group_timeout_count[9] 0.000229379
2 *1535:X 0.000229379
3 group_timeout_count[9] *1532:A 5.78448e-05
4 group_timeout_count[3] group_timeout_count[9] 0
5 group_timeout_count[7] group_timeout_count[9] 6.35352e-05
6 group_timeout_count[8] group_timeout_count[9] 2.24901e-05
*RES
1 *1535:X group_timeout_count[9] 5.92503 
*END

*D_NET *66 0.000486642
*CONN
*P group_unlocked O
*I *1536:X O *D sky130_fd_sc_hd__buf_2
*CAP
1 group_unlocked 0.000192169
2 *1536:X 0.000192169
3 group_unlocked *1479:A 2.24901e-05
4 group_unlocked *1536:A 9.58678e-06
5 group_timeout_count[4] group_unlocked 0
6 group_timeout_count[5] group_unlocked 7.02279e-05
*RES
1 *1536:X group_unlocked 4.90503 
*END

*D_NET *67 0.000706466
*CONN
*P hdr_parse_fail I
*I *1479:A I *D sky130_fd_sc_hd__buf_1
*CAP
1 hdr_parse_fail 0.000327735
2 *1479:A 0.000327735
3 *1479:A *1342:A_N 0
4 group_timeout_count[4] *1479:A 2.85068e-05
5 group_unlocked *1479:A 2.24901e-05
*RES
1 hdr_parse_fail *1479:A 8.3643 
*END

*D_NET *68 0.0011346
*CONN
*P illegal_in I
*I *1480:A I *D sky130_fd_sc_hd__clkbuf_1
*CAP
1 illegal_in 0.000504015
2 *1480:A 0.000504015
3 *1480:A sticky_illegal 0
4 *1480:A *1509:A 0
5 *1480:A *1540:A 0.00012657
6 group_error *1480:A 0
*RES
1 illegal_in *1480:A 12.825 
*END

*D_NET *69 0.000515699
*CONN
*P power_glitch I
*I *1467:A I *D sky130_fd_sc_hd__clkbuf_1
*CAP
1 power_glitch 0.000160222
2 *1467:A 0.000160222
3 *1467:A *1225:A 3.67085e-05
4 *1467:A *1226:A 0
5 *1467:A *1469:A 0
6 *1466:A *1467:A 8.28789e-05
7 *1475:A *1467:A 7.56675e-05
*RES
1 power_glitch *1467:A 5.61177 
*END

*D_NET *70 0.00100381
*CONN
*P reset I
*I *1468:A I *D sky130_fd_sc_hd__buf_1
*CAP
1 reset 0.000476923
2 *1468:A 0.000476923
3 *1468:A *1451:A 4.99619e-05
*RES
1 reset *1468:A 12.135 
*END

*D_NET *71 0.000598423
*CONN
*P safe_led O
*I *1537:X O *D sky130_fd_sc_hd__buf_2
*CAP
1 safe_led 0.00017536
2 *1537:X 0.00017536
3 safe_led security_breach 9.50048e-05
4 safe_led *364:10 6.01508e-05
5 global_state_escalated safe_led 9.25475e-05
*RES
1 *1537:X safe_led 5.92503 
*END

*D_NET *72 0.000520135
*CONN
*P security_breach O
*I *1538:X O *D sky130_fd_sc_hd__buf_2
*CAP
1 security_breach 0.000153211
2 *1538:X 0.000153211
3 security_breach *1538:A 2.37037e-05
4 global_state_bits[3] security_breach 9.50048e-05
5 safe_led security_breach 9.50048e-05
*RES
1 *1538:X security_breach 5.41503 
*END

*D_NET *73 0.000934007
*CONN
*P size_mismatch I
*I *1469:A I *D sky130_fd_sc_hd__clkbuf_1
*CAP
1 size_mismatch 0.000326202
2 *1469:A 0.000326202
3 *1469:A *1226:B 0
4 *1469:A *1454:A 6.36578e-05
5 *1469:A *308:21 2.38193e-05
6 global_state_bits[2] *1469:A 8.28789e-05
7 *1467:A *1469:A 0
8 *1475:A *1469:A 0.000111246
*RES
1 size_mismatch *1469:A 8.41677 
*END

*D_NET *74 0.00105015
*CONN
*P sticky_illegal O
*I *1539:X O *D sky130_fd_sc_hd__buf_2
*CAP
1 sticky_illegal 0.000502555
2 *1539:X 0.000502555
3 sticky_illegal sticky_tamper 0
4 sticky_illegal *1539:A 1.83847e-05
5 sticky_illegal *1540:A 2.66586e-05
6 *1480:A sticky_illegal 0
*RES
1 *1539:X sticky_illegal 12.06 
*END

*D_NET *75 0.00104317
*CONN
*P sticky_tamper O
*I *1540:X O *D sky130_fd_sc_hd__buf_2
*CAP
1 sticky_tamper 0.000512894
2 *1540:X 0.000512894
3 sticky_tamper *1540:A 1.7386e-05
4 fsm_error sticky_tamper 0
5 sticky_illegal sticky_tamper 0
*RES
1 *1540:X sticky_tamper 12.06 
*END

*D_NET *76 0.0011346
*CONN
*P tamper_in I
*I *1470:A I *D sky130_fd_sc_hd__clkbuf_1
*CAP
1 tamper_in 0.000504015
2 *1470:A 0.000504015
3 *1470:A *1433:A 0
4 *1470:A *367:12 0.00012657
5 global_state_authorized *1470:A 0
6 group_error *1470:A 0
*RES
1 tamper_in *1470:A 12.825 
*END

*D_NET *77 0.00104768
*CONN
*P unlock_enable O
*I *1541:X O *D sky130_fd_sc_hd__buf_2
*CAP
1 unlock_enable 0.00052384
2 *1541:X 0.00052384
3 global_state_authorized unlock_enable 0
4 group_suspended unlock_enable 0
*RES
1 *1541:X unlock_enable 12.06 
*END

*D_NET *78 0.00114148
*CONN
*P unlock_req I
*I *1471:A I *D sky130_fd_sc_hd__buf_1
*CAP
1 unlock_req 0.000483137
2 *1471:A 0.000483137
3 *1471:A *1345:B 3.26513e-05
4 *1471:A *1434:A 4.92063e-05
5 group_state_locked *1471:A 3.14094e-05
6 group_timeout_count[4] *1471:A 0
7 group_timeout_count[7] *1471:A 6.19406e-05
*RES
1 unlock_req *1471:A 6.19443 
*END

*D_NET *79 0.0010355
*CONN
*P warm_reset_req I
*I *1472:A I *D sky130_fd_sc_hd__buf_1
*CAP
1 warm_reset_req 0.000353752
2 *1472:A 0.000353752
3 *1472:A *318:10 3.19349e-05
4 *1472:A *339:10 3.00381e-05
5 global_state_locked *1472:A 0
6 global_timeout_count[11] *1472:A 9.25475e-05
7 *1476:A *1472:A 0.000173473
*RES
1 warm_reset_req *1472:A 9.01503 
*END

*D_NET *80 0.000749064
*CONN
*I *1381:D I *D sky130_fd_sc_hd__dfxtp_1
*I *1192:X O *D sky130_fd_sc_hd__o31a_1
*CAP
1 *1381:D 0.0001758
2 *1192:X 0.0001758
3 *1381:D *294:125 0.00013818
4 *1381:D *294:129 4.81438e-05
5 *1381:D *366:8 2.97674e-05
6 *1381:D *366:10 0.000116621
7 *1381:D *366:14 6.47516e-05
*RES
1 *1192:X *1381:D 12.0487 
*END

*D_NET *81 0.00107035
*CONN
*I *1382:D I *D sky130_fd_sc_hd__dfxtp_2
*I *1215:Y O *D sky130_fd_sc_hd__a21oi_1
*CAP
1 *1382:D 0.000350062
2 *1215:Y 0.000350062
3 *1382:D *1215:B1 0.000122155
4 *1382:D *293:118 0.000136972
5 *1382:D *293:126 0.0001111
*RES
1 *1215:Y *1382:D 8.855 
*END

*D_NET *82 0.00121549
*CONN
*I *1383:D I *D sky130_fd_sc_hd__dfxtp_1
*I *1219:Y O *D sky130_fd_sc_hd__nor2_1
*CAP
1 *1383:D 0.00040676
2 *1219:Y 0.00040676
3 *1383:D *1219:B 2.11921e-05
4 *1383:D *1383:CLK 4.62994e-05
5 *1383:D *307:23 0.000163204
6 *1383:D *307:34 3.83041e-05
7 *1383:D *314:12 0.000132968
*RES
1 *1219:Y *1383:D 10.49 
*END

*D_NET *83 0.00193335
*CONN
*I *1384:D I *D sky130_fd_sc_hd__dfxtp_1
*I *1229:X O *D sky130_fd_sc_hd__and2b_1
*CAP
1 *1384:D 0.000550554
2 *1229:X 0.000550554
3 *1384:D *1286:A2 0
4 *1384:D *1384:CLK 0.000281858
5 *1384:D *1442:A 2.75145e-05
6 *1384:D *1443:A 0.000522864
7 *1384:D *225:14 0
*RES
1 *1229:X *1384:D 18.6787 
*END

*D_NET *84 0.00034853
*CONN
*I *1385:D I *D sky130_fd_sc_hd__dfxtp_1
*I *1247:Y O *D sky130_fd_sc_hd__a21oi_1
*CAP
1 *1385:D 0.000126758
2 *1247:Y 0.000126758
3 *1385:D *1386:CLK 4.19884e-05
4 *1385:D *1526:A 0
5 *1385:D *291:89 1.43717e-05
6 *1385:D *373:92 3.86529e-05
*RES
1 *1247:Y *1385:D 9.48375 
*END

*D_NET *85 0.000515449
*CONN
*I *1386:D I *D sky130_fd_sc_hd__dfxtp_1
*I *1249:Y O *D sky130_fd_sc_hd__a21oi_1
*CAP
1 *1386:D 9.67811e-05
2 *1249:Y 9.67811e-05
3 *1386:D *1526:A 0.000140905
4 *1386:D *315:14 0.000128647
5 *1386:D *323:30 5.23341e-05
6 *1386:D *373:92 0
*RES
1 *1249:Y *1386:D 10.0087 
*END

*D_NET *86 0.00117545
*CONN
*I *1387:D I *D sky130_fd_sc_hd__dfxtp_1
*I *1252:Y O *D sky130_fd_sc_hd__a21oi_1
*CAP
1 *1387:D 0.000403709
2 *1252:Y 0.000403709
3 *1387:D *1502:A 5.72004e-05
4 *1387:D *371:76 8.8266e-05
5 *1387:D *371:87 0.00022257
*RES
1 *1252:Y *1387:D 13.2188 
*END

*D_NET *87 0.000416196
*CONN
*I *1388:D I *D sky130_fd_sc_hd__dfxtp_1
*I *1255:Y O *D sky130_fd_sc_hd__a21oi_1
*CAP
1 *1388:D 0.000172655
2 *1255:Y 0.000172655
3 *1388:D *1255:B1 1.08758e-05
4 *1388:D *1388:CLK 6.00111e-05
*RES
1 *1255:Y *1388:D 5.74625 
*END

*D_NET *88 0.000486461
*CONN
*I *1389:D I *D sky130_fd_sc_hd__dfxtp_1
*I *1257:Y O *D sky130_fd_sc_hd__a21oi_1
*CAP
1 *1389:D 0.000162624
2 *1257:Y 0.000162624
3 *1389:D *1256:A 4.82319e-06
4 *1389:D *1256:B 0
5 *1389:D *1257:A2 0
6 *1389:D *1503:A 7.06865e-05
7 *1389:D *196:22 8.57024e-05
*RES
1 *1257:Y *1389:D 9.76875 
*END

*D_NET *89 0.000316469
*CONN
*I *1390:D I *D sky130_fd_sc_hd__dfxtp_1
*I *1260:Y O *D sky130_fd_sc_hd__a21oi_1
*CAP
1 *1390:D 0.000112731
2 *1260:Y 0.000112731
3 *1390:D *371:24 2.82072e-05
4 *1390:D *371:32 6.27993e-05
*RES
1 *1260:Y *1390:D 9.48375 
*END

*D_NET *90 0.000240154
*CONN
*I *1391:D I *D sky130_fd_sc_hd__dfxtp_1
*I *1262:X O *D sky130_fd_sc_hd__o21ba_1
*CAP
1 *1391:D 9.40288e-05
2 *1262:X 9.40288e-05
3 *1391:D *1262:B1_N 5.20968e-05
*RES
1 *1262:X *1391:D 8.80875 
*END

*D_NET *91 0.000483664
*CONN
*I *1392:D I *D sky130_fd_sc_hd__dfxtp_1
*I *1266:Y O *D sky130_fd_sc_hd__a21oi_1
*CAP
1 *1392:D 8.01189e-05
2 *1266:Y 8.01189e-05
3 *1392:D *1261:A3 0.000139933
4 *1392:D *1266:B1 0.000141599
5 *1392:D *293:79 1.43717e-05
6 *1392:D *371:87 2.75229e-05
*RES
1 *1266:Y *1392:D 9.42375 
*END

*D_NET *92 0.000823256
*CONN
*I *1393:D I *D sky130_fd_sc_hd__dfxtp_1
*I *1268:Y O *D sky130_fd_sc_hd__a21oi_1
*CAP
1 *1393:D 0.000245269
2 *1268:Y 0.000245269
3 *1393:D *1268:B1 0.000114026
4 *1393:D *1285:A 0.000141599
5 *1393:D *293:73 7.70938e-05
*RES
1 *1268:Y *1393:D 11.4937 
*END

*D_NET *93 0.000227822
*CONN
*I *1394:D I *D sky130_fd_sc_hd__dfxtp_1
*I *1271:X O *D sky130_fd_sc_hd__and3_1
*CAP
1 *1394:D 0.000106725
2 *1271:X 0.000106725
3 *1394:D *1270:C 0
4 *1394:D *293:73 0
5 *1394:D *293:79 1.43717e-05
*RES
1 *1271:X *1394:D 8.71875 
*END

*D_NET *94 0.00106135
*CONN
*I *1395:D I *D sky130_fd_sc_hd__dfxtp_1
*I *1274:Y O *D sky130_fd_sc_hd__a21oi_1
*CAP
1 *1395:D 0.000232239
2 *1274:Y 0.000232239
3 *1395:D *1285:A 0
4 *1395:D *161:14 0.000365929
5 *1395:D *198:22 4.82319e-06
6 *1395:D *293:56 1.43717e-05
7 *1395:D *293:67 0
8 *1395:D *373:27 0.000211748
*RES
1 *1274:Y *1395:D 13.0538 
*END

*D_NET *95 0.000591181
*CONN
*I *1396:D I *D sky130_fd_sc_hd__dfxtp_1
*I *1276:Y O *D sky130_fd_sc_hd__a21oi_1
*CAP
1 *1396:D 0.000246025
2 *1276:Y 0.000246025
3 *1396:D *371:14 9.91316e-05
*RES
1 *1276:Y *1396:D 7.37375 
*END

*D_NET *96 0.000621722
*CONN
*I *1397:D I *D sky130_fd_sc_hd__dfxtp_1
*I *1279:Y O *D sky130_fd_sc_hd__a21oi_1
*CAP
1 *1397:D 0.000152523
2 *1279:Y 0.000152523
3 *1397:D *1279:B1 5.83121e-06
4 *1397:D *1449:A 2.20732e-05
5 *1397:D *293:134 4.75576e-05
6 *1397:D *293:138 3.25831e-05
7 *1397:D *306:14 0.000137571
8 *1397:D *318:22 2.68594e-05
9 *1397:D *319:10 4.41999e-05
*RES
1 *1279:Y *1397:D 10.35 
*END

*D_NET *97 0.0005712
*CONN
*I *1398:D I *D sky130_fd_sc_hd__dfxtp_1
*I *1281:X O *D sky130_fd_sc_hd__o211a_1
*CAP
1 *1398:D 0.000172274
2 *1281:X 0.000172274
3 *1398:D *1281:A1 1.61831e-05
4 *1398:D *1281:B1 0.000164924
5 *1398:D *320:10 4.55458e-05
*RES
1 *1281:X *1398:D 10.35 
*END

*D_NET *98 0.000378255
*CONN
*I *1399:D I *D sky130_fd_sc_hd__dfxtp_1
*I *1283:X O *D sky130_fd_sc_hd__o211a_1
*CAP
1 *1399:D 0.000189128
2 *1283:X 0.000189128
3 *1399:D *1283:B1 0
4 *1399:D *321:12 0
5 global_timeout_count[14] *1399:D 0
*RES
1 *1283:X *1399:D 9.84375 
*END

*D_NET *99 0.000612047
*CONN
*I *1400:D I *D sky130_fd_sc_hd__dfxtp_1
*I *1285:Y O *D sky130_fd_sc_hd__nor2_1
*CAP
1 *1400:D 0.000191341
2 *1285:Y 0.000191341
3 *1400:D *1282:B 1.08758e-05
4 *1400:D *1284:B1 5.11504e-05
5 *1400:D *1285:B 2.16833e-05
6 *1400:D *293:73 5.02217e-05
7 *1400:D *321:34 9.5433e-05
8 *1400:D *321:58 0
*RES
1 *1285:Y *1400:D 10.2037 
*END

*D_NET *100 0.000468108
*CONN
*I *1401:D I *D sky130_fd_sc_hd__dfxtp_1
*I *1290:X O *D sky130_fd_sc_hd__o211a_1
*CAP
1 *1401:D 0.000157235
2 *1290:X 0.000157235
3 *1401:D *1203:A 0.000124895
4 *1401:D *1290:A1 0
5 *1401:D *1401:CLK 1.43717e-05
6 *1401:D *171:18 1.43717e-05
7 *1401:D *392:10 0
*RES
1 *1290:X *1401:D 9.85875 
*END

*D_NET *101 0.000789567
*CONN
*I *1402:D I *D sky130_fd_sc_hd__dfxtp_1
*I *1291:X O *D sky130_fd_sc_hd__o221a_1
*CAP
1 *1402:D 0.000362017
2 *1291:X 0.000362017
3 *1402:D *1291:A1 6.55328e-05
4 *1402:D *1465:A 0
5 *1402:D *392:10 0
*RES
1 *1291:X *1402:D 13.0837 
*END

*D_NET *102 0.000302358
*CONN
*I *1403:D I *D sky130_fd_sc_hd__dfxtp_1
*I *1210:X O *D sky130_fd_sc_hd__or2_1
*CAP
1 *1403:D 8.03792e-05
2 *1210:X 8.03792e-05
3 *1403:D *1458:A 0
4 *1403:D *375:8 0.000141599
*RES
1 *1210:X *1403:D 8.97375 
*END

*D_NET *103 0.000485187
*CONN
*I *1404:D I *D sky130_fd_sc_hd__dfxtp_1
*I *1292:Y O *D sky130_fd_sc_hd__nor2_1
*CAP
1 *1404:D 6.76076e-05
2 *1292:Y 6.76076e-05
3 *1404:D *1234:A2 0.000126073
4 *1404:D *1238:B 3.77562e-05
5 *1404:D *133:45 9.30717e-05
6 *1404:D *305:14 9.30717e-05
*RES
1 *1292:Y *1404:D 9.49875 
*END

*D_NET *104 0.0006349
*CONN
*I *1405:D I *D sky130_fd_sc_hd__dfxtp_1
*I *1293:Y O *D sky130_fd_sc_hd__nor2_1
*CAP
1 *1405:D 0.000229741
2 *1293:Y 0.000229741
3 *1405:D *297:21 9.30717e-05
4 *1405:D *395:12 8.23457e-05
*RES
1 *1293:Y *1405:D 10.8787 
*END

*D_NET *105 0.000338812
*CONN
*I *1406:D I *D sky130_fd_sc_hd__dfxtp_1
*I *1294:X O *D sky130_fd_sc_hd__and2_1
*CAP
1 *1406:D 7.80623e-05
2 *1294:X 7.80623e-05
3 *1406:D *1406:CLK 3.89528e-05
4 *1406:D *135:21 9.37731e-05
5 *1406:D *302:74 4.99619e-05
*RES
1 *1294:X *1406:D 8.91375 
*END

*D_NET *106 0.000367398
*CONN
*I *1407:D I *D sky130_fd_sc_hd__dfxtp_1
*I *1237:Y O *D sky130_fd_sc_hd__nor2_1
*CAP
1 *1407:D 0.000139542
2 *1237:Y 0.000139542
3 *1407:D *1161:A 0
4 *1407:D *1237:A 2.66935e-05
5 *1407:D *1488:A 0
6 *1407:D *375:14 4.99619e-05
7 *1407:D *375:20 1.16578e-05
*RES
1 *1237:Y *1407:D 9.42375 
*END

*D_NET *107 0.00031757
*CONN
*I *1408:D I *D sky130_fd_sc_hd__dfxtp_1
*I *1297:X O *D sky130_fd_sc_hd__o21a_1
*CAP
1 *1408:D 0.000128884
2 *1297:X 0.000128884
3 *1408:D *1297:A1 0
4 *1408:D *1408:CLK 5.83121e-06
5 *1408:D *135:40 0
6 *1408:D *302:104 5.39718e-05
*RES
1 *1297:X *1408:D 9.34875 
*END

*D_NET *108 0.000889182
*CONN
*I *1409:D I *D sky130_fd_sc_hd__dfxtp_1
*I *1321:X O *D sky130_fd_sc_hd__and2b_1
*CAP
1 *1409:D 0.000293632
2 *1321:X 0.000293632
3 *1409:D *1321:B 0.000161985
4 *1409:D *1520:A 0
5 *1409:D *369:12 0.000139933
*RES
1 *1321:X *1409:D 11.8387 
*END

*D_NET *109 0.000304533
*CONN
*I *1410:D I *D sky130_fd_sc_hd__dfxtp_1
*I *1324:X O *D sky130_fd_sc_hd__and3_1
*CAP
1 *1410:D 9.30655e-05
2 *1324:X 9.30655e-05
3 *1410:D *1324:A 0.000118402
*RES
1 *1324:X *1410:D 4.92875 
*END

*D_NET *110 0.000230479
*CONN
*I *1411:D I *D sky130_fd_sc_hd__dfxtp_1
*I *1327:X O *D sky130_fd_sc_hd__and3_1
*CAP
1 *1411:D 4.05302e-05
2 *1327:X 4.05302e-05
3 *1411:D *1510:A 9.54469e-05
4 *1411:D *292:54 5.39718e-05
*RES
1 *1327:X *1411:D 8.46375 
*END

*D_NET *111 0.00026294
*CONN
*I *1412:D I *D sky130_fd_sc_hd__dfxtp_1
*I *1330:X O *D sky130_fd_sc_hd__and3b_1
*CAP
1 *1412:D 0.000117121
2 *1330:X 0.000117121
3 *1412:D *292:46 2.86975e-05
*RES
1 *1330:X *1412:D 4.92875 
*END

*D_NET *112 0.000677113
*CONN
*I *1413:D I *D sky130_fd_sc_hd__dfxtp_1
*I *1333:X O *D sky130_fd_sc_hd__and3_1
*CAP
1 *1413:D 0.000299072
2 *1333:X 0.000299072
3 *1413:D *1333:C 7.89689e-05
4 *1413:D *1441:A 0
*RES
1 *1333:X *1413:D 12.0787 
*END

*D_NET *113 0.000412177
*CONN
*I *1414:D I *D sky130_fd_sc_hd__dfxtp_1
*I *1336:X O *D sky130_fd_sc_hd__and3b_1
*CAP
1 *1414:D 0.000125058
2 *1336:X 0.000125058
3 *1439:A *1414:D 2.78804e-05
4 *3:15 *1414:D 0.00013418
*RES
1 *1336:X *1414:D 5.18375 
*END

*D_NET *114 0.0003729
*CONN
*I *1415:D I *D sky130_fd_sc_hd__dfxtp_1
*I *1339:X O *D sky130_fd_sc_hd__and3_1
*CAP
1 *1415:D 6.54587e-05
2 *1339:X 6.54587e-05
3 *1415:D *1339:A 0.000163518
4 *1415:D *1415:CLK 7.84644e-05
*RES
1 *1339:X *1415:D 5.225 
*END

*D_NET *115 0.000234578
*CONN
*I *1416:D I *D sky130_fd_sc_hd__dfxtp_1
*I *1342:X O *D sky130_fd_sc_hd__and3b_1
*CAP
1 *1416:D 4.46624e-05
2 *1342:X 4.46624e-05
3 *1416:D *1342:B 5.13155e-05
4 *1416:D *262:73 7.21296e-06
5 *1416:D *372:16 8.67249e-05
*RES
1 *1342:X *1416:D 8.46375 
*END

*D_NET *116 0.000323995
*CONN
*I *1417:D I *D sky130_fd_sc_hd__dfxtp_1
*I *1345:X O *D sky130_fd_sc_hd__and3_1
*CAP
1 *1417:D 8.83849e-05
2 *1345:X 8.83849e-05
3 *1417:D *1345:A 4.99619e-05
4 *1417:D *1345:B 3.18219e-05
5 *1417:D *1434:A 4.75576e-05
6 *1417:D *266:10 1.43717e-05
7 *1417:D *360:8 3.51254e-06
*RES
1 *1345:X *1417:D 8.91375 
*END

*D_NET *117 0.00033186
*CONN
*I *1418:D I *D sky130_fd_sc_hd__dfxtp_1
*I *1348:X O *D sky130_fd_sc_hd__and3_1
*CAP
1 *1418:D 0.000116044
2 *1348:X 0.000116044
3 *1418:D *1414:CLK 3.17178e-05
4 *1418:D *1418:CLK 3.18334e-05
5 *1418:D *231:14 3.62197e-05
6 *1418:D *239:12 0
*RES
1 *1348:X *1418:D 9.34875 
*END

*D_NET *118 0.000344221
*CONN
*I *1419:D I *D sky130_fd_sc_hd__dfxtp_1
*I *1352:X O *D sky130_fd_sc_hd__and3b_1
*CAP
1 *1419:D 9.81862e-05
2 *1352:X 9.81862e-05
3 *1419:D *361:12 0.000147848
*RES
1 *1352:X *1419:D 4.92875 
*END

*D_NET *119 0.000790516
*CONN
*I *1420:D I *D sky130_fd_sc_hd__dfxtp_1
*I *1355:X O *D sky130_fd_sc_hd__and3_1
*CAP
1 *1420:D 0.000334436
2 *1355:X 0.000334436
3 *1420:D *1353:A 0.000121643
*RES
1 *1355:X *1420:D 8.18375 
*END

*D_NET *120 0.000427726
*CONN
*I *1421:D I *D sky130_fd_sc_hd__dfxtp_1
*I *1358:X O *D sky130_fd_sc_hd__and3b_1
*CAP
1 *1421:D 0.000168245
2 *1358:X 0.000168245
3 *1421:D *1421:CLK 2.97004e-06
4 *1421:D *1518:A 0
5 *1421:D *1521:A 0
6 *1421:D *278:10 8.8266e-05
*RES
1 *1358:X *1421:D 9.76875 
*END

*D_NET *121 0.000308077
*CONN
*I *1422:D I *D sky130_fd_sc_hd__dfxtp_1
*I *1361:X O *D sky130_fd_sc_hd__and3b_1
*CAP
1 *1422:D 8.20044e-05
2 *1361:X 8.20044e-05
3 *1422:D *1361:B 2.65814e-06
4 *1422:D *1422:CLK 3.19808e-05
5 *1422:D *349:29 0.00010943
*RES
1 *1361:X *1422:D 4.92875 
*END

*D_NET *122 0.00113808
*CONN
*I *1423:D I *D sky130_fd_sc_hd__dfxtp_1
*I *1364:X O *D sky130_fd_sc_hd__and3b_1
*CAP
1 *1423:D 0.000480891
2 *1364:X 0.000480891
3 *1423:D *1362:A 0
4 *1423:D *1423:CLK 0.000113414
5 *1423:D *1522:A 6.28843e-05
6 *1423:D *1525:A 0
*RES
1 *1364:X *1423:D 14.9137 
*END

*D_NET *123 0.00040504
*CONN
*I *1424:D I *D sky130_fd_sc_hd__dfxtp_1
*I *1366:X O *D sky130_fd_sc_hd__and2_1
*CAP
1 *1424:D 0.000130049
2 *1366:X 0.000130049
3 *1424:D *1366:B 5.39718e-05
4 *1424:D *1422:CLK 5.40924e-05
5 *1424:D *233:10 3.68769e-05
*RES
1 *1366:X *1424:D 9.84375 
*END

*D_NET *124 0.000654034
*CONN
*I *1425:D I *D sky130_fd_sc_hd__dfxtp_1
*I *1367:X O *D sky130_fd_sc_hd__o21a_1
*CAP
1 *1425:D 0.000127316
2 *1367:X 0.000127316
3 *1425:D *1433:A 0.000141599
4 *1425:D *1541:A 5.51158e-05
5 *1425:D *294:142 0.000202686
*RES
1 *1367:X *1425:D 10.6987 
*END

*D_NET *125 0.000493523
*CONN
*I *1426:D I *D sky130_fd_sc_hd__dfxtp_1
*I *1368:X O *D sky130_fd_sc_hd__o21a_1
*CAP
1 *1426:D 0.000116406
2 *1368:X 0.000116406
3 *1426:D *1367:A2 5.72004e-05
4 *1426:D *135:72 4.92062e-05
5 *1426:D *294:138 1.43717e-05
6 *1426:D *367:20 0.000139933
*RES
1 *1368:X *1426:D 9.76875 
*END

*D_NET *126 0.000477404
*CONN
*I *1427:D I *D sky130_fd_sc_hd__dfxtp_1
*I *1369:X O *D sky130_fd_sc_hd__a31o_1
*CAP
1 *1427:D 0.000140048
2 *1369:X 0.000140048
3 *1427:D *1369:A3 2.75145e-05
4 *1427:D *1371:A2 6.47594e-05
5 *1427:D *1413:CLK 2.7881e-05
6 *1427:D *138:16 0
7 *1427:D *292:156 7.7152e-05
*RES
1 *1369:X *1427:D 9.75 
*END

*D_NET *127 0.000486531
*CONN
*I *1428:D I *D sky130_fd_sc_hd__dfxtp_1
*I *1370:Y O *D sky130_fd_sc_hd__nor2_1
*CAP
1 *1428:D 0.000172462
2 *1370:Y 0.000172462
3 *1428:D *1370:B 0.000141606
4 *1428:D *292:111 0
*RES
1 *1370:Y *1428:D 10.3538 
*END

*D_NET *128 0.000527896
*CONN
*I *1429:D I *D sky130_fd_sc_hd__dfxtp_1
*I *1372:Y O *D sky130_fd_sc_hd__nor3_1
*CAP
1 *1429:D 0.000255162
2 *1372:Y 0.000255162
3 *1429:D *1372:B 1.17409e-05
4 *1429:D *1372:C 5.83121e-06
*RES
1 *1372:Y *1429:D 6.41375 
*END

*D_NET *129 0.00046907
*CONN
*I *1430:D I *D sky130_fd_sc_hd__dfxtp_1
*I *1373:X O *D sky130_fd_sc_hd__and2_1
*CAP
1 *1430:D 0.000155066
2 *1373:X 0.000155066
3 *1430:D *1185:A 7.7152e-05
4 *1430:D *1370:A 0
5 *1430:D *1373:B 3.64998e-06
6 *1430:D *1514:A 3.84331e-05
7 *1430:D *338:8 1.04285e-06
8 *1430:D *338:10 3.86607e-05
*RES
1 *1373:X *1430:D 10.005 
*END

*D_NET *130 0.000472706
*CONN
*I *1461:A I *D sky130_fd_sc_hd__dlygate4sd3_1
*I *1378:Y O *D sky130_fd_sc_hd__o31ai_1
*CAP
1 *1461:A 0.000227165
2 *1378:Y 0.000227165
3 *1461:A *1378:B1 1.83756e-05
*RES
1 *1378:Y *1461:A 6.425 
*END

*D_NET *131 0.000852594
*CONN
*I *1432:D I *D sky130_fd_sc_hd__dfxtp_2
*I *1380:Y O *D sky130_fd_sc_hd__a21oi_1
*CAP
1 *1432:D 0.000272714
2 *1380:Y 0.000272714
3 *1432:D *1192:A3 6.23375e-05
4 *1432:D *1194:B 9.6227e-05
5 *1432:D *1379:C 0
6 *1432:D *1379:D 4.18603e-06
7 *1432:D *1380:B1 9.52234e-05
8 *1432:D *294:29 4.91914e-05
9 *1432:D *302:16 0
10 *1432:D *375:26 0
*RES
1 *1380:Y *1432:D 13.0688 
*END

*D_NET *132 0.000467358
*CONN
*I *1237:A I *D sky130_fd_sc_hd__nor2_1
*I *1161:Y O *D sky130_fd_sc_hd__inv_2
*CAP
1 *1237:A 0.000127376
2 *1161:Y 0.000127376
3 *1237:A *1161:A 0.000139238
4 *1237:A *1407:CLK 4.66742e-05
5 *1237:A *1488:A 0
6 *1407:D *1237:A 2.66935e-05
*RES
1 *1161:Y *1237:A 9.63 
*END

*D_NET *133 0.00752176
*CONN
*I *1293:A I *D sky130_fd_sc_hd__nor2_1
*I *1231:A1 I *D sky130_fd_sc_hd__a21o_1
*I *1236:B2 I *D sky130_fd_sc_hd__o221a_1
*I *1187:B I *D sky130_fd_sc_hd__and3_1
*I *1178:B I *D sky130_fd_sc_hd__or3b_2
*I *1217:A I *D sky130_fd_sc_hd__or3_1
*I *1162:Y O *D sky130_fd_sc_hd__inv_2
*CAP
1 *1293:A 0.000124041
2 *1231:A1 0
3 *1236:B2 0.000241966
4 *1187:B 3.58965e-05
5 *1178:B 3.38751e-05
6 *1217:A 0
7 *1162:Y 0.000800364
8 *133:62 0.000748378
9 *133:45 0.00106865
10 *133:34 0.00028496
11 *133:23 0.000417561
12 *133:10 0.00113734
13 *1178:B *152:8 4.82863e-05
14 *1187:B *305:14 2.75145e-05
15 *1236:B2 *1234:A2 0.000120655
16 *1236:B2 *1236:A1 1.37328e-05
17 *1236:B2 *1236:A2 6.27438e-05
18 *1236:B2 *1238:B 9.28681e-05
19 *1293:A *1236:B1 2.70346e-05
20 *133:10 *1207:B2 0.000113828
21 *133:10 *1217:B 7.12477e-05
22 *133:10 *1221:A3 3.00381e-05
23 *133:10 *1228:A2 4.66742e-05
24 *133:10 *301:27 1.74678e-05
25 *133:10 *301:33 9.27255e-06
26 *133:10 *306:52 2.67275e-05
27 *133:23 *1163:A 0
28 *133:23 *1207:B2 0.000228508
29 *133:23 *1218:A1 0
30 *133:23 *1218:B2 0
31 *133:23 *1379:A 0.000108722
32 *133:23 *147:16 0
33 *133:23 *310:30 2.15738e-05
34 *133:23 *310:36 9.19845e-05
35 *133:34 *310:30 2.46007e-05
36 *133:45 *1163:A 0
37 *133:45 *305:14 0.000229534
38 *133:45 *310:30 1.61461e-05
39 *133:45 *310:73 9.95272e-05
40 *133:45 *310:84 9.23473e-05
41 *133:45 *312:12 0.000182349
42 *133:62 *1236:B1 0.00031918
43 *133:62 *1459:A 8.49205e-05
44 *133:62 *1488:A 1.07797e-05
45 *133:62 *305:14 0.000136413
46 *133:62 *310:84 0.00012819
47 *1404:D *133:45 9.30717e-05
48 *1475:A *133:10 5.27885e-05
*RES
1 *1162:Y *133:10 13.365 
2 *133:10 *1217:A 3.6 
3 *133:10 *133:23 7.545 
4 *133:23 *1178:B 4.05 
5 *133:23 *133:34 0.87 
6 *133:34 *1187:B 4.05 
7 *133:34 *133:45 6.48 
8 *133:45 *1236:B2 8.205 
9 *133:45 *133:62 13.64 
10 *133:62 *1231:A1 1.6 
11 *133:62 *1293:A 3.445 
*END

*D_NET *134 0.00465174
*CONN
*I *1181:B I *D sky130_fd_sc_hd__or3_2
*I *1236:A1 I *D sky130_fd_sc_hd__o221a_1
*I *1235:A1_N I *D sky130_fd_sc_hd__o2bb2a_1
*I *1292:A I *D sky130_fd_sc_hd__nor2_1
*I *1163:Y O *D sky130_fd_sc_hd__inv_2
*CAP
1 *1181:B 0.000349388
2 *1236:A1 0.00014131
3 *1235:A1_N 0
4 *1292:A 9.59314e-05
5 *1163:Y 0.000306587
6 *134:14 0.000192058
7 *134:10 0.000295736
8 *134:6 0.000714274
9 *1181:B *1188:A 0
10 *1181:B *193:18 0
11 *1181:B *305:57 9.71067e-05
12 *1181:B *312:12 0.000235568
13 *1181:B *314:44 0
14 *1236:A1 *1238:B 2.20732e-05
15 *1236:A1 *1238:C_N 4.82919e-05
16 *1236:A1 *1485:A 0.000107634
17 *1236:A1 *193:18 0.000116165
18 *1292:A *1235:B2 8.65961e-05
19 *1292:A *297:31 0.000280595
20 *1292:A *309:38 0.000117308
21 *134:6 *312:12 0.000461935
22 *134:10 *1485:A 0.000252977
23 *134:10 *193:18 0.000252977
24 *134:14 *297:31 0.000363326
25 *134:14 *309:38 0.000100171
26 *1236:B2 *1236:A1 1.37328e-05
*RES
1 *1163:Y *134:6 5.845 
2 *134:6 *134:10 4.91 
3 *134:10 *134:14 5.33375 
4 *134:14 *1292:A 5.51125 
5 *134:14 *1235:A1_N 1.6 
6 *134:10 *1236:A1 6.84 
7 *134:6 *1181:B 10.685 
*END

*D_NET *135 0.0149476
*CONN
*I *1227:A1 I *D sky130_fd_sc_hd__a31o_1
*I *1211:A1 I *D sky130_fd_sc_hd__a31o_1
*I *1202:A1 I *D sky130_fd_sc_hd__a41o_1
*I *1368:B1 I *D sky130_fd_sc_hd__o21a_1
*I *1367:B1 I *D sky130_fd_sc_hd__o21a_1
*I *1373:A I *D sky130_fd_sc_hd__and2_1
*I *1192:B1 I *D sky130_fd_sc_hd__o31a_1
*I *1378:B1 I *D sky130_fd_sc_hd__o31ai_1
*I *1297:B1 I *D sky130_fd_sc_hd__o21a_1
*I *1294:B I *D sky130_fd_sc_hd__and2_1
*I *1164:Y O *D sky130_fd_sc_hd__inv_2
*CAP
1 *1227:A1 0.000322815
2 *1211:A1 2.17924e-05
3 *1202:A1 0.000167596
4 *1368:B1 5.41885e-05
5 *1367:B1 2.08101e-05
6 *1373:A 0.000572985
7 *1192:B1 0.000177325
8 *1378:B1 0.000238888
9 *1297:B1 0.000247118
10 *1294:B 0
11 *1164:Y 0.000284305
12 *135:103 0.000369072
13 *135:101 0.00115941
14 *135:72 0.000870883
15 *135:70 0.000379547
16 *135:57 0.00032474
17 *135:40 0.0006075
18 *135:21 0.00102314
19 *135:10 0.000589687
20 *135:6 0.00102435
21 *1192:B1 *1460:A 8.57024e-05
22 *1192:B1 *366:28 0.000316421
23 *1192:B1 *367:20 1.16578e-05
24 *1202:A1 *1202:A4 0.000200615
25 *1202:A1 *1211:A3 0
26 *1202:A1 *1213:A 1.52184e-05
27 *1202:A1 *1214:B 3.18137e-05
28 *1202:A1 *1401:CLK 0
29 *1202:A1 *1446:A 0
30 *1202:A1 *162:10 0.000352156
31 *1202:A1 *302:30 6.90876e-05
32 *1202:A1 *313:10 2.92496e-05
33 *1211:A1 *1211:A2 4.82863e-05
34 *1211:A1 *1222:C_N 4.82863e-05
35 *1211:A1 *163:14 3.57349e-05
36 *1211:A1 *313:21 4.66108e-05
37 *1227:A1 *1228:A1 0.000111474
38 *1227:A1 *1228:A2 9.80032e-06
39 *1227:A1 *1228:B1 4.82919e-05
40 *1227:A1 *1377:B1 5.83373e-05
41 *1227:A1 *1442:A 2.49e-05
42 *1227:A1 *154:23 3.66286e-05
43 *1227:A1 *162:21 0.00011379
44 *1297:B1 *1296:A 1.16578e-05
45 *1297:B1 *1296:C 0.000129465
46 *1373:A *1433:A 0.000314745
47 *1373:A *1519:A 7.35813e-05
48 *1373:A *1541:A 5.30673e-05
49 *1373:A *302:104 4.66108e-05
50 *1373:A *342:6 0.000122331
51 *1378:B1 *1378:A1 1.552e-05
52 *1378:B1 *1378:A2 0.000126828
53 *1378:B1 *366:28 1.61831e-05
54 *1378:B1 *367:32 0.000114492
55 *135:6 *1369:A1 0.000256469
56 *135:10 *1406:CLK 0
57 *135:10 *294:35 0
58 *135:10 *309:10 7.63204e-05
59 *135:21 *1297:A1 0
60 *135:21 *1378:A2 0
61 *135:21 *1406:CLK 0
62 *135:21 *153:10 0
63 *135:21 *309:10 5.53249e-06
64 *135:21 *309:23 0.000215155
65 *135:40 *1297:A1 0.000239813
66 *135:40 *333:8 0.000161829
67 *135:57 *1378:A2 7.76068e-05
68 *135:57 *1509:A 1.86911e-05
69 *135:57 *367:20 3.09233e-05
70 *135:57 *367:32 0.000185411
71 *135:70 *1509:A 0.000186099
72 *135:70 *367:20 0.000100308
73 *135:72 *1367:A2 0.000168213
74 *135:101 *1194:C_N 5.33085e-05
75 *135:101 *1222:A 0.00010004
76 *135:101 *1369:A1 0.000131791
77 *135:101 *1377:C1 0
78 *135:101 *1378:A3 0.000139076
79 *135:101 *1442:A 2.93262e-05
80 *135:101 *153:23 0.000240628
81 *135:101 *154:10 0
82 *135:101 *302:8 3.86529e-05
83 *135:101 *302:74 6.10014e-05
84 *135:101 *313:10 0.000355543
85 *135:103 *1213:A 8.25609e-05
86 *135:103 *1213:B 0.00013521
87 *135:103 *1442:A 6.42468e-05
88 *135:103 *313:10 0.000457774
89 *1406:D *135:21 9.37731e-05
90 *1408:D *135:40 0
91 *1426:D *135:72 4.92062e-05
92 *1461:A *1378:B1 1.83756e-05
*RES
1 *1164:Y *135:6 5.5 
2 *135:6 *135:10 3.635 
3 *135:10 *1294:B 3.6 
4 *135:10 *135:21 9.225 
5 *135:21 *1297:B1 7.08 
6 *135:21 *135:40 9.37 
7 *135:40 *1378:B1 8.19 
8 *135:40 *135:57 3.105 
9 *135:57 *1192:B1 7.5 
10 *135:57 *135:70 4.145 
11 *135:70 *135:72 5.28 
12 *135:72 *1373:A 12.055 
13 *135:72 *1367:B1 1.96 
14 *135:70 *1368:B1 2.41 
15 *135:6 *135:101 15.5675 
16 *135:101 *135:103 5.5875 
17 *135:103 *1202:A1 8.7 
18 *135:103 *1211:A1 4.395 
19 *135:101 *1227:A1 12.1825 
*END

*D_NET *136 0.0026678
*CONN
*I *1234:A2 I *D sky130_fd_sc_hd__a221o_1
*I *1235:B1 I *D sky130_fd_sc_hd__o2bb2a_1
*I *1165:Y O *D sky130_fd_sc_hd__inv_2
*CAP
1 *1234:A2 0.000478034
2 *1235:B1 6.38896e-05
3 *1165:Y 0.000315611
4 *136:10 0.000857535
5 *1234:A2 *1234:C1 0
6 *1234:A2 *1238:B 1.53458e-05
7 *1234:A2 *1404:CLK 9.66106e-05
8 *1235:B1 *1235:A2_N 0
9 *1235:B1 *310:84 0.000116158
10 *136:10 *1235:A2_N 0
11 *136:10 *1236:B1 0
12 *136:10 *1488:A 0.000116165
13 *136:10 *305:101 0.00011964
14 *136:10 *310:84 0.000242085
15 *1236:B2 *1234:A2 0.000120655
16 *1404:D *1234:A2 0.000126073
*RES
1 *1165:Y *136:10 9.615 
2 *136:10 *1235:B1 4.98 
3 *136:10 *1234:A2 9.92625 
*END

*D_NET *137 0.00307151
*CONN
*I *1204:A2 I *D sky130_fd_sc_hd__a21o_1
*I *1376:A I *D sky130_fd_sc_hd__or3_1
*I *1166:Y O *D sky130_fd_sc_hd__inv_2
*CAP
1 *1204:A2 0
2 *1376:A 0.000682349
3 *1166:Y 1.22193e-05
4 *137:6 0.000694568
5 *1376:A *1206:A2 0.000272489
6 *1376:A *1206:B1 4.82863e-05
7 *1376:A *1207:C1 0.000653456
8 *1376:A *1214:C 4.66108e-05
9 *1376:A *1377:B1 2.11084e-05
10 *1376:A *193:18 0
11 *1376:A *307:10 9.50342e-06
12 *1376:A *307:23 0.000136877
13 *1376:A *372:34 0.000319178
14 *137:6 *306:29 8.65961e-05
15 *137:6 *339:14 8.8266e-05
*RES
1 *1166:Y *137:6 2.395 
2 *137:6 *1376:A 20.915 
3 *137:6 *1204:A2 1.6 
*END

*D_NET *138 0.00523083
*CONN
*I *1295:A I *D sky130_fd_sc_hd__and4_1
*I *1314:A1 I *D sky130_fd_sc_hd__a31o_1
*I *1371:A1 I *D sky130_fd_sc_hd__o221a_1
*I *1291:A1 I *D sky130_fd_sc_hd__o221a_1
*I *1168:A I *D sky130_fd_sc_hd__inv_2
*I *1167:X O *D sky130_fd_sc_hd__or4b_2
*CAP
1 *1295:A 0
2 *1314:A1 9.35877e-05
3 *1371:A1 4.66336e-05
4 *1291:A1 0.000186121
5 *1168:A 0
6 *1167:X 0.000229269
7 *138:49 0.000198886
8 *138:16 0.000699438
9 *138:12 0.00083814
10 *138:10 0.000612758
11 *1291:A1 *290:8 0.000247561
12 *1291:A1 *392:10 8.97564e-05
13 *1314:A1 *1295:C 0.0001249
14 *1314:A1 *1314:A3 5.53249e-06
15 *1314:A1 *1320:B 0
16 *1314:A1 *230:22 0
17 *1314:A1 *230:24 0
18 *1371:A1 *1369:A2 5.05437e-05
19 *1371:A1 *302:78 0.000163199
20 *138:10 *1169:D_N 8.49205e-05
21 *138:10 *1171:B 1.94805e-05
22 *138:10 *1171:C 5.33085e-05
23 *138:10 *247:10 0
24 *138:10 *336:36 0.000123225
25 *138:10 *338:16 0
26 *138:10 *375:54 6.65973e-05
27 *138:12 *1320:B 0
28 *138:12 *1371:B1 0
29 *138:12 *1372:B 7.71016e-05
30 *138:12 *1372:C 6.55328e-05
31 *138:12 *230:22 2.59981e-05
32 *138:12 *230:24 0.000101317
33 *138:12 *375:41 5.13029e-05
34 *138:12 *375:54 0.000174702
35 *138:16 *1291:B2 0
36 *138:16 *1369:A2 7.89689e-05
37 *138:16 *1371:A2 0
38 *138:16 *1371:B1 0
39 *138:16 *1413:CLK 0.000194464
40 *138:16 *1429:CLK 0
41 *138:16 *1465:A 0
42 *138:16 *250:10 0
43 *138:16 *375:41 8.26696e-05
44 *138:49 *1295:C 1.46744e-05
45 *138:49 *230:22 8.49205e-05
46 *1402:D *1291:A1 6.55328e-05
47 *1427:D *138:16 0
48 *1439:A *1291:A1 0.000279787
*RES
1 *1167:X *138:10 7.575 
2 *138:10 *138:12 6.735 
3 *138:12 *138:16 12.56 
4 *138:16 *1168:A 1.6 
5 *138:16 *1291:A1 11.39 
6 *138:12 *1371:A1 5.085 
7 *138:10 *138:49 3.5 
8 *138:49 *1314:A1 7.355 
9 *138:49 *1295:A 1.6 
*END

*D_NET *139 0.00551681
*CONN
*I *1295:B I *D sky130_fd_sc_hd__and4_1
*I *1310:A I *D sky130_fd_sc_hd__or3_1
*I *1312:D1 I *D sky130_fd_sc_hd__a2111o_1
*I *1170:A I *D sky130_fd_sc_hd__inv_2
*I *1169:X O *D sky130_fd_sc_hd__or4b_2
*CAP
1 *1295:B 0
2 *1310:A 2.08101e-05
3 *1312:D1 7.91636e-05
4 *1170:A 0.000292368
5 *1169:X 0.000306307
6 *139:26 0.000438773
7 *139:24 0.000754224
8 *139:12 0.00097248
9 *1170:A *1310:B 4.66108e-05
10 *1170:A *1316:A 3.45679e-05
11 *1170:A *1316:C 0.000160635
12 *1170:A *1542:A 4.82919e-05
13 *1170:A *240:6 9.10452e-05
14 *1170:A *362:23 0.000160665
15 *1170:A *362:34 9.10452e-05
16 *1170:A *369:25 8.97564e-05
17 *1312:D1 *1310:C 3.50033e-05
18 *1312:D1 *1312:B1 8.8266e-05
19 *1312:D1 *1313:A3 0.000163012
20 *1312:D1 *238:16 0.000206123
21 *1312:D1 *238:27 2.92496e-05
22 *1312:D1 *300:10 8.49205e-05
23 *139:12 *1295:C 2.75145e-05
24 *139:12 *1295:D 0.000162311
25 *139:12 *1318:B 3.09233e-05
26 *139:12 *229:10 0.000158297
27 *139:12 *230:22 3.72504e-05
28 *139:12 *335:10 0.000158297
29 *139:12 *335:32 6.61973e-05
30 *139:12 *335:43 4.38051e-05
31 *139:12 *337:18 8.79989e-05
32 *139:24 *1295:C 3.72504e-05
33 *139:24 *1308:B1 3.68769e-05
34 *139:24 *1313:A1 0.000141606
35 *139:24 *1314:B1 7.35729e-05
36 *139:24 *1316:B 0
37 *139:24 *1320:B 0
38 *139:24 *140:18 1.60083e-05
39 *139:24 *140:38 0.000161561
40 *139:24 *374:8 0
41 *139:26 *1310:B 8.40269e-05
*RES
1 *1169:X *139:12 12.665 
2 *139:12 *139:24 13.945 
3 *139:24 *139:26 1.14 
4 *139:26 *1170:A 12.53 
5 *139:26 *1312:D1 9.05 
6 *139:24 *1310:A 1.96 
7 *139:12 *1295:B 1.6 
*END

*D_NET *140 0.00335615
*CONN
*I *1295:C I *D sky130_fd_sc_hd__and4_1
*I *1314:A2 I *D sky130_fd_sc_hd__a31o_1
*I *1172:A I *D sky130_fd_sc_hd__inv_2
*I *1316:B I *D sky130_fd_sc_hd__nor4_1
*I *1171:X O *D sky130_fd_sc_hd__or4b_2
*CAP
1 *1295:C 8.0138e-05
2 *1314:A2 0
3 *1172:A 0
4 *1316:B 0.000324768
5 *1171:X 0.000525948
6 *140:38 0.000234014
7 *140:18 0.000469568
8 *140:14 0.000824625
9 *1295:C *1314:B1 0.000124895
10 *1295:C *230:22 8.49205e-05
11 *1295:C *247:10 7.00889e-06
12 *1316:B *1308:B1 0
13 *1316:B *1316:D 2.66935e-05
14 *1316:B *1542:A 0
15 *1316:B *246:10 0
16 *1316:B *362:23 5.63405e-05
17 *1316:B *369:25 0
18 *140:14 *1171:D_N 2.61299e-05
19 *140:14 *1308:B1 2.24336e-05
20 *140:14 *1320:B 0
21 *140:14 *1515:A 7.75325e-05
22 *140:18 *340:8 1.56428e-05
23 *140:38 *247:10 7.35813e-05
24 *1314:A1 *1295:C 0.0001249
25 *138:49 *1295:C 1.46744e-05
26 *139:12 *1295:C 2.75145e-05
27 *139:24 *1295:C 3.72504e-05
28 *139:24 *1316:B 0
29 *139:24 *140:18 1.60083e-05
30 *139:24 *140:38 0.000161561
*RES
1 *1171:X *140:14 12.7775 
2 *140:14 *140:18 2.3625 
3 *140:18 *1316:B 10.85 
4 *140:18 *1172:A 1.6 
5 *140:14 *140:38 3.7275 
6 *140:38 *1314:A2 1.6 
7 *140:38 *1295:C 4.48 
*END

*D_NET *141 0.000373497
*CONN
*I *1189:A I *D sky130_fd_sc_hd__nand2_1
*I *1173:Y O *D sky130_fd_sc_hd__nor2_1
*CAP
1 *1189:A 0.000119162
2 *1173:Y 0.000119162
3 *1189:A *1181:C 3.25831e-05
4 *1189:A *1189:B 3.25831e-05
5 *1189:A *1489:A 0
6 *1189:A *305:57 7.00066e-05
7 *1189:A *314:44 0
*RES
1 *1173:Y *1189:A 9.4875 
*END

*D_NET *142 0.00196531
*CONN
*I *1191:B2 I *D sky130_fd_sc_hd__a32o_1
*I *1180:B I *D sky130_fd_sc_hd__or2_1
*I *1175:C I *D sky130_fd_sc_hd__or4b_2
*I *1174:X O *D sky130_fd_sc_hd__or2_1
*CAP
1 *1191:B2 6.60121e-05
2 *1180:B 6.14295e-05
3 *1175:C 0.000146215
4 *1174:X 1.8783e-05
5 *142:17 0.000215456
6 *142:6 0.000253012
7 *1175:C *1175:D_N 0.00012657
8 *1175:C *314:16 6.26945e-05
9 *1175:C *314:44 3.83194e-05
10 *1180:B *1183:A 0.000120655
11 *1180:B *1190:B1 4.21973e-05
12 *1180:B *148:8 0.000270415
13 *1180:B *310:36 3.09088e-05
14 *1191:B2 *1183:C_N 0
15 *1191:B2 *1489:A 3.18219e-05
16 *1191:B2 *193:18 0.000125984
17 *142:6 *314:44 2.75229e-05
18 *142:17 *1174:A 8.5225e-05
19 *142:17 *1489:A 2.16389e-05
20 *142:17 *193:18 0.000220452
*RES
1 *1174:X *142:6 2.05 
2 *142:6 *1175:C 4.465 
3 *142:6 *142:17 4.655 
4 *142:17 *1180:B 6.12 
5 *142:17 *1191:B2 5.235 
*END

*D_NET *143 0.00246874
*CONN
*I *1375:B1 I *D sky130_fd_sc_hd__o31a_1
*I *1176:A I *D sky130_fd_sc_hd__inv_2
*I *1221:A3 I *D sky130_fd_sc_hd__o32a_1
*I *1175:X O *D sky130_fd_sc_hd__or4b_2
*CAP
1 *1375:B1 0.000490667
2 *1176:A 0
3 *1221:A3 0.000161501
4 *1175:X 7.66453e-05
5 *143:12 0.000198066
6 *143:10 0.000603878
7 *1221:A3 *1217:C 5.31555e-05
8 *1221:A3 *1219:A 9.3062e-06
9 *1221:A3 *148:10 0
10 *1221:A3 *301:27 2.75145e-05
11 *1221:A3 *301:33 2.70223e-05
12 *1375:B1 *1218:A2 1.33293e-05
13 *1375:B1 *1383:CLK 0.000651786
14 *143:10 *1163:A 7.06865e-05
15 *143:10 *1207:B2 0
16 *143:10 *1374:A1 4.66108e-05
17 *143:12 *1163:A 8.53113e-06
18 *143:12 *1207:B2 0
19 *143:12 *148:10 0
20 *133:10 *1221:A3 3.00381e-05
*RES
1 *1175:X *143:10 4.92 
2 *143:10 *143:12 0.615 
3 *143:12 *1221:A3 6.3 
4 *143:12 *1176:A 3.6 
5 *143:10 *1375:B1 10.53 
*END

*D_NET *144 0.00151154
*CONN
*I *1187:C I *D sky130_fd_sc_hd__and3_1
*I *1178:C_N I *D sky130_fd_sc_hd__or3b_2
*I *1177:Y O *D sky130_fd_sc_hd__nor3_1
*CAP
1 *1187:C 0
2 *1178:C_N 0.000279858
3 *1177:Y 0.000159165
4 *144:6 0.000439023
5 *1178:C_N *1380:B1 0.00022921
6 *1178:C_N *310:21 0.000161529
7 *1178:C_N *310:30 0
8 *1178:C_N *310:36 0
9 *1178:C_N *310:73 9.48519e-05
10 *144:6 *1177:C 7.00889e-06
11 *144:6 *305:21 4.36241e-05
12 *144:6 *310:73 9.72733e-05
*RES
1 *1177:Y *144:6 3.6775 
2 *144:6 *1178:C_N 10.5275 
3 *144:6 *1187:C 1.6 
*END

*D_NET *145 0.0043987
*CONN
*I *1179:A I *D sky130_fd_sc_hd__inv_2
*I *1222:A I *D sky130_fd_sc_hd__or3b_1
*I *1286:A1 I *D sky130_fd_sc_hd__a21oi_1
*I *1375:A1 I *D sky130_fd_sc_hd__o31a_1
*I *1178:X O *D sky130_fd_sc_hd__or3b_2
*CAP
1 *1179:A 0
2 *1222:A 0.000241186
3 *1286:A1 4.80796e-05
4 *1375:A1 0.000172204
5 *1178:X 0.000309393
6 *145:36 0.000261996
7 *145:27 0.0003885
8 *145:10 0.000801207
9 *1222:A *1222:B 7.4027e-05
10 *1222:A *1222:C_N 4.18603e-06
11 *1222:A *1228:A1 9.50342e-06
12 *1222:A *1286:A2 0.000208491
13 *1222:A *225:14 0
14 *1222:A *313:10 0.000131654
15 *1286:A1 *1286:B1 4.66742e-05
16 *1375:A1 *1374:A1 0.000143266
17 *1375:A1 *1377:A1 8.53113e-06
18 *1375:A1 *1383:CLK 0
19 *1375:A1 *302:16 0.000116158
20 *1375:A1 *302:22 0.000264683
21 *145:10 *1380:B1 7.03608e-05
22 *145:10 *147:16 0.0001249
23 *145:10 *294:8 8.65905e-05
24 *145:10 *302:16 6.21553e-05
25 *145:27 *1286:B1 0.000179322
26 *145:27 *1379:A 5.61451e-05
27 *145:27 *1379:C 1.4174e-05
28 *145:27 *1379:D 2.45351e-05
29 *145:27 *1380:A1 0.000342784
30 *145:27 *1380:A2 2.30292e-05
31 *145:27 *1380:B1 8.49205e-05
32 *145:36 *1286:B1 0
33 *135:101 *1222:A 0.00010004
*RES
1 *1178:X *145:10 8.025 
2 *145:10 *1375:A1 8.295 
3 *145:10 *145:27 8.78 
4 *145:27 *1286:A1 2.395 
5 *145:27 *145:36 0.36 
6 *145:36 *1222:A 12.08 
7 *145:36 *1179:A 1.6 
*END

*D_NET *146 0.00162507
*CONN
*I *1189:B I *D sky130_fd_sc_hd__nand2_1
*I *1181:C I *D sky130_fd_sc_hd__or3_2
*I *1183:B I *D sky130_fd_sc_hd__or3b_2
*I *1180:X O *D sky130_fd_sc_hd__or2_1
*CAP
1 *1189:B 0.00011246
2 *1181:C 1.29565e-05
3 *1183:B 0
4 *1180:X 0.000114131
5 *146:17 0.000364207
6 *146:6 0.000352922
7 *1181:C *1183:C_N 5.58311e-05
8 *1181:C *305:57 9.50342e-06
9 *1189:B *1191:A3 3.64998e-06
10 *1189:B *1489:A 2.75229e-05
11 *1189:B *314:44 2.39642e-05
12 *146:6 *310:36 0.000158072
13 *146:17 *1183:C_N 0.000105792
14 *146:17 *1190:A1 0.000148084
15 *146:17 *1489:A 2.25161e-05
16 *146:17 *310:36 4.82863e-05
17 *146:17 *314:44 0
18 *1189:A *1181:C 3.25831e-05
19 *1189:A *1189:B 3.25831e-05
*RES
1 *1180:X *146:6 3.085 
2 *146:6 *1183:B 1.6 
3 *146:6 *146:17 5.8475 
4 *146:17 *1181:C 4.3425 
5 *146:17 *1189:B 5.5875 
*END

*D_NET *147 0.0049301
*CONN
*I *1191:A1 I *D sky130_fd_sc_hd__a32o_1
*I *1182:A I *D sky130_fd_sc_hd__inv_2
*I *1286:A2 I *D sky130_fd_sc_hd__a21oi_1
*I *1218:B2 I *D sky130_fd_sc_hd__o32a_1
*I *1181:X O *D sky130_fd_sc_hd__or3_2
*CAP
1 *1191:A1 2.08101e-05
2 *1182:A 0
3 *1286:A2 0.000131739
4 *1218:B2 0.000104261
5 *1181:X 0.000134372
6 *147:29 0.000563143
7 *147:16 0.0012711
8 *147:6 0.000890618
9 *1218:B2 *1218:A1 4.18603e-06
10 *1218:B2 *1218:B1 5.53249e-06
11 *1218:B2 *1374:A1 0
12 *1218:B2 *1383:CLK 4.92096e-05
13 *1286:A2 *225:14 5.92849e-05
14 *147:6 *1191:A3 2.1551e-05
15 *147:6 *1191:B1 0.000140589
16 *147:16 *1191:A2 0.000237249
17 *147:16 *1191:A3 1.34503e-05
18 *147:16 *1380:B1 5.83121e-06
19 *147:16 *1383:CLK 0.000131845
20 *147:16 *152:8 0.000264464
21 *147:16 *294:23 2.97004e-06
22 *147:16 *310:36 0
23 *147:29 *1374:A1 0.000235573
24 *147:29 *1379:C 0.000308926
25 *1222:A *1286:A2 0.000208491
26 *1384:D *1286:A2 0
27 *133:23 *1218:B2 0
28 *133:23 *147:16 0
29 *145:10 *147:16 0.0001249
*RES
1 *1181:X *147:6 3.43 
2 *147:6 *147:16 15.125 
3 *147:16 *1218:B2 5.49 
4 *147:16 *147:29 10.385 
5 *147:29 *1286:A2 8.795 
6 *147:29 *1182:A 1.6 
7 *147:6 *1191:A1 1.96 
*END

*D_NET *148 0.00426982
*CONN
*I *1191:A2 I *D sky130_fd_sc_hd__a32o_1
*I *1221:B1 I *D sky130_fd_sc_hd__o32a_1
*I *1184:A I *D sky130_fd_sc_hd__inv_2
*I *1226:C I *D sky130_fd_sc_hd__or4_1
*I *1183:X O *D sky130_fd_sc_hd__or3b_2
*CAP
1 *1191:A2 0.000116306
2 *1221:B1 0
3 *1184:A 0
4 *1226:C 9.32288e-05
5 *1183:X 0.000352752
6 *148:16 0.000239812
7 *148:10 0.000499414
8 *148:8 0.000821888
9 *1191:A2 *1191:A3 2.75229e-05
10 *1191:A2 *152:8 5.0751e-05
11 *1191:A2 *305:27 8.35683e-05
12 *1226:C *1227:B1 0.000198051
13 *1226:C *311:8 1.61831e-05
14 *148:8 *1183:A 2.16917e-05
15 *148:8 *1190:B1 2.96334e-05
16 *148:8 *310:36 3.70009e-05
17 *148:10 *1163:A 3.69421e-05
18 *148:10 *1175:D_N 0
19 *148:10 *301:33 0
20 *148:10 *305:27 0.000251595
21 *148:10 *307:23 0.000102411
22 *148:10 *307:34 0
23 *148:10 *309:42 0
24 *148:16 *1221:B2 1.26626e-05
25 *148:16 *1227:B1 0.000268628
26 *148:16 *301:27 0.000139238
27 *148:16 *307:23 8.97564e-05
28 *148:16 *311:8 0.000273122
29 *1180:B *148:8 0.000270415
30 *1221:A3 *148:10 0
31 *143:12 *148:10 0
32 *147:16 *1191:A2 0.000237249
*RES
1 *1183:X *148:8 8.19 
2 *148:8 *148:10 6.99 
3 *148:10 *148:16 8.135 
4 *148:16 *1226:C 3.79 
5 *148:16 *1184:A 1.6 
6 *148:10 *1221:B1 3.6 
7 *148:8 *1191:A2 6.9 
*END

*D_NET *149 0.00210129
*CONN
*I *1186:A I *D sky130_fd_sc_hd__inv_2
*I *1295:D I *D sky130_fd_sc_hd__and4_1
*I *1185:X O *D sky130_fd_sc_hd__or4b_1
*CAP
1 *1186:A 0
2 *1295:D 0.000364748
3 *1185:X 0.00012234
4 *149:10 0.000487088
5 *1295:D *230:22 9.2741e-05
6 *1295:D *336:27 0
7 *1295:D *337:18 9.70985e-05
8 *1295:D *337:27 5.46798e-05
9 *1295:D *337:44 0.000227817
10 *1295:D *338:10 0
11 *1295:D *375:54 0.000195686
12 *149:10 *1185:A 2.8185e-05
13 *149:10 *1185:C 4.82919e-05
14 *149:10 *1185:D_N 4.82919e-05
15 *149:10 *1514:A 0
16 *149:10 *337:44 8.70923e-05
17 *149:10 *338:8 8.49205e-05
18 *149:10 *338:10 0
19 *139:12 *1295:D 0.000162311
*RES
1 *1185:X *149:10 6.63 
2 *149:10 *1295:D 13.35 
3 *149:10 *1186:A 3.6 
*END

*D_NET *150 0.000917631
*CONN
*I *1191:A3 I *D sky130_fd_sc_hd__a32o_1
*I *1189:Y O *D sky130_fd_sc_hd__nand2_1
*CAP
1 *1191:A3 0.000353392
2 *1189:Y 0.000353392
3 *1191:A3 *1191:B1 0.000123415
4 *1191:A3 *1489:A 2.12581e-05
5 *1189:B *1191:A3 3.64998e-06
6 *1191:A2 *1191:A3 2.75229e-05
7 *147:6 *1191:A3 2.1551e-05
8 *147:16 *1191:A3 1.34503e-05
*RES
1 *1189:Y *1191:A3 8.87 
*END

*D_NET *151 0.000841562
*CONN
*I *1191:B1 I *D sky130_fd_sc_hd__a32o_1
*I *1190:X O *D sky130_fd_sc_hd__a21o_1
*CAP
1 *1191:B1 0.000167148
2 *1190:X 0.000167148
3 *1191:B1 *1183:C_N 9.14049e-05
4 *1191:B1 *1190:B1 3.45588e-05
5 *1191:B1 *1489:A 0.000117297
6 *1191:A3 *1191:B1 0.000123415
7 *147:6 *1191:B1 0.000140589
*RES
1 *1190:X *1191:B1 11.1225 
*END

*D_NET *152 0.00564057
*CONN
*I *1192:A3 I *D sky130_fd_sc_hd__o31a_1
*I *1194:B I *D sky130_fd_sc_hd__or3b_1
*I *1191:X O *D sky130_fd_sc_hd__a32o_1
*CAP
1 *1192:A3 0.000704037
2 *1194:B 0.000101897
3 *1191:X 0.000737075
4 *152:8 0.00154301
5 *1192:A3 *1234:B2 0
6 *1192:A3 *1378:A3 0.000449212
7 *1192:A3 *1431:D 9.71067e-05
8 *1192:A3 *366:28 0.000612508
9 *1192:A3 *375:20 0
10 *1192:A3 *375:26 0
11 *1192:A3 *396:12 7.89689e-05
12 *1194:B *1378:A3 6.29692e-05
13 *1194:B *1379:D 0
14 *1194:B *154:10 5.53249e-06
15 *1194:B *375:89 0.000155928
16 *152:8 *1380:B1 0.000462835
17 *152:8 *375:26 0.000107424
18 *1178:B *152:8 4.82863e-05
19 *1191:A2 *152:8 5.0751e-05
20 *1432:D *1192:A3 6.23375e-05
21 *1432:D *1194:B 9.6227e-05
22 *147:16 *152:8 0.000264464
*RES
1 *1191:X *152:8 16.815 
2 *152:8 *1194:B 6.765 
3 *152:8 *1192:A3 20.085 
*END

*D_NET *153 0.00548684
*CONN
*I *1380:A1 I *D sky130_fd_sc_hd__a21oi_1
*I *1194:C_N I *D sky130_fd_sc_hd__or3b_1
*I *1369:A1 I *D sky130_fd_sc_hd__a31o_1
*I *1193:Y O *D sky130_fd_sc_hd__nor2_1
*CAP
1 *1380:A1 0.000244695
2 *1194:C_N 1.69657e-05
3 *1369:A1 0.000413339
4 *1193:Y 0.000560317
5 *153:23 0.000375903
6 *153:10 0.0010879
7 *1194:C_N *1378:A3 2.78732e-05
8 *1369:A1 *1369:B1 0.000123225
9 *1369:A1 *375:28 0.000696005
10 *1369:A1 *375:30 0.000541118
11 *153:10 *1378:A3 0
12 *153:10 *302:74 7.97252e-05
13 *153:10 *309:10 0
14 *153:10 *309:23 0
15 *153:23 *1378:A3 7.17811e-05
16 *153:23 *375:28 0.000223016
17 *135:6 *1369:A1 0.000256469
18 *135:21 *153:10 0
19 *135:101 *1194:C_N 5.33085e-05
20 *135:101 *1369:A1 0.000131791
21 *135:101 *153:23 0.000240628
22 *145:27 *1380:A1 0.000342784
*RES
1 *1193:Y *153:10 15.14 
2 *153:10 *1369:A1 14.125 
3 *153:10 *153:23 5.81 
4 *153:23 *1194:C_N 4.215 
5 *153:23 *1380:A1 6.81 
*END

*D_NET *154 0.00526961
*CONN
*I *1219:A I *D sky130_fd_sc_hd__nor2_1
*I *1215:B1 I *D sky130_fd_sc_hd__a21oi_1
*I *1228:B1 I *D sky130_fd_sc_hd__a31o_1
*I *1194:X O *D sky130_fd_sc_hd__or3b_1
*CAP
1 *1219:A 7.5288e-05
2 *1215:B1 0.000359822
3 *1228:B1 2.76637e-05
4 *1194:X 0.000308278
5 *154:23 0.00071579
6 *154:10 0.000616623
7 *1215:B1 *1207:A2 0.000157679
8 *1215:B1 *1207:B2 0.000484922
9 *1215:B1 *1214:A 0
10 *1215:B1 *1215:A1 0
11 *1215:B1 *293:118 0.000201503
12 *1215:B1 *301:33 8.53113e-06
13 *1215:B1 *311:25 2.25075e-05
14 *1219:A *1207:B2 0.000210852
15 *1219:A *1217:C 9.45189e-05
16 *1219:A *301:33 0.000102472
17 *1228:B1 *1228:A1 3.26889e-05
18 *1228:B1 *1228:A2 2.49909e-05
19 *154:10 *1228:A2 1.93834e-05
20 *154:10 *1377:B1 0.00022921
21 *154:10 *1378:A3 0
22 *154:10 *1379:D 0
23 *154:10 *162:21 7.74981e-05
24 *154:23 *1228:A2 0.000300012
25 *154:23 *1374:B1_N 1.4399e-05
26 *154:23 *306:52 0.000122325
27 *154:23 *311:25 0.000840743
28 *1194:B *154:10 5.53249e-06
29 *1221:A3 *1219:A 9.3062e-06
30 *1227:A1 *1228:B1 4.82919e-05
31 *1227:A1 *154:23 3.66286e-05
32 *1382:D *1215:B1 0.000122155
33 *135:101 *154:10 0
*RES
1 *1194:X *154:10 11.57 
2 *154:10 *1228:B1 2.41 
3 *154:10 *154:23 11.075 
4 *154:23 *1215:B1 13.44 
5 *154:23 *1219:A 6.255 
*END

*D_NET *155 0.00077566
*CONN
*I *1200:A2 I *D sky130_fd_sc_hd__a31o_1
*I *1195:X O *D sky130_fd_sc_hd__and3_1
*CAP
1 *1200:A2 0.000267001
2 *1195:X 0.000267001
3 *1200:A2 *1199:B 9.27255e-06
4 *1200:A2 *1200:B1 5.05437e-05
5 *1200:A2 *1242:A 9.53428e-06
6 *1200:A2 *1263:A 0.000100536
7 *1200:A2 *1494:A 0
8 *1200:A2 *157:10 0
9 *1200:A2 *211:14 5.33874e-05
10 *1200:A2 *325:49 1.83847e-05
*RES
1 *1195:X *1200:A2 12.465 
*END

*D_NET *156 0.00312454
*CONN
*I *1243:B I *D sky130_fd_sc_hd__and4_1
*I *1242:A I *D sky130_fd_sc_hd__and2_1
*I *1200:A3 I *D sky130_fd_sc_hd__a31o_1
*I *1264:A2 I *D sky130_fd_sc_hd__a31o_1
*I *1196:X O *D sky130_fd_sc_hd__and2_1
*CAP
1 *1243:B 0
2 *1242:A 0.000140854
3 *1200:A3 0
4 *1264:A2 0.000207348
5 *1196:X 0.000194147
6 *156:25 0.000140854
7 *156:10 0.000281183
8 *156:6 0.000267981
9 *1242:A *1242:B 4.82863e-05
10 *1242:A *197:6 4.22057e-05
11 *1242:A *197:10 2.75145e-05
12 *1242:A *325:49 0.000393312
13 *1264:A2 *1263:A 4.28313e-05
14 *1264:A2 *1264:A1 2.30292e-05
15 *1264:A2 *1264:A3 1.16578e-05
16 *1264:A2 *157:10 0.000291358
17 *1264:A2 *302:36 0.000146181
18 *1264:A2 *329:47 0.000137571
19 *1264:A2 *330:28 3.89528e-05
20 *156:6 *1243:A 4.66742e-05
21 *156:6 *1243:D 0.000271308
22 *156:10 *1202:A3 0.000137578
23 *156:10 *157:10 7.4027e-05
24 *156:10 *157:21 0.000129742
25 *156:10 *302:36 2.04147e-05
26 *1200:A2 *1242:A 9.53428e-06
*RES
1 *1196:X *156:6 5.5 
2 *156:6 *156:10 4.4 
3 *156:10 *1264:A2 10.125 
4 *156:10 *156:25 2 
5 *156:25 *1200:A3 1.6 
6 *156:25 *1242:A 5.515 
7 *156:6 *1243:B 1.6 
*END

*D_NET *157 0.00315057
*CONN
*I *1209:A2 I *D sky130_fd_sc_hd__a31o_1
*I *1223:B1 I *D sky130_fd_sc_hd__o211a_1
*I *1272:A1 I *D sky130_fd_sc_hd__a21oi_1
*I *1243:C I *D sky130_fd_sc_hd__and4_1
*I *1199:B I *D sky130_fd_sc_hd__or3_1
*I *1197:X O *D sky130_fd_sc_hd__and4_1
*CAP
1 *1209:A2 8.87429e-05
2 *1223:B1 0
3 *1272:A1 3.81602e-05
4 *1243:C 0
5 *1199:B 0.000175874
6 *1197:X 0.000257499
7 *157:43 0.000223616
8 *157:30 0.000211797
9 *157:21 7.62755e-05
10 *157:10 0.000470885
11 *1199:B *1200:B1 5.30673e-05
12 *1199:B *325:49 4.66108e-05
13 *1209:A2 *1202:A3 0.000159964
14 *1209:A2 *1224:C 0
15 *1209:A2 *161:14 0
16 *1272:A1 *373:27 1.4389e-05
17 *157:10 *1197:C 1.54061e-06
18 *157:10 *1197:D 1.56428e-05
19 *157:10 *1223:A2 5.16348e-05
20 *157:10 *1263:A 8.97564e-05
21 *157:10 *1494:A 0
22 *157:10 *329:41 1.83756e-05
23 *157:21 *1223:A2 0.000139245
24 *157:30 *1202:A3 5.84456e-05
25 *157:30 *1223:A2 0.000116158
26 *157:43 *1202:A3 0.000131662
27 *157:43 *1223:A2 0.000206824
28 *157:43 *1273:B 0
29 *1200:A2 *1199:B 9.27255e-06
30 *1200:A2 *157:10 0
31 *1264:A2 *157:10 0.000291358
32 *156:10 *157:10 7.4027e-05
33 *156:10 *157:21 0.000129742
*RES
1 *1197:X *157:10 8.925 
2 *157:10 *1199:B 5.775 
3 *157:10 *157:21 1.635 
4 *157:21 *1243:C 3.6 
5 *157:21 *157:30 1.38 
6 *157:30 *1272:A1 4.05 
7 *157:30 *157:43 3.36 
8 *157:43 *1223:B1 3.6 
9 *157:43 *1209:A2 5.49 
*END

*D_NET *158 0.0025098
*CONN
*I *1201:B I *D sky130_fd_sc_hd__or2_1
*I *1199:C I *D sky130_fd_sc_hd__or3_1
*I *1198:X O *D sky130_fd_sc_hd__or4_1
*CAP
1 *1201:B 7.62109e-05
2 *1199:C 0.000511953
3 *1198:X 0.000370591
4 *158:8 0.000958756
5 *1199:C *1199:A 4.82863e-05
6 *1199:C *1285:A 4.39734e-05
7 *1199:C *293:67 7.5416e-05
8 *1201:B *1285:A 0.000147967
9 *1201:B *293:67 0.000273001
10 *158:8 *322:49 3.64998e-06
*RES
1 *1198:X *158:8 7.5 
2 *158:8 *1199:C 11.82 
3 *158:8 *1201:B 6.765 
*END

*D_NET *159 0.000181765
*CONN
*I *1200:B1 I *D sky130_fd_sc_hd__a31o_1
*I *1199:X O *D sky130_fd_sc_hd__or3_1
*CAP
1 *1200:B1 3.22105e-05
2 *1199:X 3.22105e-05
3 *1200:B1 *325:49 1.37328e-05
4 *1199:B *1200:B1 5.30673e-05
5 *1200:A2 *1200:B1 5.05437e-05
*RES
1 *1199:X *1200:B1 4.355 
*END

*D_NET *160 0.00191687
*CONN
*I *1202:A3 I *D sky130_fd_sc_hd__a41o_1
*I *1200:X O *D sky130_fd_sc_hd__a31o_1
*CAP
1 *1202:A3 0.000355417
2 *1200:X 0.000355417
3 *1202:A3 *1211:A3 0.000140844
4 *1202:A3 *161:27 0
5 *1202:A3 *302:36 0.000527586
6 *1202:A3 *325:49 4.99619e-05
7 *1209:A2 *1202:A3 0.000159964
8 *156:10 *1202:A3 0.000137578
9 *157:30 *1202:A3 5.84456e-05
10 *157:43 *1202:A3 0.000131662
*RES
1 *1200:X *1202:A3 18.72 
*END

*D_NET *161 0.0038644
*CONN
*I *1202:A4 I *D sky130_fd_sc_hd__a41o_1
*I *1224:B I *D sky130_fd_sc_hd__or3_1
*I *1209:B1 I *D sky130_fd_sc_hd__a31o_1
*I *1201:X O *D sky130_fd_sc_hd__or2_1
*CAP
1 *1202:A4 0.000207939
2 *1224:B 3.58965e-05
3 *1209:B1 6.13076e-05
4 *1201:X 0.000319414
5 *161:27 0.000318203
6 *161:14 0.00045509
7 *1202:A4 *1211:A3 0
8 *1202:A4 *1227:A3 0.000114458
9 *1202:A4 *1446:A 4.43871e-06
10 *1202:A4 *162:10 4.35348e-05
11 *1202:A4 *302:30 0.000275548
12 *1209:B1 *1209:A1 7.22354e-05
13 *1209:B1 *316:72 4.35348e-05
14 *1209:B1 *371:24 0.000198939
15 *1224:B *316:72 2.75145e-05
16 *161:14 *1223:A2 0
17 *161:14 *1224:C 3.18219e-05
18 *161:14 *1272:B1 4.84661e-05
19 *161:14 *1273:A 4.61595e-05
20 *161:14 *1273:B 0.000141599
21 *161:14 *1274:A1 3.92124e-05
22 *161:14 *1274:A2 4.66108e-05
23 *161:14 *1274:B1 0.000410208
24 *161:14 *198:10 0.000139245
25 *161:14 *316:72 0
26 *161:14 *373:27 0.000204208
27 *161:27 *1224:C 9.3062e-06
28 *161:27 *1227:A3 2.97004e-06
29 *161:27 *316:72 0
30 *1202:A1 *1202:A4 0.000200615
31 *1202:A3 *161:27 0
32 *1209:A2 *161:14 0
33 *1395:D *161:14 0.000365929
*RES
1 *1201:X *161:14 14.4 
2 *161:14 *1209:B1 5.79 
3 *161:14 *161:27 1.125 
4 *161:27 *1224:B 4.05 
5 *161:27 *1202:A4 9.54 
*END

*D_NET *162 0.00546967
*CONN
*I *1218:A1 I *D sky130_fd_sc_hd__o32a_1
*I *1375:A2 I *D sky130_fd_sc_hd__o31a_1
*I *1222:B I *D sky130_fd_sc_hd__or3b_1
*I *1206:A1 I *D sky130_fd_sc_hd__o21a_1
*I *1202:X O *D sky130_fd_sc_hd__a41o_1
*CAP
1 *1218:A1 0.000307778
2 *1375:A2 2.08101e-05
3 *1222:B 0.000390956
4 *1206:A1 0
5 *1202:X 0.000471698
6 *162:36 0.000547038
7 *162:21 0.000840357
8 *162:10 0.000702649
9 *1218:A1 *1218:A2 0.000275553
10 *1218:A1 *1218:A3 2.55503e-05
11 *1218:A1 *1218:B1 0
12 *1222:B *1377:A1 1.83756e-05
13 *1222:B *1377:A2 1.03423e-05
14 *1222:B *1378:A3 1.57776e-05
15 *1222:B *313:10 7.23533e-05
16 *162:10 *1202:B1 8.8266e-05
17 *162:10 *1214:B 0.000459366
18 *162:10 *1214:C 0.000179205
19 *162:10 *1446:A 2.75145e-05
20 *162:10 *302:30 3.30692e-05
21 *162:21 *1227:A2 8.44437e-05
22 *162:21 *1227:A3 0
23 *162:21 *1228:A2 1.79536e-05
24 *162:21 *1377:B1 5.04825e-05
25 *162:21 *1379:D 9.2929e-05
26 *162:21 *302:22 0
27 *162:21 *302:30 0
28 *162:36 *1377:A1 7.20129e-05
29 *1202:A1 *162:10 0.000352156
30 *1202:A4 *162:10 4.35348e-05
31 *1218:B2 *1218:A1 4.18603e-06
32 *1222:A *1222:B 7.4027e-05
33 *1227:A1 *162:21 0.00011379
34 *133:23 *1218:A1 0
35 *154:10 *162:21 7.74981e-05
*RES
1 *1202:X *162:10 14.625 
2 *162:10 *1206:A1 3.6 
3 *162:10 *162:21 7.715 
4 *162:21 *1222:B 10.37 
5 *162:21 *162:36 2.52 
6 *162:36 *1375:A2 1.96 
7 *162:36 *1218:A1 9.68 
*END

*D_NET *163 0.00601234
*CONN
*I *1216:B I *D sky130_fd_sc_hd__or2_1
*I *1205:B1_N I *D sky130_fd_sc_hd__o21ba_1
*I *1211:B1 I *D sky130_fd_sc_hd__a31o_1
*I *1222:C_N I *D sky130_fd_sc_hd__or3b_1
*I *1203:X O *D sky130_fd_sc_hd__or3_1
*CAP
1 *1216:B 0.000131096
2 *1205:B1_N 0
3 *1211:B1 0
4 *1222:C_N 0.000355497
5 *1203:X 0.000631554
6 *163:14 0.000586752
7 *163:12 0.000380409
8 *163:8 0.000911805
9 *1216:B *1205:A1 0.000163199
10 *1216:B *1218:B1 0
11 *1216:B *1227:B1 0.000163199
12 *1216:B *372:34 0
13 *1222:C_N *1203:A 0.000165422
14 *1222:C_N *1211:A2 2.0514e-05
15 *1222:C_N *1214:B 2.42148e-05
16 *1222:C_N *1228:A1 0
17 *1222:C_N *170:29 2.79004e-05
18 *1222:C_N *171:18 0.000185405
19 *1222:C_N *225:14 0.000226855
20 *163:8 *372:34 0.000735161
21 *163:12 *1205:A1 0
22 *163:12 *1206:A2 8.44359e-05
23 *163:12 *372:34 0
24 *163:14 *1203:A 0.000573677
25 *163:14 *1491:A 0.000514843
26 *163:14 *313:21 4.21973e-05
27 *1211:A1 *1222:C_N 4.82863e-05
28 *1211:A1 *163:14 3.57349e-05
29 *1222:A *1222:C_N 4.18603e-06
*RES
1 *1203:X *163:8 11.985 
2 *163:8 *163:12 4.655 
3 *163:12 *163:14 9.075 
4 *163:14 *1222:C_N 13.4 
5 *163:14 *1211:B1 1.6 
6 *163:12 *1205:B1_N 1.6 
7 *163:8 *1216:B 6.72 
*END

*D_NET *164 0.000811092
*CONN
*I *1207:B1 I *D sky130_fd_sc_hd__a221oi_1
*I *1205:A2 I *D sky130_fd_sc_hd__o21ba_1
*I *1204:X O *D sky130_fd_sc_hd__a21o_1
*CAP
1 *1207:B1 0
2 *1205:A2 7.58863e-05
3 *1204:X 3.48117e-05
4 *164:6 0.000110698
5 *1205:A2 *1203:A 0.000231211
6 *1205:A2 *1207:A1 0
7 *1205:A2 *1491:A 9.78429e-05
8 *164:6 *1203:A 0.00015806
9 *164:6 *1207:A1 4.47125e-05
10 *164:6 *1491:A 1.12578e-05
11 *164:6 *306:29 4.66108e-05
*RES
1 *1204:X *164:6 3.085 
2 *164:6 *1205:A2 4.135 
3 *164:6 *1207:B1 1.6 
*END

*D_NET *165 0.00116822
*CONN
*I *1206:A2 I *D sky130_fd_sc_hd__o21a_1
*I *1205:X O *D sky130_fd_sc_hd__o21ba_1
*CAP
1 *1206:A2 0.000242449
2 *1205:X 0.000242449
3 *1206:A2 *1206:B1 4.82863e-05
4 *1206:A2 *302:30 0
5 *1206:A2 *372:34 0.000278111
6 *1376:A *1206:A2 0.000272489
7 *163:12 *1206:A2 8.44359e-05
*RES
1 *1205:X *1206:A2 13.68 
*END

*D_NET *166 0.00181113
*CONN
*I *1207:C1 I *D sky130_fd_sc_hd__a221oi_1
*I *1206:X O *D sky130_fd_sc_hd__o21a_1
*CAP
1 *1207:C1 0.000465047
2 *1206:X 0.000465047
3 *1207:C1 *1205:A1 0.00011379
4 *1207:C1 *1207:B2 0.00011379
5 *1376:A *1207:C1 0.000653456
*RES
1 *1206:X *1207:C1 14.55 
*END

*D_NET *167 0.000688887
*CONN
*I *1215:A1 I *D sky130_fd_sc_hd__a21oi_1
*I *1207:Y O *D sky130_fd_sc_hd__a221oi_1
*CAP
1 *1215:A1 0.000243689
2 *1207:Y 0.000243689
3 *1215:A1 *1491:A 0.000201508
4 *1215:A1 *293:42 0
5 *1215:A1 *293:56 0
6 *1215:B1 *1215:A1 0
*RES
1 *1207:Y *1215:A1 10.665 
*END

*D_NET *168 0.000293657
*CONN
*I *1209:A3 I *D sky130_fd_sc_hd__a31o_1
*I *1208:X O *D sky130_fd_sc_hd__or2_1
*CAP
1 *1209:A3 7.30258e-05
2 *1208:X 7.30258e-05
3 *1209:A3 *1211:A3 3.1835e-05
4 *1209:A3 *371:24 0.00011577
*RES
1 *1208:X *1209:A3 5.03 
*END

*D_NET *169 0.00110831
*CONN
*I *1211:A3 I *D sky130_fd_sc_hd__a31o_1
*I *1209:X O *D sky130_fd_sc_hd__a31o_1
*CAP
1 *1211:A3 0.000401209
2 *1209:X 0.000401209
3 *1211:A3 *1209:A1 7.00889e-06
4 *1211:A3 *1214:B 0.000120186
5 *1211:A3 *371:24 6.01884e-06
6 *1202:A1 *1211:A3 0
7 *1202:A3 *1211:A3 0.000140844
8 *1202:A4 *1211:A3 0
9 *1209:A3 *1211:A3 3.1835e-05
*RES
1 *1209:X *1211:A3 14.145 
*END

*D_NET *170 0.00308659
*CONN
*I *1376:B I *D sky130_fd_sc_hd__or3_1
*I *1220:B I *D sky130_fd_sc_hd__nand2b_1
*I *1214:B I *D sky130_fd_sc_hd__or3_1
*I *1211:X O *D sky130_fd_sc_hd__a31o_1
*CAP
1 *1376:B 0.000194257
2 *1220:B 0
3 *1214:B 0.000581427
4 *1211:X 6.05552e-05
5 *170:29 0.000276211
6 *170:8 0.000723937
7 *1214:B *1214:C 7.67345e-05
8 *1214:B *313:10 4.48716e-05
9 *1376:B *1220:A_N 0.000106563
10 *1376:B *1228:A1 5.01378e-05
11 *1376:B *1401:CLK 8.38495e-06
12 *1376:B *172:21 6.01329e-05
13 *170:8 *1203:A 8.49205e-05
14 *170:29 *1228:A1 1.34594e-05
15 *170:29 *1401:CLK 4.78756e-05
16 *170:29 *171:18 5.16418e-05
17 *170:29 *313:10 4.19967e-05
18 *1202:A1 *1214:B 3.18137e-05
19 *1211:A3 *1214:B 0.000120186
20 *1222:C_N *1214:B 2.42148e-05
21 *1222:C_N *170:29 2.79004e-05
22 *162:10 *1214:B 0.000459366
*RES
1 *1211:X *170:8 4.395 
2 *170:8 *1214:B 12.27 
3 *170:8 *170:29 3.82625 
4 *170:29 *1220:B 1.6 
5 *170:29 *1376:B 4.96375 
*END

*D_NET *171 0.0067124
*CONN
*I *1218:B1 I *D sky130_fd_sc_hd__o32a_1
*I *1213:B I *D sky130_fd_sc_hd__nand2_1
*I *1212:Y O *D sky130_fd_sc_hd__nor2_1
*CAP
1 *1218:B1 0.000833648
2 *1213:B 5.17523e-05
3 *1212:Y 0.00125388
4 *171:18 0.00213928
5 *1213:B *1442:A 7.36562e-05
6 *1218:B1 *1217:B 0
7 *1218:B1 *1227:A2 0.000162311
8 *1218:B1 *1227:A3 2.49909e-05
9 *1218:B1 *1227:B1 0.000136734
10 *1218:B1 *1228:A2 8.41703e-06
11 *1218:B1 *1374:A1 0
12 *1218:B1 *174:10 8.09113e-05
13 *1218:B1 *372:34 0
14 *1218:B1 *391:60 6.61795e-05
15 *171:18 *1228:A1 2.66935e-05
16 *171:18 *1287:B1_N 8.49205e-05
17 *171:18 *1288:B1 3.00381e-05
18 *171:18 *1289:A1 3.83041e-05
19 *171:18 *1290:A1 8.40269e-05
20 *171:18 *1290:C1 4.82863e-05
21 *171:18 *1401:CLK 0.000683033
22 *171:18 *226:6 1.33293e-05
23 *171:18 *313:10 0
24 *171:18 *343:14 0.000313857
25 *171:18 *343:25 2.16833e-05
26 *171:18 *391:8 9.27255e-06
27 *171:18 *391:10 5.10321e-05
28 *171:18 *391:60 8.39965e-05
29 *1216:B *1218:B1 0
30 *1218:A1 *1218:B1 0
31 *1218:B2 *1218:B1 5.53249e-06
32 *1222:C_N *171:18 0.000185405
33 *1401:D *171:18 1.43717e-05
34 *135:103 *1213:B 0.00013521
35 *170:29 *171:18 5.16418e-05
*RES
1 *1212:Y *171:18 26.015 
2 *171:18 *1213:B 7.235 
3 *171:18 *1218:B1 17.21 
*END

*D_NET *172 0.00201446
*CONN
*I *1376:C I *D sky130_fd_sc_hd__or3_1
*I *1214:C I *D sky130_fd_sc_hd__or3_1
*I *1220:A_N I *D sky130_fd_sc_hd__nand2b_1
*I *1213:Y O *D sky130_fd_sc_hd__nand2_1
*CAP
1 *1376:C 0
2 *1214:C 0.00028727
3 *1220:A_N 3.67459e-05
4 *1213:Y 0
5 *172:21 0.000334453
6 *172:4 8.39296e-05
7 *1214:C *1213:A 9.72742e-06
8 *1214:C *1227:A3 0.000330441
9 *1214:C *1401:CLK 4.66108e-05
10 *1214:C *302:30 0.000278111
11 *1220:A_N *1213:A 5.35987e-05
12 *1220:A_N *1401:CLK 1.85412e-05
13 *172:21 *1213:A 5.2456e-05
14 *172:21 *1401:CLK 1.33285e-05
15 *1214:B *1214:C 7.67345e-05
16 *1376:A *1214:C 4.66108e-05
17 *1376:B *1220:A_N 0.000106563
18 *1376:B *172:21 6.01329e-05
19 *162:10 *1214:C 0.000179205
*RES
1 *1213:Y *172:4 1.6 
2 *172:4 *1220:A_N 2.90125 
3 *172:4 *172:21 1.605 
4 *172:21 *1214:C 13.895 
5 *172:21 *1376:C 1.6 
*END

*D_NET *173 0.000557342
*CONN
*I *1215:A2 I *D sky130_fd_sc_hd__a21oi_1
*I *1214:X O *D sky130_fd_sc_hd__or3_1
*CAP
1 *1215:A2 0.000138778
2 *1214:X 0.000138778
3 *1215:A2 *293:118 0.000279787
*RES
1 *1214:X *1215:A2 6.335 
*END

*D_NET *174 0.00107601
*CONN
*I *1218:A2 I *D sky130_fd_sc_hd__o32a_1
*I *1375:A3 I *D sky130_fd_sc_hd__o31a_1
*I *1216:X O *D sky130_fd_sc_hd__or2_1
*CAP
1 *1218:A2 6.11172e-05
2 *1375:A3 0
3 *1216:X 0.000143503
4 *174:10 0.00020462
5 *1218:A2 *1218:A3 4.99619e-05
6 *1218:A2 *1383:CLK 6.05513e-05
7 *174:10 *1228:A2 1.92979e-05
8 *174:10 *1374:A1 0.000155463
9 *174:10 *1374:A2 3.16707e-06
10 *174:10 *372:34 8.53113e-06
11 *1218:A1 *1218:A2 0.000275553
12 *1218:B1 *174:10 8.09113e-05
13 *1375:B1 *1218:A2 1.33293e-05
*RES
1 *1216:X *174:10 8.765 
2 *174:10 *1375:A3 1.6 
3 *174:10 *1218:A2 4.12 
*END

*D_NET *175 0.000386167
*CONN
*I *1218:A3 I *D sky130_fd_sc_hd__o32a_1
*I *1217:X O *D sky130_fd_sc_hd__or3_1
*CAP
1 *1218:A3 8.15242e-05
2 *1217:X 8.15242e-05
3 *1218:A3 *1217:C 0
4 *1218:A3 *1219:B 4.99619e-05
5 *1218:A3 *1383:CLK 9.76447e-05
6 *1218:A1 *1218:A3 2.55503e-05
7 *1218:A2 *1218:A3 4.99619e-05
*RES
1 *1217:X *1218:A3 5.495 
*END

*D_NET *176 0.000699514
*CONN
*I *1219:B I *D sky130_fd_sc_hd__nor2_1
*I *1218:X O *D sky130_fd_sc_hd__o32a_1
*CAP
1 *1219:B 0.000232686
2 *1218:X 0.000232686
3 *1219:B *1217:C 9.60785e-05
4 *1219:B *1383:CLK 6.69088e-05
5 *1218:A3 *1219:B 4.99619e-05
6 *1383:D *1219:B 2.11921e-05
*RES
1 *1218:X *1219:B 7.145 
*END

*D_NET *177 0.00147319
*CONN
*I *1228:A1 I *D sky130_fd_sc_hd__a31o_1
*I *1220:Y O *D sky130_fd_sc_hd__nand2b_1
*CAP
1 *1228:A1 0.000304805
2 *1220:Y 0.000304805
3 *1228:A1 *1228:A2 2.75229e-05
4 *1228:A1 *1228:A3 1.55762e-05
5 *1228:A1 *1229:A_N 0.000126717
6 *1228:A1 *1229:B 6.07575e-06
7 *1228:A1 *1442:A 0.00015639
8 *1228:A1 *313:10 0.000287337
9 *1222:A *1228:A1 9.50342e-06
10 *1222:C_N *1228:A1 0
11 *1227:A1 *1228:A1 0.000111474
12 *1228:B1 *1228:A1 3.26889e-05
13 *1376:B *1228:A1 5.01378e-05
14 *170:29 *1228:A1 1.34594e-05
15 *171:18 *1228:A1 2.66935e-05
*RES
1 *1220:Y *1228:A1 14.76 
*END

*D_NET *178 0.00211906
*CONN
*I *1228:A2 I *D sky130_fd_sc_hd__a31o_1
*I *1221:X O *D sky130_fd_sc_hd__o32a_1
*CAP
1 *1228:A2 0.00054161
2 *1221:X 0.00054161
3 *1228:A2 *1229:B 5.83121e-06
4 *1228:A2 *1374:A2 0.00018246
5 *1228:A2 *1374:B1_N 0.000252839
6 *1228:A2 *306:52 0.000120655
7 *1218:B1 *1228:A2 8.41703e-06
8 *1227:A1 *1228:A2 9.80032e-06
9 *1228:A1 *1228:A2 2.75229e-05
10 *1228:B1 *1228:A2 2.49909e-05
11 *133:10 *1228:A2 4.66742e-05
12 *154:10 *1228:A2 1.93834e-05
13 *154:23 *1228:A2 0.000300012
14 *162:21 *1228:A2 1.79536e-05
15 *174:10 *1228:A2 1.92979e-05
*RES
1 *1221:X *1228:A2 16.0507 
*END

*D_NET *179 0.000319957
*CONN
*I *1228:A3 I *D sky130_fd_sc_hd__a31o_1
*I *1222:X O *D sky130_fd_sc_hd__or3b_1
*CAP
1 *1228:A3 4.72802e-05
2 *1222:X 4.72802e-05
3 *1228:A3 *1229:B 0.0001249
4 *1228:A3 *1442:A 8.49205e-05
5 *1228:A1 *1228:A3 1.55762e-05
*RES
1 *1222:X *1228:A3 4.7 
*END

*D_NET *180 0.000295378
*CONN
*I *1224:C I *D sky130_fd_sc_hd__or3_1
*I *1223:X O *D sky130_fd_sc_hd__o211a_1
*CAP
1 *1224:C 0.000127125
2 *1223:X 0.000127125
3 *1209:A2 *1224:C 0
4 *161:14 *1224:C 3.18219e-05
5 *161:27 *1224:C 9.3062e-06
*RES
1 *1223:X *1224:C 9.03 
*END

*D_NET *181 0.00195865
*CONN
*I *1227:A3 I *D sky130_fd_sc_hd__a31o_1
*I *1224:X O *D sky130_fd_sc_hd__or3_1
*CAP
1 *1227:A3 0.000426924
2 *1224:X 0.000426924
3 *1227:A3 *1377:B1 0.000116158
4 *1227:A3 *1401:CLK 0.000179015
5 *1227:A3 *1442:A 0.000117657
6 *1227:A3 *1446:A 0.00013521
7 *1227:A3 *302:30 0
8 *1227:A3 *316:72 3.72916e-05
9 *1227:A3 *391:60 4.66108e-05
10 *1202:A4 *1227:A3 0.000114458
11 *1214:C *1227:A3 0.000330441
12 *1218:B1 *1227:A3 2.49909e-05
13 *161:27 *1227:A3 2.97004e-06
14 *162:21 *1227:A3 0
*RES
1 *1224:X *1227:A3 17.985 
*END

*D_NET *182 0.000244101
*CONN
*I *1226:D I *D sky130_fd_sc_hd__or4_1
*I *1225:X O *D sky130_fd_sc_hd__or4_1
*CAP
1 *1226:D 0.000100627
2 *1225:X 0.000100627
3 *1226:D *1203:B 4.18603e-06
4 *1226:D *1226:A 0
5 *1226:D *1226:B 3.86607e-05
6 *1226:D *193:18 0
*RES
1 *1225:X *1226:D 8.835 
*END

*D_NET *183 0.00340877
*CONN
*I *1227:B1 I *D sky130_fd_sc_hd__a31o_1
*I *1226:X O *D sky130_fd_sc_hd__or4_1
*CAP
1 *1227:B1 0.00094861
2 *1226:X 0.00094861
3 *1227:B1 *1205:A1 0.000162596
4 *1227:B1 *1226:A 2.75145e-05
5 *1227:B1 *1226:B 8.49205e-05
6 *1227:B1 *1227:A2 4.80285e-05
7 *1227:B1 *311:8 3.65439e-05
8 *1227:B1 *391:60 0.000385338
9 *1216:B *1227:B1 0.000163199
10 *1218:B1 *1227:B1 0.000136734
11 *1226:C *1227:B1 0.000198051
12 *148:16 *1227:B1 0.000268628
*RES
1 *1226:X *1227:B1 22.175 
*END

*D_NET *184 0.00178249
*CONN
*I *1377:C1 I *D sky130_fd_sc_hd__o211a_1
*I *1229:B I *D sky130_fd_sc_hd__and2b_1
*I *1227:X O *D sky130_fd_sc_hd__a31o_1
*CAP
1 *1377:C1 7.54857e-05
2 *1229:B 0.000329342
3 *1227:X 8.9658e-05
4 *184:8 0.000494486
5 *1229:B *1442:A 0.000362921
6 *1377:C1 *1377:B1 7.63125e-05
7 *184:8 *1377:B1 9.78798e-05
8 *184:8 *1442:A 0.000119601
9 *1228:A1 *1229:B 6.07575e-06
10 *1228:A2 *1229:B 5.83121e-06
11 *1228:A3 *1229:B 0.0001249
12 *135:101 *1377:C1 0
*RES
1 *1227:X *184:8 5.745 
2 *184:8 *1229:B 9 
3 *184:8 *1377:C1 5.235 
*END

*D_NET *185 0.000617177
*CONN
*I *1229:A_N I *D sky130_fd_sc_hd__and2b_1
*I *1228:X O *D sky130_fd_sc_hd__a31o_1
*CAP
1 *1229:A_N 0.000191522
2 *1228:X 0.000191522
3 *1229:A_N *1442:A 0.000107415
4 *1228:A1 *1229:A_N 0.000126717
*RES
1 *1228:X *1229:A_N 6.425 
*END

*D_NET *186 0.000792404
*CONN
*I *1231:B1 I *D sky130_fd_sc_hd__a21o_1
*I *1230:X O *D sky130_fd_sc_hd__xor2_1
*CAP
1 *1231:B1 0.000373115
2 *1230:X 0.000373115
3 *1231:B1 *1230:B 0
4 *1231:B1 *1485:A 0
5 *1231:B1 *297:21 0
6 *1231:B1 *395:12 4.61744e-05
*RES
1 *1230:X *1231:B1 13.425 
*END

*D_NET *187 0.000281984
*CONN
*I *1238:A I *D sky130_fd_sc_hd__or3b_2
*I *1231:X O *D sky130_fd_sc_hd__a21o_1
*CAP
1 *1238:A 0.000127235
2 *1231:X 0.000127235
3 *1238:A *1236:B1 2.75145e-05
4 *1238:A *1485:A 0
5 *1238:A *297:31 0
*RES
1 *1231:X *1238:A 9.03 
*END

*D_NET *188 0.000341967
*CONN
*I *1234:B1 I *D sky130_fd_sc_hd__a221o_1
*I *1232:Y O *D sky130_fd_sc_hd__nand2_1
*CAP
1 *1234:B1 6.7904e-05
2 *1232:Y 6.7904e-05
3 *1234:B1 *1234:A1 9.54399e-05
4 *1234:B1 *309:32 1.08758e-05
5 *1234:B1 *309:38 4.40325e-06
6 *1234:B1 *375:26 9.54399e-05
*RES
1 *1232:Y *1234:B1 8.775 
*END

*D_NET *189 0.000462416
*CONN
*I *1234:B2 I *D sky130_fd_sc_hd__a221o_1
*I *1233:X O *D sky130_fd_sc_hd__or2_1
*CAP
1 *1234:B2 0.000123016
2 *1233:X 0.000123016
3 *1234:B2 *1234:C1 1.12643e-05
4 *1234:B2 *309:32 8.8266e-05
5 *1234:B2 *375:26 0.000116853
6 *1192:A3 *1234:B2 0
*RES
1 *1233:X *1234:B2 9.48375 
*END

*D_NET *190 0.0023536
*CONN
*I *1238:B I *D sky130_fd_sc_hd__or3b_2
*I *1234:X O *D sky130_fd_sc_hd__a221o_1
*CAP
1 *1238:B 0.000947963
2 *1234:X 0.000947963
3 *1238:B *1236:A2 0.000198945
4 *1238:B *1238:C_N 1.83847e-05
5 *1238:B *1404:CLK 6.69341e-05
6 *1238:B *193:18 5.36384e-06
7 *1234:A2 *1238:B 1.53458e-05
8 *1236:A1 *1238:B 2.20732e-05
9 *1236:B2 *1238:B 9.28681e-05
10 *1404:D *1238:B 3.77562e-05
*RES
1 *1234:X *1238:B 14.69 
*END

*D_NET *191 0.000357854
*CONN
*I *1236:C1 I *D sky130_fd_sc_hd__o221a_1
*I *1235:X O *D sky130_fd_sc_hd__o2bb2a_1
*CAP
1 *1236:C1 9.22637e-05
2 *1235:X 9.22637e-05
3 *1236:C1 *1235:A2_N 0.000117832
4 *1236:C1 *1236:B1 5.53249e-06
5 *1236:C1 *1487:A 0
6 *1236:C1 *297:31 4.99619e-05
*RES
1 *1235:X *1236:C1 9.03 
*END

*D_NET *192 9.28239e-05
*CONN
*I *1238:C_N I *D sky130_fd_sc_hd__or3b_2
*I *1236:X O *D sky130_fd_sc_hd__o221a_1
*CAP
1 *1238:C_N 1.30736e-05
2 *1236:X 1.30736e-05
3 *1236:A1 *1238:C_N 4.82919e-05
4 *1238:B *1238:C_N 1.83847e-05
*RES
1 *1236:X *1238:C_N 3.65 
*END

*D_NET *193 0.0113575
*CONN
*I *1276:B1 I *D sky130_fd_sc_hd__a21oi_1
*I *1450:A I *D sky130_fd_sc_hd__buf_2
*I *1239:A I *D sky130_fd_sc_hd__inv_2
*I *1268:B1 I *D sky130_fd_sc_hd__a21oi_1
*I *1274:B1 I *D sky130_fd_sc_hd__a21oi_1
*I *1238:X O *D sky130_fd_sc_hd__or3b_2
*CAP
1 *1276:B1 0
2 *1450:A 0
3 *1239:A 0
4 *1268:B1 0.000151827
5 *1274:B1 0.00066107
6 *1238:X 0.00170227
7 *193:57 0.000565069
8 *193:30 0.00128545
9 *193:24 0.000325578
10 *193:18 0.00181671
11 *1268:B1 *1271:A 0.000504484
12 *1268:B1 *194:23 4.82863e-05
13 *1274:B1 *1201:A 8.60035e-05
14 *1274:B1 *1244:C 4.82863e-05
15 *1274:B1 *1274:A1 0.000239807
16 *1274:B1 *198:35 7.47215e-05
17 *1274:B1 *199:14 3.16676e-05
18 *1274:B1 *293:67 0
19 *1274:B1 *373:27 7.9205e-06
20 *193:18 *1203:A 6.55328e-05
21 *193:18 *1203:B 0
22 *193:18 *1226:B 0
23 *193:18 *1276:A2 0
24 *193:18 *1485:A 4.5783e-05
25 *193:18 *1489:A 0
26 *193:18 *1490:A 0
27 *193:18 *293:126 0.00012819
28 *193:18 *293:134 0
29 *193:18 *297:31 0
30 *193:18 *301:10 3.76533e-05
31 *193:18 *305:57 0
32 *193:18 *306:14 0.000425815
33 *193:18 *307:10 0
34 *193:18 *307:23 0
35 *193:18 *307:34 2.15594e-05
36 *193:18 *307:45 6.9117e-05
37 *193:18 *307:56 0.000203655
38 *193:18 *314:12 0.000204463
39 *193:24 *1276:A2 0
40 *193:24 *1279:A2 2.97004e-06
41 *193:24 *1449:A 5.84694e-05
42 *193:24 *293:134 0
43 *193:24 *371:14 0
44 *193:24 *373:10 1.61831e-05
45 *193:30 *1275:A 0
46 *193:30 *1449:A 8.65961e-05
47 *193:30 *198:35 0
48 *193:30 *373:10 0.000111302
49 *193:57 *1198:B 3.84331e-05
50 *193:57 *1281:A2 0.0001032
51 *193:57 *1449:A 0.000133135
52 *193:57 *194:23 0.000148224
53 *193:57 *199:14 0.000323002
54 *193:57 *322:36 0.00018305
55 *193:57 *322:49 0.000156842
56 *1181:B *193:18 0
57 *1191:B2 *193:18 0.000125984
58 *1226:D *193:18 0
59 *1236:A1 *193:18 0.000116165
60 *1238:B *193:18 5.36384e-06
61 *1376:A *193:18 0
62 *1393:D *1268:B1 0.000114026
63 *134:10 *193:18 0.000252977
64 *142:17 *193:18 0.000220452
65 *161:14 *1274:B1 0.000410208
*RES
1 *1238:X *193:18 39.43 
2 *193:18 *193:24 4.085 
3 *193:24 *193:30 6.155 
4 *193:30 *1274:B1 13.935 
5 *193:30 *193:57 13.415 
6 *193:57 *1268:B1 6.535 
7 *193:57 *1239:A 1.6 
8 *193:24 *1450:A 1.6 
9 *193:18 *1276:B1 3.6 
*END

*D_NET *194 0.00450753
*CONN
*I *1281:C1 I *D sky130_fd_sc_hd__o211a_1
*I *1283:C1 I *D sky130_fd_sc_hd__o211a_1
*I *1271:A I *D sky130_fd_sc_hd__and3_1
*I *1239:Y O *D sky130_fd_sc_hd__inv_2
*CAP
1 *1281:C1 0
2 *1283:C1 0.000392073
3 *1271:A 0.000396735
4 *1239:Y 0
5 *194:23 0.000548478
6 *194:4 0.000553141
7 *1271:A *1268:A2 4.82919e-05
8 *1271:A *1270:C 0
9 *1271:A *1274:A1 1.52184e-05
10 *1271:A *1285:A 0
11 *1271:A *201:14 0.000579423
12 *1271:A *201:33 8.49205e-05
13 *1271:A *331:18 0
14 *1283:C1 *1283:A2 0.000316421
15 *1283:C1 *1283:B1 0
16 *1283:C1 *1399:CLK 0
17 *1283:C1 *201:14 1.7396e-05
18 *1283:C1 *321:18 0.000318091
19 *1283:C1 *321:58 0
20 *1283:C1 *322:10 0.000139238
21 *194:23 *1281:A2 0.000307043
22 *194:23 *201:14 9.0065e-05
23 *1268:B1 *1271:A 0.000504484
24 *1268:B1 *194:23 4.82863e-05
25 *193:57 *194:23 0.000148224
*RES
1 *1239:Y *194:4 1.6 
2 *194:4 *1271:A 15.755 
3 *194:4 *194:23 4.365 
4 *194:23 *1283:C1 14.435 
5 *194:23 *1281:C1 1.6 
*END

*D_NET *195 0.00126205
*CONN
*I *1253:B I *D sky130_fd_sc_hd__nor2_1
*I *1251:A I *D sky130_fd_sc_hd__or2_1
*I *1240:X O *D sky130_fd_sc_hd__and3_1
*CAP
1 *1253:B 0.000204132
2 *1251:A 7.49476e-05
3 *1240:X 8.85674e-05
4 *195:10 0.000367647
5 *1251:A *1241:B 2.49909e-05
6 *1251:A *1481:A 0.000201508
7 *1253:B *1502:A 0
8 *1253:B *1503:A 0
9 *1253:B *196:12 0.000120381
10 *1253:B *325:25 0
11 *195:10 *1241:B 7.06865e-05
12 *195:10 *1241:C 7.23602e-05
13 *195:10 *1251:B 9.3062e-06
14 *195:10 *1502:A 0
15 *195:10 *1503:A 0
16 *195:10 *324:8 2.75229e-05
*RES
1 *1240:X *195:10 5.43 
2 *195:10 *1251:A 5.43 
3 *195:10 *1253:B 7.785 
*END

*D_NET *196 0.00945965
*CONN
*I *1254:A I *D sky130_fd_sc_hd__or2_1
*I *1256:B I *D sky130_fd_sc_hd__xnor2_1
*I *1243:D I *D sky130_fd_sc_hd__and4_1
*I *1242:B I *D sky130_fd_sc_hd__and2_1
*I *1264:A3 I *D sky130_fd_sc_hd__a31o_1
*I *1258:A2 I *D sky130_fd_sc_hd__a21oi_1
*I *1241:X O *D sky130_fd_sc_hd__and4_2
*CAP
1 *1254:A 3.20296e-05
2 *1256:B 0.000105333
3 *1243:D 0.000190222
4 *1242:B 9.73191e-06
5 *1264:A3 0.000410727
6 *1258:A2 3.69124e-05
7 *1241:X 0.00020624
8 *196:45 0.000589867
9 *196:43 0.000583862
10 *196:22 0.000766508
11 *196:18 0.0010661
12 *196:12 0.000693669
13 *1242:B *197:6 4.82863e-05
14 *1243:D *1243:A 2.39856e-05
15 *1256:B *1256:A 5.51926e-05
16 *1256:B *1257:A2 0.000116165
17 *1256:B *1389:CLK 5.05437e-05
18 *1256:B *291:70 0
19 *1258:A2 *1196:B 9.50342e-06
20 *1258:A2 *326:36 4.21314e-05
21 *1258:A2 *371:32 0
22 *1258:A2 *373:63 1.0183e-05
23 *1264:A3 *1261:A3 0
24 *1264:A3 *1263:C 5.02217e-05
25 *1264:A3 *1264:A1 0.000238919
26 *1264:A3 *302:36 8.98459e-05
27 *1264:A3 *329:12 0.000187759
28 *1264:A3 *373:31 0
29 *196:12 *1254:B 5.92849e-05
30 *196:12 *1481:A 2.75229e-05
31 *196:12 *1503:A 0.000518141
32 *196:18 *1255:A2 8.65905e-05
33 *196:18 *1257:A2 5.39961e-05
34 *196:18 *291:70 0
35 *196:18 *291:72 0
36 *196:18 *291:74 0
37 *196:18 *291:76 0
38 *196:18 *373:69 0.000196186
39 *196:18 *373:79 7.89767e-05
40 *196:22 *1257:A2 1.91597e-05
41 *196:22 *1259:A 2.26018e-05
42 *196:22 *1259:B 4.82863e-05
43 *196:22 *1260:A2 4.82919e-05
44 *196:22 *373:57 0.000123225
45 *196:22 *373:63 0.00085011
46 *196:22 *373:69 0.000198945
47 *196:43 *1259:B 7.88499e-05
48 *196:43 *1272:A2 0.000401186
49 *196:43 *302:36 0
50 *196:43 *373:27 0.000353049
51 *196:43 *373:31 0
52 *196:43 *373:57 0.00014397
53 *196:45 *302:36 0
54 *196:45 *373:31 0
55 *1242:A *1242:B 4.82863e-05
56 *1253:B *196:12 0.000120381
57 *1264:A2 *1264:A3 1.16578e-05
58 *1389:D *1256:B 0
59 *1389:D *196:22 8.57024e-05
60 *156:6 *1243:D 0.000271308
*RES
1 *1241:X *196:12 12.02 
2 *196:12 *196:18 10.745 
3 *196:18 *196:22 13.145 
4 *196:22 *1258:A2 6.215 
5 *196:22 *196:43 8.945 
6 *196:43 *196:45 2.655 
7 *196:45 *1264:A3 12.555 
8 *196:45 *1242:B 4.05 
9 *196:43 *1243:D 6.81 
10 *196:18 *1256:B 6.03 
11 *196:12 *1254:A 2.05 
*END

*D_NET *197 0.00462426
*CONN
*I *1263:C I *D sky130_fd_sc_hd__and3_1
*I *1272:A2 I *D sky130_fd_sc_hd__a21oi_1
*I *1259:A I *D sky130_fd_sc_hd__or2_1
*I *1261:A2 I *D sky130_fd_sc_hd__a31o_1
*I *1262:A2 I *D sky130_fd_sc_hd__o21ba_1
*I *1242:X O *D sky130_fd_sc_hd__and2_1
*CAP
1 *1263:C 0.000328774
2 *1272:A2 0.000328734
3 *1259:A 0.000101535
4 *1261:A2 0
5 *1262:A2 0.000200106
6 *1242:X 6.25239e-05
7 *197:34 0.000604461
8 *197:12 0.000288716
9 *197:10 0.000494417
10 *197:6 0.000622913
11 *1259:A *1259:B 1.47256e-05
12 *1259:A *373:63 4.9253e-06
13 *1262:A2 *1262:B1_N 0
14 *1262:A2 *1504:A 0.000194596
15 *1263:C *1261:A1 3.16307e-05
16 *1263:C *211:10 2.525e-05
17 *1263:C *373:31 0
18 *1272:A2 *1258:B1 5.18292e-05
19 *1272:A2 *1259:B 6.31043e-05
20 *1272:A2 *373:27 0.000130453
21 *197:10 *325:49 0.000150745
22 *197:12 *1504:A 8.97564e-05
23 *197:34 *1196:B 0.000118513
24 *197:34 *1504:A 0.000116636
25 *197:34 *327:12 7.90356e-06
26 *1242:A *197:6 4.22057e-05
27 *1242:A *197:10 2.75145e-05
28 *1242:B *197:6 4.82863e-05
29 *1264:A3 *1263:C 5.02217e-05
30 *196:22 *1259:A 2.26018e-05
31 *196:43 *1272:A2 0.000401186
*RES
1 *1242:X *197:6 2.74 
2 *197:6 *197:10 5.9 
3 *197:10 *197:12 1.89 
4 *197:12 *1262:A2 7.98 
5 *197:12 *1261:A2 3.6 
6 *197:10 *197:34 5.93 
7 *197:34 *1259:A 3.1 
8 *197:34 *1272:A2 9.085 
9 *197:6 *1263:C 9.8375 
*END

*D_NET *198 0.0036403
*CONN
*I *1273:A I *D sky130_fd_sc_hd__or2_1
*I *1277:A2 I *D sky130_fd_sc_hd__a21oi_1
*I *1244:C I *D sky130_fd_sc_hd__and3_1
*I *1275:B I *D sky130_fd_sc_hd__xnor2_1
*I *1243:X O *D sky130_fd_sc_hd__and4_1
*CAP
1 *1273:A 1.23026e-05
2 *1277:A2 0
3 *1244:C 0.000164464
4 *1275:B 0
5 *1243:X 0.000255707
6 *198:35 0.000294765
7 *198:22 0.000775819
8 *198:10 0.000913528
9 *1244:C *1201:A 2.16833e-05
10 *1244:C *1277:A1 5.37074e-05
11 *1244:C *1277:B1 0.000112232
12 *1244:C *318:24 3.52139e-06
13 *1244:C *319:10 0
14 *1273:A *316:72 2.24423e-05
15 *198:10 *1223:A2 0
16 *198:10 *1243:A 5.73739e-05
17 *198:10 *1272:B1 5.38986e-06
18 *198:10 *1274:A2 7.28749e-05
19 *198:10 *316:10 1.23331e-05
20 *198:10 *316:12 3.1388e-05
21 *198:10 *316:72 8.08153e-06
22 *198:22 *293:56 3.34883e-05
23 *198:22 *293:67 0.000201503
24 *198:22 *373:10 9.27495e-05
25 *198:35 *1275:A 0.000114492
26 *198:35 *293:67 2.75538e-05
27 *198:35 *373:10 3.96653e-05
28 *1274:B1 *1244:C 4.82863e-05
29 *1274:B1 *198:35 7.47215e-05
30 *1395:D *198:22 4.82319e-06
31 *161:14 *1273:A 4.61595e-05
32 *161:14 *198:10 0.000139245
33 *193:30 *198:35 0
*RES
1 *1243:X *198:10 8.25 
2 *198:10 *198:22 11.57 
3 *198:22 *1275:B 1.6 
4 *198:22 *198:35 6.94 
5 *198:35 *1244:C 4.5025 
6 *198:35 *1277:A2 1.6 
7 *198:10 *1273:A 4.215 
*END

*D_NET *199 0.00298217
*CONN
*I *1278:A I *D sky130_fd_sc_hd__or2_1
*I *1245:B I *D sky130_fd_sc_hd__and2_1
*I *1281:A2 I *D sky130_fd_sc_hd__o211a_1
*I *1244:X O *D sky130_fd_sc_hd__and3_1
*CAP
1 *1278:A 6.48548e-05
2 *1245:B 0
3 *1281:A2 0.000300462
4 *1244:X 2.02681e-05
5 *199:14 0.000602898
6 *199:8 0.000387558
7 *1278:A *1278:B 0.000160635
8 *1278:A *318:22 0.000198945
9 *1278:A *318:24 1.46744e-05
10 *1278:A *319:10 3.09179e-05
11 *1281:A2 *1281:B1 3.95724e-05
12 *1281:A2 *200:10 8.71001e-05
13 *1281:A2 *201:14 0.000196364
14 *1281:A2 *293:73 0
15 *1281:A2 *322:36 1.44259e-05
16 *199:8 *1278:B 3.90815e-05
17 *199:8 *318:22 9.53428e-06
18 *199:8 *318:24 4.99619e-05
19 *199:14 *293:67 0
20 *1274:B1 *199:14 3.16676e-05
21 *193:57 *1281:A2 0.0001032
22 *193:57 *199:14 0.000323002
23 *194:23 *1281:A2 0.000307043
*RES
1 *1244:X *199:8 2.41 
2 *199:8 *199:14 8.675 
3 *199:14 *1281:A2 10.515 
4 *199:14 *1245:B 3.6 
5 *199:8 *1278:A 4.135 
*END

*D_NET *200 0.0038347
*CONN
*I *1280:B1_N I *D sky130_fd_sc_hd__a21bo_1
*I *1246:C I *D sky130_fd_sc_hd__nand3_2
*I *1282:C I *D sky130_fd_sc_hd__nand3b_1
*I *1283:A2 I *D sky130_fd_sc_hd__o211a_1
*I *1284:A2 I *D sky130_fd_sc_hd__a21oi_1
*I *1245:X O *D sky130_fd_sc_hd__and2_1
*CAP
1 *1280:B1_N 9.54448e-05
2 *1246:C 0
3 *1282:C 0
4 *1283:A2 0.000476554
5 *1284:A2 4.50087e-05
6 *1245:X 0
7 *200:51 0.000374979
8 *200:25 0.000523091
9 *200:10 0.000411984
10 *200:4 0.000599973
11 *1280:B1_N *1198:C 2.67022e-05
12 *1280:B1_N *1245:A 2.24336e-05
13 *1280:B1_N *293:138 0
14 *1280:B1_N *320:10 2.75145e-05
15 *1283:A2 *321:18 0.000168224
16 *1283:A2 *321:34 0.000147076
17 *1283:A2 *321:58 0
18 *1284:A2 *1282:A_N 0
19 *1284:A2 *1282:B 4.77463e-05
20 *1284:A2 *1284:B1 0.000112894
21 *200:10 *293:73 0
22 *200:10 *322:25 0
23 *200:10 *322:36 0
24 *200:25 *1282:B 1.93244e-05
25 *200:25 *1283:B1 1.03323e-05
26 *200:25 *1284:B1 8.49205e-05
27 *200:25 *293:73 0
28 *200:25 *321:58 0
29 *200:25 *322:25 1.22676e-05
30 *200:51 *1245:A 0.000155497
31 *200:51 *201:8 4.66108e-05
32 *200:51 *320:10 2.26018e-05
33 *1281:A2 *200:10 8.71001e-05
34 *1283:C1 *1283:A2 0.000316421
*RES
1 *1245:X *200:4 1.6 
2 *200:4 *200:10 9.205 
3 *200:10 *1284:A2 3.01 
4 *200:10 *200:25 3.41 
5 *200:25 *1283:A2 12.255 
6 *200:25 *1282:C 3.6 
7 *200:4 *200:51 4.53 
8 *200:51 *1246:C 1.6 
9 *200:51 *1280:B1_N 7.43 
*END

*D_NET *201 0.00864242
*CONN
*I *1449:A I *D sky130_fd_sc_hd__buf_2
*I *1268:A1 I *D sky130_fd_sc_hd__a21oi_1
*I *1269:A2 I *D sky130_fd_sc_hd__a31o_1
*I *1270:C I *D sky130_fd_sc_hd__nand4_1
*I *1274:A1 I *D sky130_fd_sc_hd__a21oi_1
*I *1246:Y O *D sky130_fd_sc_hd__nand3_2
*CAP
1 *1449:A 0.000663709
2 *1268:A1 0
3 *1269:A2 0
4 *1270:C 0.000197453
5 *1274:A1 0.000731679
6 *1246:Y 3.69588e-05
7 *201:33 0.000516415
8 *201:14 0.00171252
9 *201:8 0.00136254
10 *1270:C *1270:A 5.45491e-05
11 *1270:C *1507:A 7.30547e-05
12 *1270:C *1508:A 4.66826e-05
13 *1270:C *293:79 0.00013106
14 *1270:C *331:18 9.50342e-06
15 *1270:C *331:20 0.000116158
16 *1270:C *332:19 4.80285e-05
17 *1274:A1 *1268:A2 0
18 *1274:A1 *1285:A 0
19 *1274:A1 *1494:A 0
20 *1274:A1 *316:10 0
21 *1274:A1 *316:12 0
22 *1274:A1 *316:14 0
23 *1274:A1 *331:12 0
24 *1274:A1 *331:18 0
25 *1449:A *1198:B 9.61344e-05
26 *1449:A *1198:C 0.000106655
27 *1449:A *1245:A 7.47215e-05
28 *1449:A *1279:A2 0
29 *1449:A *1279:B1 0.000121186
30 *1449:A *293:134 0
31 *1449:A *293:138 0
32 *1449:A *321:58 6.21553e-05
33 *1449:A *321:69 0.00013994
34 *1449:A *371:6 0.000162311
35 *1449:A *373:10 9.27255e-06
36 *201:14 *1399:CLK 0
37 *201:14 *321:58 0.000181369
38 *201:33 *1268:A2 6.77417e-05
39 *201:33 *331:18 0.000311331
40 *1271:A *1270:C 0
41 *1271:A *1274:A1 1.52184e-05
42 *1271:A *201:14 0.000579423
43 *1271:A *201:33 8.49205e-05
44 *1274:B1 *1274:A1 0.000239807
45 *1281:A2 *201:14 0.000196364
46 *1283:C1 *201:14 1.7396e-05
47 *1394:D *1270:C 0
48 *1397:D *1449:A 2.20732e-05
49 *161:14 *1274:A1 3.92124e-05
50 *193:24 *1449:A 5.84694e-05
51 *193:30 *1449:A 8.65961e-05
52 *193:57 *1449:A 0.000133135
53 *194:23 *201:14 9.0065e-05
54 *200:51 *201:8 4.66108e-05
*RES
1 *1246:Y *201:8 4.05 
2 *201:8 *201:14 12.185 
3 *201:14 *1274:A1 16.73 
4 *201:14 *201:33 7.85 
5 *201:33 *1270:C 8.28 
6 *201:33 *1269:A2 3.6 
7 *201:14 *1268:A1 1.6 
8 *201:8 *1449:A 17.145 
*END

*D_NET *202 0.000800818
*CONN
*I *1249:A2 I *D sky130_fd_sc_hd__a21oi_1
*I *1248:Y O *D sky130_fd_sc_hd__xnor2_1
*CAP
1 *1249:A2 0.000198467
2 *1248:Y 0.000198467
3 *1249:A2 *1248:A 4.94457e-05
4 *1249:A2 *1248:B 4.88481e-05
5 *1249:A2 *1493:A 8.40983e-05
6 *1249:A2 *315:14 2.72392e-05
7 *1249:A2 *323:17 4.77719e-05
8 *1249:A2 *323:30 0.000119866
9 global_timeout_count[0] *1249:A2 2.66148e-05
*RES
1 *1248:Y *1249:A2 11.715 
*END

*D_NET *203 0.000940111
*CONN
*I *1251:B I *D sky130_fd_sc_hd__or2_1
*I *1250:Y O *D sky130_fd_sc_hd__a21oi_1
*CAP
1 *1251:B 0.000263751
2 *1250:Y 0.000263751
3 *1251:B *1241:B 3.86529e-05
4 *1251:B *1241:C 8.40213e-05
5 *1251:B *1250:B1 3.00381e-05
6 *1251:B *1252:A2 0
7 *1251:B *1502:A 0
8 *1251:B *323:41 0.000124007
9 *1251:B *324:8 6.38806e-05
10 *1251:B *324:10 6.27029e-05
11 *195:10 *1251:B 9.3062e-06
*RES
1 *1250:Y *1251:B 12.555 
*END

*D_NET *204 0.000722499
*CONN
*I *1252:A2 I *D sky130_fd_sc_hd__a21oi_1
*I *1251:X O *D sky130_fd_sc_hd__or2_1
*CAP
1 *1252:A2 0.000221674
2 *1251:X 0.000221674
3 *1252:A2 *1501:A 0
4 *1252:A2 *1502:A 0.000126734
5 *1252:A2 *371:87 0.000124895
6 global_timeout_count[3] *1252:A2 2.75229e-05
7 *1251:B *1252:A2 0
*RES
1 *1251:X *1252:A2 12.015 
*END

*D_NET *205 0.000206752
*CONN
*I *1254:B I *D sky130_fd_sc_hd__or2_1
*I *1253:Y O *D sky130_fd_sc_hd__nor2_1
*CAP
1 *1254:B 7.37334e-05
2 *1253:Y 7.37334e-05
3 *1254:B *325:12 0
4 *196:12 *1254:B 5.92849e-05
*RES
1 *1253:Y *1254:B 8.835 
*END

*D_NET *206 0.000474145
*CONN
*I *1255:A2 I *D sky130_fd_sc_hd__a21oi_1
*I *1254:X O *D sky130_fd_sc_hd__or2_1
*CAP
1 *1255:A2 9.86675e-05
2 *1254:X 9.86675e-05
3 *1255:A2 *1503:A 6.28843e-05
4 *1255:A2 *371:38 9.50342e-06
5 *1255:A2 *371:44 0.000117832
6 *196:18 *1255:A2 8.65905e-05
*RES
1 *1254:X *1255:A2 9.375 
*END

*D_NET *207 0.000605865
*CONN
*I *1257:A2 I *D sky130_fd_sc_hd__a21oi_1
*I *1256:Y O *D sky130_fd_sc_hd__xnor2_1
*CAP
1 *1257:A2 0.000125366
2 *1256:Y 0.000125366
3 *1257:A2 *1503:A 0
4 *1257:A2 *371:38 4.82919e-05
5 *1257:A2 *373:69 0.000117519
6 *1256:B *1257:A2 0.000116165
7 *1389:D *1257:A2 0
8 *196:18 *1257:A2 5.39961e-05
9 *196:22 *1257:A2 1.91597e-05
*RES
1 *1256:Y *1257:A2 10.23 
*END

*D_NET *208 0.000316531
*CONN
*I *1259:B I *D sky130_fd_sc_hd__or2_1
*I *1258:Y O *D sky130_fd_sc_hd__a21oi_1
*CAP
1 *1259:B 5.57822e-05
2 *1258:Y 5.57822e-05
3 *1259:A *1259:B 1.47256e-05
4 *1272:A2 *1259:B 6.31043e-05
5 *196:22 *1259:B 4.82863e-05
6 *196:43 *1259:B 7.88499e-05
*RES
1 *1258:Y *1259:B 4.77125 
*END

*D_NET *209 0.000473197
*CONN
*I *1260:A2 I *D sky130_fd_sc_hd__a21oi_1
*I *1259:X O *D sky130_fd_sc_hd__or2_1
*CAP
1 *1260:A2 7.32142e-05
2 *1259:X 7.32142e-05
3 *1260:A2 *1260:B1 0.000130707
4 *1260:A2 *371:32 0.000139238
5 *1260:A2 *373:63 8.53113e-06
6 *196:22 *1260:A2 4.82919e-05
*RES
1 *1259:X *1260:A2 9.285 
*END

*D_NET *210 0.000530461
*CONN
*I *1262:B1_N I *D sky130_fd_sc_hd__o21ba_1
*I *1261:X O *D sky130_fd_sc_hd__a31o_1
*CAP
1 *1262:B1_N 0.000239182
2 *1261:X 0.000239182
3 *1262:B1_N *325:12 0
4 *1262:A2 *1262:B1_N 0
5 *1391:D *1262:B1_N 5.20968e-05
*RES
1 *1261:X *1262:B1_N 11.07 
*END

*D_NET *211 0.00356116
*CONN
*I *1267:B I *D sky130_fd_sc_hd__xnor2_1
*I *1269:A3 I *D sky130_fd_sc_hd__a31o_1
*I *1265:A_N I *D sky130_fd_sc_hd__nand2b_1
*I *1270:D I *D sky130_fd_sc_hd__nand4_1
*I *1263:X O *D sky130_fd_sc_hd__and3_1
*CAP
1 *1267:B 8.09926e-05
2 *1269:A3 0.000170324
3 *1265:A_N 0.000337627
4 *1270:D 0.000131804
5 *1263:X 0.000262165
6 *211:29 0.000507952
7 *211:14 0.000420209
8 *211:10 0.000631563
9 *1265:A_N *1271:C 4.80285e-05
10 *1265:A_N *1481:A 0.000238919
11 *1269:A3 *1271:C 9.50904e-05
12 *1270:D *1271:C 3.86529e-05
13 *1270:D *1494:A 0.000108198
14 *1270:D *330:19 0
15 *211:10 *1261:A1 4.82863e-05
16 *211:10 *1263:A 1.83756e-05
17 *211:10 *1263:B 4.66108e-05
18 *211:14 *1263:A 0
19 *211:14 *1494:A 0.000297723
20 *211:14 *330:19 0
21 *211:14 *330:28 0
22 *1200:A2 *211:14 5.33874e-05
23 *1263:C *211:10 2.525e-05
*RES
1 *1263:X *211:10 5.62 
2 *211:10 *211:14 8.225 
3 *211:14 *1270:D 6.045 
4 *211:14 *211:29 2 
5 *211:29 *1265:A_N 7.57 
6 *211:29 *1269:A3 4.48 
7 *211:10 *1267:B 2.74 
*END

*D_NET *212 0.000906508
*CONN
*I *1265:B I *D sky130_fd_sc_hd__nand2b_1
*I *1264:X O *D sky130_fd_sc_hd__a31o_1
*CAP
1 *1265:B 0.000322068
2 *1264:X 0.000322068
3 *1265:B *1261:A3 0
4 *1265:B *1264:A1 0.000198945
5 *1265:B *1481:A 1.12643e-05
6 *1265:B *1505:A 5.21627e-05
*RES
1 *1264:X *1265:B 11.8088 
*END

*D_NET *213 0.000715308
*CONN
*I *1266:A2 I *D sky130_fd_sc_hd__a21oi_1
*I *1265:Y O *D sky130_fd_sc_hd__nand2b_1
*CAP
1 *1266:A2 0.000189222
2 *1265:Y 0.000189222
3 *1266:A2 *1261:A3 0.00031848
4 *1266:A2 *1481:A 1.83847e-05
5 *1266:A2 *1505:A 0
*RES
1 *1265:Y *1266:A2 11.325 
*END

*D_NET *214 0.000472758
*CONN
*I *1268:A2 I *D sky130_fd_sc_hd__a21oi_1
*I *1267:Y O *D sky130_fd_sc_hd__xnor2_1
*CAP
1 *1268:A2 0.000145586
2 *1267:Y 0.000145586
3 *1268:A2 *331:12 2.67022e-05
4 *1268:A2 *331:18 3.88511e-05
5 *1271:A *1268:A2 4.82919e-05
6 *1274:A1 *1268:A2 0
7 *201:33 *1268:A2 6.77417e-05
*RES
1 *1267:Y *1268:A2 10.32 
*END

*D_NET *215 0.000227324
*CONN
*I *1271:B I *D sky130_fd_sc_hd__and3_1
*I *1269:X O *D sky130_fd_sc_hd__a31o_1
*CAP
1 *1271:B 9.04423e-05
2 *1269:X 9.04423e-05
3 *1271:B *1271:C 4.64396e-05
*RES
1 *1269:X *1271:B 4.34 
*END

*D_NET *216 0.00116987
*CONN
*I *1271:C I *D sky130_fd_sc_hd__and3_1
*I *1270:Y O *D sky130_fd_sc_hd__nand4_1
*CAP
1 *1271:C 0.000456434
2 *1270:Y 0.000456434
3 *1271:C *330:19 2.87867e-05
4 *1265:A_N *1271:C 4.80285e-05
5 *1269:A3 *1271:C 9.50904e-05
6 *1270:D *1271:C 3.86529e-05
7 *1271:B *1271:C 4.64396e-05
*RES
1 *1270:Y *1271:C 14.25 
*END

*D_NET *217 0.000657167
*CONN
*I *1273:B I *D sky130_fd_sc_hd__or2_1
*I *1272:Y O *D sky130_fd_sc_hd__a21oi_1
*CAP
1 *1273:B 0.000176181
2 *1272:Y 0.000176181
3 *1273:B *1223:A2 0
4 *1273:B *373:27 0.000163204
5 *157:43 *1273:B 0
6 *161:14 *1273:B 0.000141599
*RES
1 *1272:Y *1273:B 10.32 
*END

*D_NET *218 0.000408301
*CONN
*I *1274:A2 I *D sky130_fd_sc_hd__a21oi_1
*I *1273:X O *D sky130_fd_sc_hd__or2_1
*CAP
1 *1274:A2 7.30502e-05
2 *1273:X 7.30502e-05
3 *1274:A2 *1272:B1 5.83121e-06
4 *1274:A2 *316:10 0.000136884
5 *161:14 *1274:A2 4.66108e-05
6 *198:10 *1274:A2 7.28749e-05
*RES
1 *1273:X *1274:A2 9.285 
*END

*D_NET *219 0.000516236
*CONN
*I *1276:A2 I *D sky130_fd_sc_hd__a21oi_1
*I *1275:Y O *D sky130_fd_sc_hd__xnor2_1
*CAP
1 *1276:A2 0.000186784
2 *1275:Y 0.000186784
3 *1276:A2 *371:24 0.000142669
4 *193:18 *1276:A2 0
5 *193:24 *1276:A2 0
*RES
1 *1275:Y *1276:A2 10.755 
*END

*D_NET *220 0.000631114
*CONN
*I *1278:B I *D sky130_fd_sc_hd__or2_1
*I *1277:Y O *D sky130_fd_sc_hd__a21oi_1
*CAP
1 *1278:B 6.63685e-05
2 *1277:Y 6.63685e-05
3 *1278:B *1277:A1 3.26889e-05
4 *1278:B *1277:B1 0.000198051
5 *1278:B *318:24 1.47256e-05
6 *1278:B *318:39 3.26889e-05
7 *1278:B *319:10 2.05056e-05
8 *1278:A *1278:B 0.000160635
9 *199:8 *1278:B 3.90815e-05
*RES
1 *1277:Y *1278:B 5.99 
*END

*D_NET *221 0.000460745
*CONN
*I *1279:A2 I *D sky130_fd_sc_hd__a21oi_1
*I *1278:X O *D sky130_fd_sc_hd__or2_1
*CAP
1 *1279:A2 0.000157627
2 *1278:X 0.000157627
3 *1279:A2 *293:134 5.4256e-05
4 *1279:A2 *318:22 8.8266e-05
5 *1449:A *1279:A2 0
6 *193:24 *1279:A2 2.97004e-06
*RES
1 *1278:X *1279:A2 9.63 
*END

*D_NET *222 0.00113069
*CONN
*I *1281:B1 I *D sky130_fd_sc_hd__o211a_1
*I *1280:X O *D sky130_fd_sc_hd__a21bo_1
*CAP
1 *1281:B1 0.000231992
2 *1280:X 0.000231992
3 *1281:B1 *1281:A1 0.000162311
4 *1281:B1 *1399:CLK 0.000183738
5 *1281:B1 *293:138 0.000116165
6 *1281:A2 *1281:B1 3.95724e-05
7 *1398:D *1281:B1 0.000164924
*RES
1 *1280:X *1281:B1 13.155 
*END

*D_NET *223 0.00168516
*CONN
*I *1283:B1 I *D sky130_fd_sc_hd__o211a_1
*I *1282:Y O *D sky130_fd_sc_hd__nand3b_1
*CAP
1 *1283:B1 0.000722049
2 *1282:Y 0.000722049
3 *1283:B1 *1282:A_N 5.30673e-05
4 *1283:B1 *1282:B 6.91485e-05
5 *1283:B1 *1284:B1 2.86265e-06
6 *1283:B1 *1399:CLK 2.11084e-05
7 *1283:B1 *1453:A 2.67275e-05
8 *1283:B1 *321:12 0
9 *1283:B1 *322:12 5.78185e-05
10 *1283:C1 *1283:B1 0
11 *1399:D *1283:B1 0
12 *200:25 *1283:B1 1.03323e-05
*RES
1 *1282:Y *1283:B1 15.93 
*END

*D_NET *224 0.000178392
*CONN
*I *1285:B I *D sky130_fd_sc_hd__nor2_1
*I *1284:Y O *D sky130_fd_sc_hd__a21oi_1
*CAP
1 *1285:B 4.49944e-05
2 *1284:Y 4.49944e-05
3 *1285:B *1284:B1 6.67195e-05
4 *1400:D *1285:B 2.16833e-05
*RES
1 *1284:Y *1285:B 4.265 
*END

*D_NET *225 0.00384092
*CONN
*I *1291:C1 I *D sky130_fd_sc_hd__o221a_1
*I *1290:B1 I *D sky130_fd_sc_hd__o211a_1
*I *1286:Y O *D sky130_fd_sc_hd__a21oi_1
*CAP
1 *1291:C1 3.98673e-05
2 *1290:B1 0.000171419
3 *1286:Y 0.00116762
4 *225:14 0.00137891
5 *1290:B1 *1287:B1_N 8.78813e-05
6 *1290:B1 *1288:B1 4.40899e-05
7 *1290:B1 *1290:C1 0.000118513
8 *1290:B1 *317:30 2.11084e-05
9 *1290:B1 *343:12 0
10 *1290:B1 *392:10 0
11 *1291:C1 *1288:B1 2.75538e-05
12 *1291:C1 *1291:B2 4.18603e-06
13 *1291:C1 *392:10 0
14 *225:14 *1291:A2 0.000161529
15 *225:14 *372:34 0.000219354
16 *225:14 *391:60 0.000112751
17 *1222:A *225:14 0
18 *1222:C_N *225:14 0.000226855
19 *1286:A2 *225:14 5.92849e-05
20 *1384:D *225:14 0
*RES
1 *1286:Y *225:14 25.63 
2 *225:14 *1290:B1 7.47 
3 *225:14 *1291:C1 4.47 
*END

*D_NET *226 0.00138404
*CONN
*I *1289:A2 I *D sky130_fd_sc_hd__o21ai_1
*I *1291:A2 I *D sky130_fd_sc_hd__o221a_1
*I *1288:A2 I *D sky130_fd_sc_hd__o21a_1
*I *1287:Y O *D sky130_fd_sc_hd__a21boi_1
*CAP
1 *1289:A2 0
2 *1291:A2 0.000131418
3 *1288:A2 2.88696e-05
4 *1287:Y 0.000168329
5 *226:12 0.00019146
6 *226:6 0.000199502
7 *1288:A2 *372:34 1.83756e-05
8 *1291:A2 *1291:B1 0.000129422
9 *1291:A2 *372:34 7.12688e-05
10 *226:6 *1288:B1 2.75229e-05
11 *226:6 *391:10 9.52646e-05
12 *226:12 *1288:B1 9.37731e-05
13 *226:12 *343:12 5.39718e-05
14 *171:18 *226:6 1.33293e-05
15 *225:14 *1291:A2 0.000161529
*RES
1 *1287:Y *226:6 3.775 
2 *226:6 *226:12 5.125 
3 *226:12 *1288:A2 2.05 
4 *226:12 *1291:A2 4.825 
5 *226:6 *1289:A2 1.6 
*END

*D_NET *227 0.000289438
*CONN
*I *1291:B1 I *D sky130_fd_sc_hd__o221a_1
*I *1288:X O *D sky130_fd_sc_hd__o21a_1
*CAP
1 *1291:B1 4.389e-05
2 *1288:X 4.389e-05
3 *1291:B1 *372:34 7.22354e-05
4 *1291:A2 *1291:B1 0.000129422
*RES
1 *1288:X *1291:B1 4.7 
*END

*D_NET *228 0.000350087
*CONN
*I *1290:C1 I *D sky130_fd_sc_hd__o211a_1
*I *1289:Y O *D sky130_fd_sc_hd__o21ai_1
*CAP
1 *1290:C1 9.16438e-05
2 *1289:Y 9.16438e-05
3 *1290:C1 *1371:A2 0
4 *1290:B1 *1290:C1 0.000118513
5 *171:18 *1290:C1 4.82863e-05
*RES
1 *1289:Y *1290:C1 9.03 
*END

*D_NET *229 0.00319218
*CONN
*I *1318:B I *D sky130_fd_sc_hd__nor2_1
*I *1296:C I *D sky130_fd_sc_hd__or3_2
*I *1295:X O *D sky130_fd_sc_hd__and4_1
*CAP
1 *1318:B 0.000220227
2 *1296:C 0.000361986
3 *1295:X 0.000221245
4 *229:10 0.000803457
5 *1296:C *1169:A 4.82919e-05
6 *1296:C *1169:B 4.78537e-05
7 *1296:C *1169:D_N 0
8 *1296:C *1193:A 0
9 *1296:C *1296:A 3.70488e-05
10 *1296:C *1296:B 1.08758e-05
11 *1296:C *230:6 7.60965e-05
12 *1296:C *230:22 0.000206541
13 *1318:B *1171:C 0.000178482
14 *1318:B *335:43 6.00003e-05
15 *1318:B *337:27 4.5783e-05
16 *1318:B *337:44 2.86623e-05
17 *1318:B *375:54 0.000201503
18 *229:10 *230:22 0.000234685
19 *229:10 *337:18 7.3664e-05
20 *229:10 *337:27 1.70935e-05
21 *1297:B1 *1296:C 0.000129465
22 *139:12 *1318:B 3.09233e-05
23 *139:12 *229:10 0.000158297
*RES
1 *1295:X *229:10 7.665 
2 *229:10 *1296:C 11.685 
3 *229:10 *1318:B 9.135 
*END

*D_NET *230 0.00421306
*CONN
*I *1297:A2 I *D sky130_fd_sc_hd__o21a_1
*I *1314:B1 I *D sky130_fd_sc_hd__a31o_1
*I *1313:B1 I *D sky130_fd_sc_hd__a31o_1
*I *1372:B I *D sky130_fd_sc_hd__nor3_1
*I *1296:X O *D sky130_fd_sc_hd__or3_2
*CAP
1 *1297:A2 0
2 *1314:B1 2.24916e-05
3 *1313:B1 0.00037556
4 *1372:B 0.000152858
5 *1296:X 7.45199e-05
6 *230:24 0.000624633
7 *230:22 0.000652612
8 *230:6 0.000608426
9 *1313:B1 *1542:A 8.65961e-05
10 *1372:B *1314:A3 0
11 *1372:B *1372:C 4.80285e-05
12 *230:22 *1169:C 3.68769e-05
13 *230:22 *335:10 9.37731e-05
14 *230:22 *335:32 8.53113e-06
15 *230:22 *337:18 0.000196376
16 *230:24 *1314:A3 0
17 *1295:C *1314:B1 0.000124895
18 *1295:C *230:22 8.49205e-05
19 *1295:D *230:22 9.2741e-05
20 *1296:C *230:6 7.60965e-05
21 *1296:C *230:22 0.000206541
22 *1314:A1 *230:22 0
23 *1314:A1 *230:24 0
24 *1429:D *1372:B 1.17409e-05
25 *138:12 *1372:B 7.71016e-05
26 *138:12 *230:22 2.59981e-05
27 *138:12 *230:24 0.000101317
28 *138:49 *230:22 8.49205e-05
29 *139:12 *230:22 3.72504e-05
30 *139:24 *1314:B1 7.35729e-05
31 *229:10 *230:22 0.000234685
*RES
1 *1296:X *230:6 2.74 
2 *230:6 *230:22 16.335 
3 *230:22 *230:24 2.145 
4 *230:24 *1372:B 6.375 
5 *230:24 *1313:B1 9.225 
6 *230:22 *1314:B1 4.74 
7 *230:6 *1297:A2 1.6 
*END

*D_NET *231 0.00857808
*CONN
*I *1309:B1 I *D sky130_fd_sc_hd__o211a_1
*I *1299:C1 I *D sky130_fd_sc_hd__o211a_1
*I *1350:A1 I *D sky130_fd_sc_hd__a21o_1
*I *1349:B I *D sky130_fd_sc_hd__and3_1
*I *1351:B I *D sky130_fd_sc_hd__and3_1
*I *1346:A I *D sky130_fd_sc_hd__nand2_1
*I *1298:X O *D sky130_fd_sc_hd__and4_1
*CAP
1 *1309:B1 0.000106785
2 *1299:C1 4.76177e-05
3 *1350:A1 0
4 *1349:B 6.96525e-05
5 *1351:B 0.000192248
6 *1346:A 0.000229391
7 *1298:X 0.000468782
8 *231:45 0.000457467
9 *231:39 0.000824757
10 *231:33 0.00116939
11 *231:29 0.000748699
12 *231:14 0.000847501
13 *1299:C1 *343:33 0.0001249
14 *1309:B1 *1309:A1 0.00028585
15 *1309:B1 *1309:C1 0.000122331
16 *1309:B1 *292:140 9.66106e-05
17 *1309:B1 *292:147 0.000106791
18 *1346:A *1309:A1 5.39961e-05
19 *1346:A *1414:CLK 0.000186099
20 *1346:A *258:41 0
21 *1349:B *1350:A2 6.21553e-05
22 *1349:B *272:6 4.66108e-05
23 *1349:B *272:17 2.46089e-05
24 *1351:B *1212:A 0.000234674
25 *1351:B *1357:C 3.86607e-05
26 *1351:B *346:42 4.05358e-05
27 *231:14 *1306:C 0
28 *231:14 *1306:D 0
29 *231:14 *1348:B 6.69832e-06
30 *231:14 *1348:C 0.000125503
31 *231:14 *239:12 0
32 *231:29 *1309:A1 0.000151327
33 *231:29 *1348:C 5.83121e-06
34 *231:29 *292:140 5.83121e-06
35 *231:33 *1299:A2 0
36 *231:33 *1309:C1 0
37 *231:33 *369:25 0.000554869
38 *231:33 *369:31 0.000114492
39 *231:33 *369:61 0
40 *231:39 *1299:B1 0
41 *231:39 *291:25 0.00013521
42 *231:39 *291:60 1.44259e-05
43 *231:39 *317:14 0.000534193
44 *231:39 *369:61 0
45 *231:39 *369:90 0
46 *231:45 *1350:A2 7.06865e-05
47 *231:45 *1357:C 0
48 *231:45 *272:17 3.90349e-05
49 *231:45 *317:14 0.000197637
50 *1418:D *231:14 3.62197e-05
*RES
1 *1298:X *231:14 11.93 
2 *231:14 *1346:A 9.92 
3 *231:14 *231:29 2.865 
4 *231:29 *231:33 12.305 
5 *231:33 *231:39 11.63 
6 *231:39 *231:45 5.21 
7 *231:45 *1351:B 10.645 
8 *231:45 *1349:B 4.92 
9 *231:39 *1350:A1 1.6 
10 *231:33 *1299:C1 4.74 
11 *231:29 *1309:B1 6.205 
*END

*D_NET *232 0.00102909
*CONN
*I *1303:C I *D sky130_fd_sc_hd__or4_1
*I *1304:A3 I *D sky130_fd_sc_hd__o41ai_1
*I *1299:X O *D sky130_fd_sc_hd__o211a_1
*CAP
1 *1303:C 0.000181357
2 *1304:A3 2.52017e-05
3 *1299:X 0.000120103
4 *232:10 0.000326661
5 *1303:C *1303:D 4.67114e-05
6 *1303:C *1313:A1 4.82919e-05
7 *1303:C *361:18 4.40972e-05
8 *1304:A3 *1304:B1 1.01661e-05
9 *1304:A3 *1313:A1 3.09164e-05
10 *1304:A3 *238:12 0
11 *232:10 *1313:A1 7.06865e-05
12 *232:10 *238:12 0
13 *232:10 *343:33 0.000124895
*RES
1 *1299:X *232:10 5.61 
2 *232:10 *1304:A3 4.215 
3 *232:10 *1303:C 6.6 
*END

*D_NET *233 0.00180772
*CONN
*I *1302:A I *D sky130_fd_sc_hd__or2_1
*I *1305:B I *D sky130_fd_sc_hd__or3_2
*I *1300:X O *D sky130_fd_sc_hd__or2_1
*CAP
1 *1302:A 0.000100806
2 *1305:B 0
3 *1300:X 0.000530547
4 *233:10 0.000631353
5 *1302:A *1305:A 7.89689e-05
6 *1302:A *291:60 0.000132096
7 *233:10 *1305:A 4.13171e-05
8 *233:10 *1366:B 0
9 *233:10 *1526:A 2.65814e-06
10 *233:10 *234:10 3.84409e-05
11 *233:10 *291:60 5.4003e-05
12 *233:10 *291:66 0.000160658
13 *233:10 *291:70 0
14 *233:10 *291:72 0
15 *1424:D *233:10 3.68769e-05
*RES
1 *1300:X *233:10 13.005 
2 *233:10 *1305:B 3.6 
3 *233:10 *1302:A 6.135 
*END

*D_NET *234 0.00223998
*CONN
*I *1302:B I *D sky130_fd_sc_hd__or2_1
*I *1305:C I *D sky130_fd_sc_hd__or3_2
*I *1301:X O *D sky130_fd_sc_hd__or3_1
*CAP
1 *1302:B 0.000163958
2 *1305:C 5.49999e-05
3 *1301:X 0.000609464
4 *234:10 0.000828422
5 *1302:B *291:60 0.000178255
6 *1302:B *291:66 3.09233e-05
7 *1305:C *1390:CLK 4.66108e-05
8 *234:10 *1354:B 2.93678e-05
9 *234:10 *1355:C 1.16854e-05
10 *234:10 *291:66 0.000141599
11 *234:10 *347:12 1.52352e-05
12 *234:10 *347:16 9.10218e-05
13 *233:10 *234:10 3.84409e-05
*RES
1 *1301:X *234:10 13.695 
2 *234:10 *1305:C 4.395 
3 *234:10 *1302:B 6.795 
*END

*D_NET *235 0.00114591
*CONN
*I *1303:D I *D sky130_fd_sc_hd__or4_1
*I *1304:A4 I *D sky130_fd_sc_hd__o41ai_1
*I *1302:X O *D sky130_fd_sc_hd__or2_1
*CAP
1 *1303:D 4.18238e-05
2 *1304:A4 0
3 *1302:X 0.000400395
4 *235:12 0.000442219
5 *1303:D *1313:A1 2.75229e-05
6 *1303:D *361:18 0.0001249
7 *235:12 *238:12 0
8 *235:12 *317:14 6.23375e-05
9 *1303:C *1303:D 4.67114e-05
*RES
1 *1302:X *235:12 11.195 
2 *235:12 *1304:A4 1.6 
3 *235:12 *1303:D 3.1 
*END

*D_NET *236 0.0026036
*CONN
*I *1371:A2 I *D sky130_fd_sc_hd__o221a_1
*I *1303:X O *D sky130_fd_sc_hd__or4_1
*CAP
1 *1371:A2 0.000803215
2 *1303:X 0.000803215
3 *1371:A2 *1317:A_N 0.000175855
4 *1371:A2 *1369:A2 0
5 *1371:A2 *1413:CLK 0.000104424
6 *1371:A2 *1440:A 0.000242077
7 *1371:A2 *1441:A 0.000211107
8 *1371:A2 *250:10 0
9 *1371:A2 *317:30 0.000198945
10 *1371:A2 *343:8 0
11 *1371:A2 *343:12 0
12 *1290:C1 *1371:A2 0
13 *1427:D *1371:A2 6.47594e-05
14 *138:16 *1371:A2 0
*RES
1 *1303:X *1371:A2 25.71 
*END

*D_NET *237 0.00368217
*CONN
*I *1313:A1 I *D sky130_fd_sc_hd__a31o_1
*I *1304:Y O *D sky130_fd_sc_hd__o41ai_1
*CAP
1 *1313:A1 0.00101047
2 *1304:Y 0.00101047
3 *1313:A1 *1212:A 0
4 *1313:A1 *1304:B1 6.10014e-05
5 *1313:A1 *1309:A2 0.000174236
6 *1313:A1 *1310:C 0.000220275
7 *1313:A1 *1313:A3 9.42224e-05
8 *1313:A1 *1317:B 0
9 *1313:A1 *1333:B 3.86607e-05
10 *1313:A1 *1333:C 0.000359917
11 *1313:A1 *1440:A 0
12 *1313:A1 *1441:A 0
13 *1313:A1 *238:12 0
14 *1313:A1 *242:10 0.000252282
15 *1313:A1 *356:73 0.000141599
16 *1313:A1 *374:8 0
17 *1303:C *1313:A1 4.82919e-05
18 *1303:D *1313:A1 2.75229e-05
19 *1304:A3 *1313:A1 3.09164e-05
20 *139:24 *1313:A1 0.000141606
21 *232:10 *1313:A1 7.06865e-05
*RES
1 *1304:Y *1313:A1 28.755 
*END

*D_NET *238 0.0057366
*CONN
*I *1312:B1 I *D sky130_fd_sc_hd__a2111o_1
*I *1308:A2 I *D sky130_fd_sc_hd__o31ai_1
*I *1310:B I *D sky130_fd_sc_hd__or3_1
*I *1316:C I *D sky130_fd_sc_hd__nor4_1
*I *1305:X O *D sky130_fd_sc_hd__or3_2
*CAP
1 *1312:B1 0.000101556
2 *1308:A2 0.00012337
3 *1310:B 9.04022e-05
4 *1316:C 6.38406e-05
5 *1305:X 0.00108987
6 *238:27 0.000234649
7 *238:16 0.000197552
8 *238:12 0.00130426
9 *1308:A2 *1308:B1 4.47125e-05
10 *1308:A2 *1313:A2 0.00016063
11 *1308:A2 *1313:A3 6.10014e-05
12 *1308:A2 *1316:D 1.46828e-05
13 *1308:A2 *1542:A 0.000152571
14 *1308:A2 *240:6 6.74384e-05
15 *1312:B1 *300:10 6.01793e-05
16 *238:12 *1299:A1 0.000429843
17 *238:12 *1299:B1 9.42585e-05
18 *238:12 *1305:A 0.000175855
19 *238:12 *1309:A2 0
20 *238:12 *1309:C1 0.000487985
21 *238:12 *1310:C 0
22 *238:12 *1333:B 0
23 *238:12 *242:10 0
24 *238:12 *292:140 0
25 *238:12 *300:10 4.80285e-05
26 *238:12 *346:10 6.10014e-05
27 *238:12 *356:73 0
28 *238:12 *362:10 0
29 *238:12 *369:25 0
30 *238:16 *1310:C 4.48373e-06
31 *238:16 *1316:D 1.70935e-05
32 *238:16 *362:10 0
33 *238:16 *362:23 0
34 *238:27 *1313:A3 1.07797e-05
35 *238:27 *1316:D 1.71207e-05
36 *238:27 *1542:A 8.53113e-06
37 *1170:A *1310:B 4.66108e-05
38 *1170:A *1316:C 0.000160635
39 *1304:A3 *238:12 0
40 *1312:D1 *1312:B1 8.8266e-05
41 *1312:D1 *238:16 0.000206123
42 *1312:D1 *238:27 2.92496e-05
43 *1313:A1 *238:12 0
44 *139:26 *1310:B 8.40269e-05
45 *232:10 *238:12 0
46 *235:12 *238:12 0
*RES
1 *1305:X *238:12 27.92 
2 *238:12 *238:16 4.655 
3 *238:16 *1316:C 5.085 
4 *238:16 *238:27 0.615 
5 *238:27 *1310:B 4.74 
6 *238:27 *1308:A2 7.3275 
7 *238:12 *1312:B1 3.43 
*END

*D_NET *239 0.00158479
*CONN
*I *1347:A2 I *D sky130_fd_sc_hd__a31o_1
*I *1307:C1 I *D sky130_fd_sc_hd__o211a_1
*I *1340:A I *D sky130_fd_sc_hd__and2_1
*I *1306:X O *D sky130_fd_sc_hd__and4_1
*CAP
1 *1347:A2 1.78507e-05
2 *1307:C1 0.00011665
3 *1340:A 0
4 *1306:X 0.00023223
5 *239:18 0.000243388
6 *239:12 0.000376819
7 *1307:C1 *258:16 7.88397e-05
8 *1347:A2 *300:10 2.86975e-05
9 *239:12 *1298:D 9.05377e-05
10 *239:12 *1306:D 5.53249e-06
11 *239:12 *1347:A1 2.23589e-05
12 *239:12 *1347:B1 0.000163204
13 *239:12 *300:10 0.000118969
14 *239:12 *360:45 2.7881e-05
15 *239:12 *370:20 0
16 *239:18 *258:16 2.97004e-06
17 *239:18 *258:26 5.88561e-05
18 *239:18 *360:45 0
19 *1418:D *239:12 0
20 *231:14 *239:12 0
*RES
1 *1306:X *239:12 11.105 
2 *239:12 *239:18 3.995 
3 *239:18 *1340:A 3.6 
4 *239:18 *1307:C1 6 
5 *239:12 *1347:A2 2.05 
*END

*D_NET *240 0.00143471
*CONN
*I *1308:A3 I *D sky130_fd_sc_hd__o31ai_1
*I *1316:D I *D sky130_fd_sc_hd__nor4_1
*I *1307:X O *D sky130_fd_sc_hd__o211a_1
*CAP
1 *1308:A3 0
2 *1316:D 0.000174256
3 *1307:X 0.00022811
4 *240:6 0.000402366
5 *1316:D *1313:A2 8.65905e-05
6 *1316:D *1542:A 7.06865e-05
7 *1316:D *362:23 0
8 *240:6 *1307:A1 2.75145e-05
9 *240:6 *334:8 0.000160211
10 *240:6 *362:34 5.09024e-05
11 *1170:A *240:6 9.10452e-05
12 *1308:A2 *1316:D 1.46828e-05
13 *1308:A2 *240:6 6.74384e-05
14 *1316:B *1316:D 2.66935e-05
15 *238:16 *1316:D 1.70935e-05
16 *238:27 *1316:D 1.71207e-05
*RES
1 *1307:X *240:6 6.19 
2 *240:6 *1316:D 8.735 
3 *240:6 *1308:A3 1.6 
*END

*D_NET *241 0.000588594
*CONN
*I *1313:A2 I *D sky130_fd_sc_hd__a31o_1
*I *1308:Y O *D sky130_fd_sc_hd__o31ai_1
*CAP
1 *1313:A2 0.000138742
2 *1308:Y 0.000138742
3 *1313:A2 *1542:A 6.3889e-05
4 *1308:A2 *1313:A2 0.00016063
5 *1316:D *1313:A2 8.65905e-05
*RES
1 *1308:Y *1313:A2 6.08 
*END

*D_NET *242 0.00136612
*CONN
*I *1310:C I *D sky130_fd_sc_hd__or3_1
*I *1312:C1 I *D sky130_fd_sc_hd__a2111o_1
*I *1309:X O *D sky130_fd_sc_hd__o211a_1
*CAP
1 *1310:C 0.000102848
2 *1312:C1 0
3 *1309:X 0.000202926
4 *242:10 0.000305775
5 *1310:C *1313:A3 0.00011852
6 *242:10 *292:147 0.000124007
7 *1312:D1 *1310:C 3.50033e-05
8 *1313:A1 *1310:C 0.000220275
9 *1313:A1 *242:10 0.000252282
10 *238:12 *1310:C 0
11 *238:12 *242:10 0
12 *238:16 *1310:C 4.48373e-06
*RES
1 *1309:X *242:10 7.65 
2 *242:10 *1312:C1 3.6 
3 *242:10 *1310:C 6.81 
*END

*D_NET *243 0.00128992
*CONN
*I *1314:A3 I *D sky130_fd_sc_hd__a31o_1
*I *1371:B1 I *D sky130_fd_sc_hd__o221a_1
*I *1310:X O *D sky130_fd_sc_hd__or3_1
*CAP
1 *1314:A3 0.000165508
2 *1371:B1 0.000108164
3 *1310:X 0.000221731
4 *243:8 0.000495403
5 *1314:A3 *1320:B 0.000171417
6 *1371:B1 *1320:B 0.000116629
7 *1371:B1 *1372:C 0
8 *1371:B1 *250:10 5.53249e-06
9 *1314:A1 *1314:A3 5.53249e-06
10 *1372:B *1314:A3 0
11 *138:12 *1371:B1 0
12 *138:16 *1371:B1 0
13 *230:24 *1314:A3 0
*RES
1 *1310:X *243:8 6.465 
2 *243:8 *1371:B1 6 
3 *243:8 *1314:A3 7.275 
*END

*D_NET *244 0.00157543
*CONN
*I *1369:A2 I *D sky130_fd_sc_hd__a31o_1
*I *1371:B2 I *D sky130_fd_sc_hd__o221a_1
*I *1317:A_N I *D sky130_fd_sc_hd__nand2b_1
*I *1311:Y O *D sky130_fd_sc_hd__nand2_1
*CAP
1 *1369:A2 0.000175314
2 *1371:B2 2.20737e-05
3 *1317:A_N 0.00010256
4 *1311:Y 0.000107991
5 *244:19 0.000222237
6 *244:6 0.000235401
7 *1317:A_N *1441:A 0.000139245
8 *1317:A_N *250:10 9.68787e-05
9 *1369:A2 *302:78 3.78597e-05
10 *1371:B2 *1312:A2 0
11 *1371:B2 *302:78 9.26175e-06
12 *244:6 *1312:A2 4.99619e-05
13 *244:6 *302:78 5.78185e-05
14 *244:19 *302:78 1.34594e-05
15 *1371:A1 *1369:A2 5.05437e-05
16 *1371:A2 *1317:A_N 0.000175855
17 *1371:A2 *1369:A2 0
18 *138:16 *1369:A2 7.89689e-05
*RES
1 *1311:Y *244:6 3.43 
2 *244:6 *1317:A_N 9.275 
3 *244:6 *244:19 0.48375 
4 *244:19 *1371:B2 2.09875 
5 *244:19 *1369:A2 9.03125 
*END

*D_NET *245 0.000828604
*CONN
*I *1313:A3 I *D sky130_fd_sc_hd__a31o_1
*I *1312:X O *D sky130_fd_sc_hd__a2111o_1
*CAP
1 *1313:A3 0.000167193
2 *1312:X 0.000167193
3 *1313:A3 *300:10 4.66826e-05
4 *1308:A2 *1313:A3 6.10014e-05
5 *1310:C *1313:A3 0.00011852
6 *1312:D1 *1313:A3 0.000163012
7 *1313:A1 *1313:A3 9.42224e-05
8 *238:27 *1313:A3 1.07797e-05
*RES
1 *1312:X *1313:A3 11.415 
*END

*D_NET *246 0.00231573
*CONN
*I *1370:B I *D sky130_fd_sc_hd__nor2_1
*I *1319:B I *D sky130_fd_sc_hd__xor2_1
*I *1313:X O *D sky130_fd_sc_hd__a31o_1
*CAP
1 *1370:B 0.000154527
2 *1319:B 0
3 *1313:X 0.000339463
4 *246:10 0.00049399
5 *1370:B *1430:CLK 4.82863e-05
6 *1370:B *1512:A 4.82863e-05
7 *1370:B *1515:A 0.0003884
8 *246:10 *1308:B1 0.0002337
9 *246:10 *1515:A 0.000467472
10 *1316:B *246:10 0
11 *1428:D *1370:B 0.000141606
*RES
1 *1313:X *246:10 11.55 
2 *246:10 *1319:B 3.6 
3 *246:10 *1370:B 8.49 
*END

*D_NET *247 0.00148202
*CONN
*I *1373:B I *D sky130_fd_sc_hd__and2_1
*I *1315:B I *D sky130_fd_sc_hd__nand2b_1
*I *1314:X O *D sky130_fd_sc_hd__a31o_1
*CAP
1 *1373:B 0.000218004
2 *1315:B 7.97661e-06
3 *1314:X 0.000256368
4 *247:10 0.000482349
5 *1315:B *1320:C 2.25285e-05
6 *1315:B *1370:A 1.20789e-05
7 *1373:B *1320:D 0
8 *1373:B *1370:A 0
9 *1373:B *338:10 0.000196422
10 *1373:B *338:16 4.43871e-06
11 *247:10 *1171:B 0
12 *247:10 *1320:B 9.70869e-05
13 *247:10 *338:16 0.000100528
14 *1295:C *247:10 7.00889e-06
15 *1430:D *1373:B 3.64998e-06
16 *138:10 *247:10 0
17 *140:38 *247:10 7.35813e-05
*RES
1 *1314:X *247:10 8.16 
2 *247:10 *1315:B 3.8175 
3 *247:10 *1373:B 8.235 
*END

*D_NET *248 9.40065e-05
*CONN
*I *1320:A I *D sky130_fd_sc_hd__and4_1
*I *1315:Y O *D sky130_fd_sc_hd__nand2b_1
*CAP
1 *1320:A 7.00326e-06
2 *1315:Y 7.00326e-06
3 *1320:A *1320:C 3.00381e-05
4 *1320:A *1370:A 4.99619e-05
*RES
1 *1315:Y *1320:A 3.65 
*END

*D_NET *249 0.00100863
*CONN
*I *1542:A I *D sky130_fd_sc_hd__clkbuf_1
*I *1316:Y O *D sky130_fd_sc_hd__nor4_1
*CAP
1 *1542:A 0.000226582
2 *1316:Y 0.000226582
3 *1542:A *1308:B1 0.0001249
4 *1170:A *1542:A 4.82919e-05
5 *1308:A2 *1542:A 0.000152571
6 *1313:A2 *1542:A 6.3889e-05
7 *1313:B1 *1542:A 8.65961e-05
8 *1316:B *1542:A 0
9 *1316:D *1542:A 7.06865e-05
10 *238:27 *1542:A 8.53113e-06
*RES
1 *1316:Y *1542:A 12.15 
*END

*D_NET *250 0.00226565
*CONN
*I *1320:B I *D sky130_fd_sc_hd__and4_1
*I *1371:C1 I *D sky130_fd_sc_hd__o221a_1
*I *1317:Y O *D sky130_fd_sc_hd__nand2b_1
*CAP
1 *1320:B 0.000519317
2 *1371:C1 0
3 *1317:Y 0.000235421
4 *250:10 0.000754738
5 *1320:B *1320:C 8.65905e-05
6 *1320:B *374:8 0
7 *250:10 *1317:B 0
8 *250:10 *1441:A 9.37731e-05
9 *250:10 *292:147 8.8266e-05
10 *250:10 *374:8 0
11 *1314:A1 *1320:B 0
12 *1314:A3 *1320:B 0.000171417
13 *1317:A_N *250:10 9.68787e-05
14 *1371:A2 *250:10 0
15 *1371:B1 *1320:B 0.000116629
16 *1371:B1 *250:10 5.53249e-06
17 *138:12 *1320:B 0
18 *138:16 *250:10 0
19 *139:24 *1320:B 0
20 *140:14 *1320:B 0
21 *247:10 *1320:B 9.70869e-05
*RES
1 *1317:Y *250:10 8.07 
2 *250:10 *1371:C1 3.6 
3 *250:10 *1320:B 13.935 
*END

*D_NET *251 0.000630864
*CONN
*I *1320:C I *D sky130_fd_sc_hd__and4_1
*I *1318:Y O *D sky130_fd_sc_hd__nor2_1
*CAP
1 *1320:C 0.0001947
2 *1318:Y 0.0001947
3 *1320:C *1370:A 7.47838e-05
4 *1320:C *375:54 2.75229e-05
5 *1315:B *1320:C 2.25285e-05
6 *1320:A *1320:C 3.00381e-05
7 *1320:B *1320:C 8.65905e-05
*RES
1 *1318:Y *1320:C 6.755 
*END

*D_NET *252 0.00036816
*CONN
*I *1320:D I *D sky130_fd_sc_hd__and4_1
*I *1319:X O *D sky130_fd_sc_hd__xor2_1
*CAP
1 *1320:D 0.000174888
2 *1319:X 0.000174888
3 *1320:D *1370:A 0
4 *1320:D *1515:A 0
5 *1320:D *253:10 1.83847e-05
6 *1373:B *1320:D 0
*RES
1 *1319:X *1320:D 9.975 
*END

*D_NET *253 0.00343022
*CONN
*I *1447:A I *D sky130_fd_sc_hd__clkbuf_2
*I *1448:A I *D sky130_fd_sc_hd__buf_1
*I *1320:X O *D sky130_fd_sc_hd__and4_1
*CAP
1 *1447:A 0.000368348
2 *1448:A 2.61242e-05
3 *1320:X 0.00083801
4 *253:10 0.00123248
5 *1447:A *1520:A 0
6 *1447:A *292:105 0.000162894
7 *1447:A *369:12 0.000432442
8 *1447:A *369:25 0
9 *1448:A *355:49 4.66108e-05
10 *253:10 *292:105 0.000139238
11 *253:10 *355:8 4.88287e-05
12 *253:10 *355:49 0.000116853
13 *1320:D *253:10 1.83847e-05
*RES
1 *1320:X *253:10 13.965 
2 *253:10 *1448:A 4.05 
3 *253:10 *1447:A 11.7 
*END

*D_NET *254 0.000323269
*CONN
*I *1324:B I *D sky130_fd_sc_hd__and3_1
*I *1322:Y O *D sky130_fd_sc_hd__nand2_1
*CAP
1 *1324:B 0.00013762
2 *1322:Y 0.00013762
3 *1324:B *1324:A 4.80285e-05
*RES
1 *1322:Y *1324:B 4.685 
*END

*D_NET *255 0.000456194
*CONN
*I *1324:C I *D sky130_fd_sc_hd__and3_1
*I *1323:X O *D sky130_fd_sc_hd__or2_1
*CAP
1 *1324:C 0.000176565
2 *1323:X 0.000176565
3 *1324:C *1323:A 4.9253e-06
4 *1324:C *1324:A 9.16333e-06
5 *1324:C *1410:CLK 0
6 *1324:C *1510:A 0
7 *1324:C *1532:A 8.89751e-05
*RES
1 *1323:X *1324:C 10.05 
*END

*D_NET *256 0.00082319
*CONN
*I *1327:B I *D sky130_fd_sc_hd__and3_1
*I *1325:Y O *D sky130_fd_sc_hd__nand3_1
*CAP
1 *1327:B 0.000238528
2 *1325:Y 0.000238528
3 *1327:B *345:31 0.000346135
*RES
1 *1325:Y *1327:B 6.41 
*END

*D_NET *257 0.000225876
*CONN
*I *1327:C I *D sky130_fd_sc_hd__and3_1
*I *1326:X O *D sky130_fd_sc_hd__a21o_1
*CAP
1 *1327:C 5.75964e-05
2 *1326:X 5.75964e-05
3 *1327:C *292:46 0.000110683
*RES
1 *1326:X *1327:C 4.22 
*END

*D_NET *258 0.00733402
*CONN
*I *1330:A_N I *D sky130_fd_sc_hd__and3b_1
*I *1340:B I *D sky130_fd_sc_hd__and2_1
*I *1332:B I *D sky130_fd_sc_hd__or2_1
*I *1331:B I *D sky130_fd_sc_hd__nand2_1
*I *1335:A2 I *D sky130_fd_sc_hd__a21o_1
*I *1334:C I *D sky130_fd_sc_hd__and3_2
*I *1347:A3 I *D sky130_fd_sc_hd__a31o_1
*I *1328:X O *D sky130_fd_sc_hd__and4_1
*CAP
1 *1330:A_N 0
2 *1340:B 0
3 *1332:B 0.000382438
4 *1331:B 0.000217312
5 *1335:A2 0
6 *1334:C 0.000242052
7 *1347:A3 0
8 *1328:X 0.000189523
9 *258:56 0.000236167
10 *258:47 0.0003461
11 *258:41 0.000959324
12 *258:26 0.00070032
13 *258:16 0.00069094
14 *258:10 0.000671836
15 *1331:B *356:10 0.00019637
16 *1331:B *356:12 0.000348281
17 *1334:C *356:12 2.20014e-05
18 *1334:C *356:18 2.47149e-05
19 *1334:C *357:16 0.000384923
20 *258:10 *353:35 0.000118081
21 *258:10 *354:12 0.000136877
22 *258:10 *355:49 4.24242e-05
23 *258:10 *370:12 0.000129047
24 *258:16 *1307:B1 0
25 *258:16 *1535:A 0
26 *258:16 *266:10 7.00889e-06
27 *258:16 *292:32 0
28 *258:16 *354:12 0.000208491
29 *258:16 *360:45 0
30 *258:16 *362:36 0
31 *258:16 *370:12 3.09233e-05
32 *258:26 *360:45 0
33 *258:41 *1348:C 5.32493e-05
34 *258:41 *1414:CLK 0
35 *258:41 *300:10 0.000192136
36 *258:41 *369:25 0.000540888
37 *258:47 *1414:CLK 0
38 *258:47 *369:25 0.000112783
39 *258:56 *1335:A1 9.13949e-06
40 *1307:C1 *258:16 7.88397e-05
41 *1346:A *258:41 0
42 *239:18 *258:16 2.97004e-06
43 *239:18 *258:26 5.88561e-05
*RES
1 *1328:X *258:10 7.065 
2 *258:10 *258:16 11.06 
3 *258:16 *258:26 7.135 
4 *258:26 *1347:A3 1.6 
5 *258:26 *258:41 12.845 
6 *258:41 *258:47 3.83 
7 *258:47 *1334:C 6.19 
8 *258:47 *258:56 0.36 
9 *258:56 *1335:A2 1.6 
10 *258:56 *1331:B 6.535 
11 *258:41 *1332:B 8.535 
12 *258:16 *1340:B 1.6 
13 *258:10 *1330:A_N 3.6 
*END

*D_NET *259 0.000572455
*CONN
*I *1330:B I *D sky130_fd_sc_hd__and3b_1
*I *1329:X O *D sky130_fd_sc_hd__a31o_1
*CAP
1 *1330:B 0.000174881
2 *1329:X 0.000174881
3 *1330:B *1329:A2 1.31297e-05
4 *1330:B *1329:A3 0.00020338
5 *1330:B *292:38 6.18325e-06
*RES
1 *1329:X *1330:B 10.14 
*END

*D_NET *260 0.000363634
*CONN
*I *1333:B I *D sky130_fd_sc_hd__and3_1
*I *1331:Y O *D sky130_fd_sc_hd__nand2_1
*CAP
1 *1333:B 0.00014084
2 *1331:Y 0.00014084
3 *1313:A1 *1333:B 3.86607e-05
4 *1439:A *1333:B 4.32926e-05
5 *238:12 *1333:B 0
*RES
1 *1331:Y *1333:B 9.21 
*END

*D_NET *261 0.000868881
*CONN
*I *1333:C I *D sky130_fd_sc_hd__and3_1
*I *1332:X O *D sky130_fd_sc_hd__or2_1
*CAP
1 *1333:C 0.000206452
2 *1332:X 0.000206452
3 *1333:C *1440:A 0
4 *1333:C *1441:A 0
5 *1313:A1 *1333:C 0.000359917
6 *1413:D *1333:C 7.89689e-05
7 *1439:A *1333:C 1.70906e-05
*RES
1 *1332:X *1333:C 12 
*END

*D_NET *262 0.00639005
*CONN
*I *1336:A_N I *D sky130_fd_sc_hd__and3b_1
*I *1341:A2 I *D sky130_fd_sc_hd__a21o_1
*I *1346:B I *D sky130_fd_sc_hd__nand2_1
*I *1350:A2 I *D sky130_fd_sc_hd__a21o_1
*I *1349:C I *D sky130_fd_sc_hd__and3_1
*I *1351:C I *D sky130_fd_sc_hd__and3_1
*I *1338:B I *D sky130_fd_sc_hd__or2_1
*I *1337:B I *D sky130_fd_sc_hd__nand2_1
*I *1334:X O *D sky130_fd_sc_hd__and3_2
*CAP
1 *1336:A_N 0
2 *1341:A2 0.000173315
3 *1346:B 0.000401349
4 *1350:A2 0.000173789
5 *1349:C 0
6 *1351:C 0
7 *1338:B 0
8 *1337:B 9.73191e-06
9 *1334:X 0.000122486
10 *262:73 0.000766536
11 *262:51 0.000197292
12 *262:44 0.000182833
13 *262:29 0.000325291
14 *262:23 0.000357834
15 *262:14 0.000248094
16 *262:12 0.000360848
17 *1337:B *358:29 4.82863e-05
18 *1341:A2 *1342:B 0
19 *1341:A2 *1342:C 0
20 *1341:A2 *1416:CLK 0
21 *1346:B *359:12 3.72916e-05
22 *1350:A2 *1349:A 1.70906e-05
23 *1350:A2 *1357:C 5.04256e-05
24 *1350:A2 *317:14 0.000197535
25 *1350:A2 *346:27 0.000195859
26 *1350:A2 *346:42 0
27 *1350:A2 *361:12 6.21477e-06
28 *262:12 *1531:A 5.51158e-05
29 *262:12 *356:18 4.77774e-05
30 *262:14 *358:29 8.49205e-05
31 *262:29 *1338:A 0.000163942
32 *262:29 *1339:C 6.57032e-05
33 *262:29 *1436:A 0
34 *262:29 *1531:A 2.75229e-05
35 *262:29 *358:29 7.89034e-05
36 *262:29 *372:16 6.28843e-05
37 *262:44 *1338:A 3.66286e-05
38 *262:44 *1349:A 6.16151e-05
39 *262:44 *1415:CLK 4.70995e-05
40 *262:44 *1531:A 0.000134938
41 *262:44 *343:33 0.000169018
42 *262:44 *346:42 9.50342e-06
43 *262:44 *361:12 6.32851e-05
44 *262:51 *1349:A 0.000181965
45 *262:51 *361:12 0.000170307
46 *262:73 *1342:B 0
47 *262:73 *1342:C 0
48 *262:73 *358:29 1.52184e-05
49 *262:73 *372:16 0.000170315
50 *1349:B *1350:A2 6.21553e-05
51 *1416:D *262:73 7.21296e-06
52 *3:15 *1337:B 4.82863e-05
53 *3:15 *262:14 0.000682943
54 *231:45 *1350:A2 7.06865e-05
*RES
1 *1334:X *262:12 7.685 
2 *262:12 *262:14 6.315 
3 *262:14 *1337:B 2.05 
4 *262:14 *262:23 2 
5 *262:23 *262:29 6.635 
6 *262:29 *1338:B 1.6 
7 *262:29 *262:44 8.38 
8 *262:44 *1351:C 1.6 
9 *262:44 *262:51 1.65 
10 *262:51 *1349:C 1.6 
11 *262:51 *1350:A2 10.25 
12 *262:23 *262:73 4.185 
13 *262:73 *1346:B 9.57 
14 *262:73 *1341:A2 6.555 
15 *262:12 *1336:A_N 1.6 
*END

*D_NET *263 0.000399426
*CONN
*I *1336:B I *D sky130_fd_sc_hd__and3b_1
*I *1335:X O *D sky130_fd_sc_hd__a21o_1
*CAP
1 *1336:B 0.000118468
2 *1335:X 0.000118468
3 *1336:B *1414:CLK 9.98831e-05
4 *1336:B *357:12 3.86607e-05
5 *3:15 *1336:B 2.39461e-05
*RES
1 *1335:X *1336:B 9.21 
*END

*D_NET *264 0.000749243
*CONN
*I *1339:B I *D sky130_fd_sc_hd__and3_1
*I *1337:Y O *D sky130_fd_sc_hd__nand2_1
*CAP
1 *1339:B 0.000199484
2 *1337:Y 0.000199484
3 *1339:B *1339:C 0
4 *1339:B *1536:A 0.000187071
5 *1339:B *372:16 0
6 *3:15 *1339:B 0.000163204
*RES
1 *1337:Y *1339:B 10.83 
*END

*D_NET *265 0.000694095
*CONN
*I *1339:C I *D sky130_fd_sc_hd__and3_1
*I *1338:X O *D sky130_fd_sc_hd__or2_1
*CAP
1 *1339:C 0.000239934
2 *1338:X 0.000239934
3 *1339:C *1339:A 0.000139994
4 *1339:C *1536:A 0
5 *1339:C *372:16 8.53113e-06
6 *1339:B *1339:C 0
7 *262:29 *1339:C 6.57032e-05
*RES
1 *1338:X *1339:C 10.7325 
*END

*D_NET *266 0.00385606
*CONN
*I *1344:B I *D sky130_fd_sc_hd__or2_1
*I *1343:B I *D sky130_fd_sc_hd__nand2_1
*I *1342:A_N I *D sky130_fd_sc_hd__and3b_1
*I *1340:X O *D sky130_fd_sc_hd__and2_1
*CAP
1 *1344:B 0
2 *1343:B 0.000165068
3 *1342:A_N 0.000378164
4 *1340:X 0.000740505
5 *266:12 0.000543232
6 *266:10 0.000740505
7 *1342:A_N *1532:A 0.000442439
8 *1342:A_N *358:39 0.000314407
9 *1343:B *1532:A 0.000232258
10 *266:10 *1344:A 2.16833e-05
11 *266:10 *1417:CLK 8.49205e-05
12 *266:10 *360:8 6.51523e-05
13 group_timeout_count[4] *1342:A_N 0.000106344
14 group_timeout_count[7] *1342:A_N 0
15 *1417:D *266:10 1.43717e-05
16 *1479:A *1342:A_N 0
17 *258:16 *266:10 7.00889e-06
*RES
1 *1340:X *266:10 10.45 
2 *266:10 *266:12 2 
3 *266:12 *1342:A_N 13.395 
4 *266:12 *1343:B 7.05 
5 *266:10 *1344:B 1.6 
*END

*D_NET *267 0.000743627
*CONN
*I *1342:B I *D sky130_fd_sc_hd__and3b_1
*I *1341:X O *D sky130_fd_sc_hd__a21o_1
*CAP
1 *1342:B 0.000180543
2 *1341:X 0.000180543
3 *1342:B *1416:CLK 0.000118513
4 *1342:B *1530:A 2.49909e-05
5 *1342:B *358:39 0.000139835
6 *1342:B *372:16 4.78859e-05
7 *1341:A2 *1342:B 0
8 *1416:D *1342:B 5.13155e-05
9 *262:73 *1342:B 0
*RES
1 *1341:X *1342:B 11.835 
*END

*D_NET *268 0.000933986
*CONN
*I *1345:B I *D sky130_fd_sc_hd__and3_1
*I *1343:Y O *D sky130_fd_sc_hd__nand2_1
*CAP
1 *1345:B 0.000273685
2 *1343:Y 0.000273685
3 *1345:B *1344:A 5.23362e-05
4 *1345:B *1345:C 7.23602e-05
5 *1345:B *1416:CLK 4.02505e-05
6 *1345:B *1434:A 0
7 *1345:B *1533:A 7.57302e-05
8 *1345:B *292:60 1.07797e-05
9 *1345:B *360:23 7.06865e-05
10 *1417:D *1345:B 3.18219e-05
11 *1471:A *1345:B 3.26513e-05
*RES
1 *1343:Y *1345:B 12.18 
*END

*D_NET *269 0.000328495
*CONN
*I *1345:C I *D sky130_fd_sc_hd__and3_1
*I *1344:X O *D sky130_fd_sc_hd__or2_1
*CAP
1 *1345:C 6.38032e-05
2 *1344:X 6.38032e-05
3 *1345:C *1345:A 5.45011e-05
4 *1345:C *1416:CLK 7.4027e-05
5 *1345:B *1345:C 7.23602e-05
*RES
1 *1344:X *1345:C 8.58 
*END

*D_NET *270 0.000216937
*CONN
*I *1348:B I *D sky130_fd_sc_hd__and3_1
*I *1346:Y O *D sky130_fd_sc_hd__nand2_1
*CAP
1 *1348:B 9.0726e-05
2 *1346:Y 9.0726e-05
3 *1348:B *1306:C 2.87867e-05
4 *231:14 *1348:B 6.69832e-06
*RES
1 *1346:Y *1348:B 8.52 
*END

*D_NET *271 0.00132459
*CONN
*I *1348:C I *D sky130_fd_sc_hd__and3_1
*I *1347:X O *D sky130_fd_sc_hd__a31o_1
*CAP
1 *1348:C 0.000295579
2 *1347:X 0.000295579
3 *1348:C *1309:A1 0.000271334
4 *1348:C *1414:CLK 0.000206824
5 *1348:C *292:32 7.06865e-05
6 *231:14 *1348:C 0.000125503
7 *231:29 *1348:C 5.83121e-06
8 *258:41 *1348:C 5.32493e-05
*RES
1 *1347:X *1348:C 13.56 
*END

*D_NET *272 0.00279236
*CONN
*I *1353:B I *D sky130_fd_sc_hd__nand2_1
*I *1356:A2 I *D sky130_fd_sc_hd__a21o_1
*I *1354:B I *D sky130_fd_sc_hd__or2_1
*I *1352:A_N I *D sky130_fd_sc_hd__and3b_1
*I *1349:X O *D sky130_fd_sc_hd__and3_1
*CAP
1 *1353:B 2.48066e-05
2 *1356:A2 0.000149431
3 *1354:B 8.00774e-05
4 *1352:A_N 0
5 *1349:X 8.18912e-05
6 *272:19 0.000346455
7 *272:17 0.000369729
8 *272:6 0.000309867
9 *1353:B *369:90 2.68526e-05
10 *1354:B *1353:A 0
11 *1354:B *1355:C 7.4027e-05
12 *1354:B *347:12 0
13 *1354:B *347:16 4.77757e-05
14 *1354:B *369:92 3.09164e-05
15 *1354:B *369:96 0.000140912
16 *1356:A2 *1356:A1 2.05056e-05
17 *1356:A2 *1357:A 4.99619e-05
18 *1356:A2 *1357:C 1.70906e-05
19 *1356:A2 *1358:B 0.000349587
20 *272:6 *291:29 0.000200615
21 *272:17 *1352:B 7.4027e-05
22 *272:17 *1357:C 0
23 *272:17 *291:29 4.82863e-05
24 *272:17 *369:90 0
25 *272:19 *1353:A 0
26 *272:19 *1355:B 7.23533e-05
27 *272:19 *1357:C 0
28 *272:19 *369:90 0.000116853
29 *272:19 *369:92 2.07184e-05
30 *1349:B *272:6 4.66108e-05
31 *1349:B *272:17 2.46089e-05
32 *231:45 *272:17 3.90349e-05
33 *234:10 *1354:B 2.93678e-05
*RES
1 *1349:X *272:6 3.43 
2 *272:6 *1352:A_N 1.6 
3 *272:6 *272:17 6.125 
4 *272:17 *272:19 2.4 
5 *272:19 *1354:B 5.94 
6 *272:19 *1356:A2 7.155 
7 *272:17 *1353:B 4.05 
*END

*D_NET *273 0.000795827
*CONN
*I *1352:B I *D sky130_fd_sc_hd__and3b_1
*I *1350:X O *D sky130_fd_sc_hd__a21o_1
*CAP
1 *1352:B 0.000237282
2 *1350:X 0.000237282
3 *1352:B *1212:A 0.00019898
4 *1352:B *291:29 4.82554e-05
5 *272:17 *1352:B 7.4027e-05
*RES
1 *1350:X *1352:B 10.695 
*END

*D_NET *274 0.000892257
*CONN
*I *1357:C I *D sky130_fd_sc_hd__and3_1
*I *1351:X O *D sky130_fd_sc_hd__and3_1
*CAP
1 *1357:C 0.000346504
2 *1351:X 0.000346504
3 *1357:C *1357:B 9.30717e-05
4 *1357:C *1521:A 0
5 *1357:C *346:42 0
6 *1357:C *369:90 0
7 *1350:A2 *1357:C 5.04256e-05
8 *1351:B *1357:C 3.86607e-05
9 *1356:A2 *1357:C 1.70906e-05
10 *231:45 *1357:C 0
11 *272:17 *1357:C 0
12 *272:19 *1357:C 0
*RES
1 *1351:X *1357:C 13.335 
*END

*D_NET *275 0.000274245
*CONN
*I *1355:B I *D sky130_fd_sc_hd__and3_1
*I *1353:Y O *D sky130_fd_sc_hd__nand2_1
*CAP
1 *1355:B 7.70569e-05
2 *1353:Y 7.70569e-05
3 *1355:B *369:90 4.77774e-05
4 *272:19 *1355:B 7.23533e-05
*RES
1 *1353:Y *1355:B 8.52 
*END

*D_NET *276 0.000566362
*CONN
*I *1355:C I *D sky130_fd_sc_hd__and3_1
*I *1354:X O *D sky130_fd_sc_hd__or2_1
*CAP
1 *1355:C 0.000162581
2 *1354:X 0.000162581
3 *1355:C *347:12 6.90456e-05
4 *1355:C *347:16 8.64421e-05
5 *1354:B *1355:C 7.4027e-05
6 *234:10 *1355:C 1.16854e-05
*RES
1 *1354:X *1355:C 9.72 
*END

*D_NET *277 0.000460487
*CONN
*I *1358:C I *D sky130_fd_sc_hd__and3b_1
*I *1356:X O *D sky130_fd_sc_hd__a21o_1
*CAP
1 *1358:C 0.000129936
2 *1356:X 0.000129936
3 *1358:C *348:16 0.000200615
*RES
1 *1356:X *1358:C 5.03 
*END

*D_NET *278 0.00473304
*CONN
*I *1358:A_N I *D sky130_fd_sc_hd__and3b_1
*I *1363:C I *D sky130_fd_sc_hd__and3_1
*I *1359:B I *D sky130_fd_sc_hd__or2_1
*I *1360:B I *D sky130_fd_sc_hd__and2_1
*I *1357:X O *D sky130_fd_sc_hd__and3_1
*CAP
1 *1358:A_N 6.86625e-05
2 *1363:C 0.000333446
3 *1359:B 0
4 *1360:B 0.000246827
5 *1357:X 0.000258535
6 *278:14 0.00101692
7 *278:10 0.000763847
8 *1358:A_N *1358:B 4.82863e-05
9 *1358:A_N *348:16 0.000198939
10 *1360:B *1360:A 4.66108e-05
11 *1360:B *1362:B 3.90495e-05
12 *1360:B *1524:A 2.92496e-05
13 *1360:B *349:29 0
14 *1360:B *349:31 0.000152328
15 *1363:C *1361:B 0.000124747
16 *1363:C *1362:B 0.0001249
17 *1363:C *1363:B 2.66586e-05
18 *1363:C *1364:A_N 5.30673e-05
19 *1363:C *1364:C 0.000163199
20 *1363:C *1365:B 3.80483e-05
21 *1363:C *369:106 1.47347e-05
22 *278:10 *1357:B 4.66108e-05
23 *278:10 *1358:B 0.000538549
24 *278:10 *1518:A 1.94723e-05
25 *278:14 *1301:B 0
26 *278:14 *1518:A 0.00014499
27 *278:14 *349:29 0.000147093
28 *1421:D *278:10 8.8266e-05
29 *3:15 *1360:B 0
*RES
1 *1357:X *278:10 9.15 
2 *278:10 *278:14 10.52 
3 *278:14 *1360:B 9.095 
4 *278:14 *1359:B 1.6 
5 *278:14 *1363:C 9.07 
6 *278:10 *1358:A_N 5.43 
*END

*D_NET *279 0.000369191
*CONN
*I *1361:C I *D sky130_fd_sc_hd__and3b_1
*I *1359:X O *D sky130_fd_sc_hd__or2_1
*CAP
1 *1361:C 0.000115677
2 *1359:X 0.000115677
3 *1361:C *1361:A_N 0
4 *1361:C *1361:B 8.67423e-05
5 *1361:C *349:29 5.10957e-05
6 *3:15 *1361:C 0
*RES
1 *1359:X *1361:C 9.54 
*END

*D_NET *280 0.001083
*CONN
*I *1362:B I *D sky130_fd_sc_hd__or2_1
*I *1361:A_N I *D sky130_fd_sc_hd__and3b_1
*I *1360:X O *D sky130_fd_sc_hd__and2_1
*CAP
1 *1362:B 0.000126314
2 *1361:A_N 0.000185722
3 *1360:X 0
4 *280:4 0.000312035
5 *1361:A_N *1360:A 2.31229e-05
6 *1361:A_N *349:31 1.03423e-05
7 *1362:B *1360:A 4.00541e-06
8 *1362:B *1361:B 9.36617e-05
9 *1362:B *349:31 0.000124895
10 *1360:B *1362:B 3.90495e-05
11 *1361:C *1361:A_N 0
12 *1363:C *1362:B 0.0001249
13 *3:15 *1361:A_N 3.89528e-05
*RES
1 *1360:X *280:4 1.6 
2 *280:4 *1361:A_N 8.21 
3 *280:4 *1362:B 5.335 
*END

*D_NET *281 0.000320197
*CONN
*I *1364:C I *D sky130_fd_sc_hd__and3b_1
*I *1362:X O *D sky130_fd_sc_hd__or2_1
*CAP
1 *1364:C 7.84989e-05
2 *1362:X 7.84989e-05
3 *1363:C *1364:C 0.000163199
*RES
1 *1362:X *1364:C 4.685 
*END

*D_NET *282 0.000561233
*CONN
*I *1365:B I *D sky130_fd_sc_hd__xor2_1
*I *1364:A_N I *D sky130_fd_sc_hd__and3b_1
*I *1363:X O *D sky130_fd_sc_hd__and3_1
*CAP
1 *1365:B 0.000111274
2 *1364:A_N 1.44798e-05
3 *1363:X 2.08101e-05
4 *282:6 0.000146564
5 *1364:A_N *1363:B 5.30673e-05
6 *1365:B *1363:B 5.30673e-05
7 *1365:B *351:16 7.08554e-05
8 *1363:C *1364:A_N 5.30673e-05
9 *1363:C *1365:B 3.80483e-05
*RES
1 *1363:X *282:6 1.96 
2 *282:6 *1364:A_N 2.395 
3 *282:6 *1365:B 4.12 
*END

*D_NET *283 0.000797164
*CONN
*I *1366:B I *D sky130_fd_sc_hd__and2_1
*I *1365:X O *D sky130_fd_sc_hd__xor2_1
*CAP
1 *1366:B 0.000330879
2 *1365:X 0.000330879
3 *1366:B *352:21 8.14331e-05
4 *1424:D *1366:B 5.39718e-05
5 *233:10 *1366:B 0
*RES
1 *1365:X *1366:B 12.45 
*END

*D_NET *284 0.000329099
*CONN
*I *1372:C I *D sky130_fd_sc_hd__nor3_1
*I *1371:X O *D sky130_fd_sc_hd__o221a_1
*CAP
1 *1372:C 0.000104853
2 *1371:X 0.000104853
3 *1371:B1 *1372:C 0
4 *1372:B *1372:C 4.80285e-05
5 *1429:D *1372:C 5.83121e-06
6 *138:12 *1372:C 6.55328e-05
*RES
1 *1371:X *1372:C 9.375 
*END

*D_NET *285 0.000756924
*CONN
*I *1377:A1 I *D sky130_fd_sc_hd__o211a_1
*I *1374:Y O *D sky130_fd_sc_hd__o21bai_1
*CAP
1 *1377:A1 0.000127234
2 *1374:Y 0.000127234
3 *1377:A1 *1374:A1 6.81374e-05
4 *1377:A1 *1377:A2 0.000198939
5 *1377:A1 *302:22 0.000136459
6 *1222:B *1377:A1 1.83756e-05
7 *1375:A1 *1377:A1 8.53113e-06
8 *162:36 *1377:A1 7.20129e-05
*RES
1 *1374:Y *1377:A1 11.01 
*END

*D_NET *286 0.000551936
*CONN
*I *1377:A2 I *D sky130_fd_sc_hd__o211a_1
*I *1375:X O *D sky130_fd_sc_hd__o31a_1
*CAP
1 *1377:A2 9.05627e-05
2 *1375:X 9.05627e-05
3 *1377:A2 *1378:A3 0.000161529
4 *1222:B *1377:A2 1.03423e-05
5 *1377:A1 *1377:A2 0.000198939
*RES
1 *1375:X *1377:A2 5.735 
*END

*D_NET *287 0.00119564
*CONN
*I *1377:B1 I *D sky130_fd_sc_hd__o211a_1
*I *1376:X O *D sky130_fd_sc_hd__or3_1
*CAP
1 *1377:B1 0.000262869
2 *1376:X 0.000262869
3 *1377:B1 *1442:A 2.04147e-05
4 *1227:A1 *1377:B1 5.83373e-05
5 *1227:A3 *1377:B1 0.000116158
6 *1376:A *1377:B1 2.11084e-05
7 *1377:C1 *1377:B1 7.63125e-05
8 *154:10 *1377:B1 0.00022921
9 *162:21 *1377:B1 5.04825e-05
10 *184:8 *1377:B1 9.78798e-05
*RES
1 *1376:X *1377:B1 13.365 
*END

*D_NET *288 0.00291447
*CONN
*I *1378:A3 I *D sky130_fd_sc_hd__o31ai_1
*I *1377:X O *D sky130_fd_sc_hd__o211a_1
*CAP
1 *1378:A3 0.000915162
2 *1377:X 0.000915162
3 *1378:A3 *302:74 0
4 *1378:A3 *375:89 0.000155928
5 *1192:A3 *1378:A3 0.000449212
6 *1194:B *1378:A3 6.29692e-05
7 *1194:C_N *1378:A3 2.78732e-05
8 *1222:B *1378:A3 1.57776e-05
9 *1377:A2 *1378:A3 0.000161529
10 *135:101 *1378:A3 0.000139076
11 *153:10 *1378:A3 0
12 *153:23 *1378:A3 7.17811e-05
13 *154:10 *1378:A3 0
*RES
1 *1377:X *1378:A3 25.215 
*END

*D_NET *289 0.000328378
*CONN
*I *1380:A2 I *D sky130_fd_sc_hd__a21oi_1
*I *1379:X O *D sky130_fd_sc_hd__or4_1
*CAP
1 *1380:A2 0.000115259
2 *1379:X 0.000115259
3 *1380:A2 *1286:B1 0
4 *1380:A2 *1379:A 4.00541e-06
5 *1380:A2 *1379:D 5.91678e-05
6 *1380:A2 *1380:B1 1.16578e-05
7 *145:27 *1380:A2 2.30292e-05
*RES
1 *1379:X *1380:A2 5.42 
*END

*D_NET *290 0.00887065
*CONN
*I *1443:A I *D sky130_fd_sc_hd__clkbuf_16
*I *1442:A I *D sky130_fd_sc_hd__clkbuf_16
*I *1441:A I *D sky130_fd_sc_hd__clkbuf_16
*I *1440:A I *D sky130_fd_sc_hd__clkbuf_16
*I *1439:X O *D sky130_fd_sc_hd__clkbuf_16
*CAP
1 *1443:A 0.000430903
2 *1442:A 0.000443983
3 *1441:A 0.000348033
4 *1440:A 0.000414369
5 *1439:X 0
6 *290:30 0.00105172
7 *290:8 0.00141852
8 *290:4 0.000832958
9 *1440:A *1212:A 0.000175848
10 *1440:A *317:14 0
11 *1441:A *1317:B 0
12 *1441:A *1369:A3 4.66108e-05
13 *1442:A *1213:A 0.00011379
14 *1442:A *1401:CLK 9.30717e-05
15 *1443:A *1402:CLK 0.000158101
16 *1443:A *294:35 4.7043e-05
17 *1443:A *302:16 4.82919e-05
18 *1443:A *309:10 3.68682e-05
19 *1443:A *375:28 0.000426206
20 *1213:B *1442:A 7.36562e-05
21 *1227:A1 *1442:A 2.49e-05
22 *1227:A3 *1442:A 0.000117657
23 *1228:A1 *1442:A 0.00015639
24 *1228:A3 *1442:A 8.49205e-05
25 *1229:A_N *1442:A 0.000107415
26 *1229:B *1442:A 0.000362921
27 *1291:A1 *290:8 0.000247561
28 *1313:A1 *1440:A 0
29 *1313:A1 *1441:A 0
30 *1317:A_N *1441:A 0.000139245
31 *1333:C *1440:A 0
32 *1333:C *1441:A 0
33 *1371:A2 *1440:A 0.000242077
34 *1371:A2 *1441:A 0.000211107
35 *1377:B1 *1442:A 2.04147e-05
36 *1384:D *1442:A 2.75145e-05
37 *1384:D *1443:A 0.000522864
38 *1413:D *1441:A 0
39 *1439:A *290:8 0.000138743
40 *135:101 *1442:A 2.93262e-05
41 *135:103 *1442:A 6.42468e-05
42 *184:8 *1442:A 0.000119601
43 *250:10 *1441:A 9.37731e-05
*RES
1 *1439:X *290:4 1.6 
2 *290:4 *290:8 12.455 
3 *290:8 *1440:A 12.375 
4 *290:8 *1441:A 11.55 
5 *290:4 *290:30 2.52 
6 *290:30 *1442:A 17.42 
7 *290:30 *1443:A 17 
*END

*D_NET *291 0.0176178
*CONN
*I *1390:CLK I *D sky130_fd_sc_hd__dfxtp_1
*I *1420:CLK I *D sky130_fd_sc_hd__dfxtp_1
*I *1389:CLK I *D sky130_fd_sc_hd__dfxtp_1
*I *1424:CLK I *D sky130_fd_sc_hd__dfxtp_1
*I *1422:CLK I *D sky130_fd_sc_hd__dfxtp_1
*I *1388:CLK I *D sky130_fd_sc_hd__dfxtp_1
*I *1391:CLK I *D sky130_fd_sc_hd__dfxtp_1
*I *1385:CLK I *D sky130_fd_sc_hd__dfxtp_1
*I *1423:CLK I *D sky130_fd_sc_hd__dfxtp_1
*I *1386:CLK I *D sky130_fd_sc_hd__dfxtp_1
*I *1419:CLK I *D sky130_fd_sc_hd__dfxtp_1
*I *1415:CLK I *D sky130_fd_sc_hd__dfxtp_1
*I *1421:CLK I *D sky130_fd_sc_hd__dfxtp_1
*I *1444:A I *D sky130_fd_sc_hd__clkbuf_4
*I *1440:X O *D sky130_fd_sc_hd__clkbuf_16
*CAP
1 *1390:CLK 0.000809247
2 *1420:CLK 0
3 *1389:CLK 0.00025216
4 *1424:CLK 0
5 *1422:CLK 0.00137978
6 *1388:CLK 0.000297194
7 *1391:CLK 0.000618354
8 *1385:CLK 0
9 *1423:CLK 0.000438159
10 *1386:CLK 0.000272415
11 *1419:CLK 0
12 *1415:CLK 0.000464527
13 *1421:CLK 0.00017697
14 *1444:A 1.16861e-05
15 *1440:X 1.25806e-05
16 *291:158 0.000809247
17 *291:89 0.00058177
18 *291:87 0.000761964
19 *291:76 0.000539464
20 *291:74 0.000657457
21 *291:72 0.0015203
22 *291:70 0.000312744
23 *291:66 0.000703732
24 *291:60 0.000310956
25 *291:29 0.00087078
26 *291:25 0.000651124
27 *291:8 0.00044899
28 *291:6 0.000152869
29 *1386:CLK *1526:A 0
30 *1386:CLK *371:63 0
31 *1386:CLK *373:79 0
32 *1386:CLK *373:92 0.00038133
33 *1388:CLK *1255:B1 4.82863e-05
34 *1389:CLK *1256:A 3.66579e-05
35 *1391:CLK *1253:A 0.000124895
36 *1391:CLK *1462:A 0.000269521
37 *1391:CLK *325:12 0.000199833
38 *1415:CLK *1338:A 8.5225e-05
39 *1415:CLK *1339:A 3.2645e-05
40 *1415:CLK *1436:A 0
41 *1415:CLK *1518:A 0
42 *1415:CLK *346:42 2.7881e-05
43 *1415:CLK *358:10 3.1835e-05
44 *1421:CLK *1518:A 0
45 *1421:CLK *1521:A 0.000105068
46 *1421:CLK *346:42 8.42239e-05
47 *1422:CLK *349:29 6.46704e-05
48 *1423:CLK *351:14 1.9872e-05
49 *1444:A *317:14 4.82919e-05
50 *1444:A *346:23 4.66108e-05
51 *291:6 *317:14 7.57202e-05
52 *291:6 *346:23 8.65961e-05
53 *291:8 *317:14 7.49327e-05
54 *291:8 *346:23 8.49205e-05
55 *291:25 *346:10 0
56 *291:25 *361:12 0.000160897
57 *291:29 *361:12 0.000728165
58 *291:60 *1305:A 5.93674e-05
59 *291:76 *1526:A 0
60 *291:76 *373:79 0
61 *1256:B *1389:CLK 5.05437e-05
62 *1256:B *291:70 0
63 *1302:A *291:60 0.000132096
64 *1302:B *291:60 0.000178255
65 *1302:B *291:66 3.09233e-05
66 *1305:C *1390:CLK 4.66108e-05
67 *1352:B *291:29 4.82554e-05
68 *1385:D *1386:CLK 4.19884e-05
69 *1385:D *291:89 1.43717e-05
70 *1388:D *1388:CLK 6.00111e-05
71 *1415:D *1415:CLK 7.84644e-05
72 *1421:D *1421:CLK 2.97004e-06
73 *1422:D *1422:CLK 3.19808e-05
74 *1423:D *1423:CLK 0.000113414
75 *1424:D *1422:CLK 5.40924e-05
76 *196:18 *291:70 0
77 *196:18 *291:72 0
78 *196:18 *291:74 0
79 *196:18 *291:76 0
80 *231:39 *291:25 0.00013521
81 *231:39 *291:60 1.44259e-05
82 *233:10 *291:60 5.4003e-05
83 *233:10 *291:66 0.000160658
84 *233:10 *291:70 0
85 *233:10 *291:72 0
86 *234:10 *291:66 0.000141599
87 *262:44 *1415:CLK 4.70995e-05
88 *272:6 *291:29 0.000200615
89 *272:17 *291:29 4.82863e-05
*RES
1 *1440:X *291:6 2.395 
2 *291:6 *291:8 0.795 
3 *291:8 *1444:A 2.05 
4 *291:8 *291:25 10.15 
5 *291:25 *291:29 8.66 
6 *291:29 *1421:CLK 7.53 
7 *291:29 *1415:CLK 10.755 
8 *291:25 *1419:CLK 1.6 
9 *291:6 *291:60 5.93 
10 *291:60 *291:66 5.72 
11 *291:66 *291:70 6.44 
12 *291:70 *291:72 0.87 
13 *291:72 *291:74 1.38 
14 *291:74 *291:76 4.44 
15 *291:76 *1386:CLK 9.57 
16 *291:76 *291:87 2 
17 *291:87 *291:89 2.175 
18 *291:89 *1423:CLK 8.605 
19 *291:89 *1385:CLK 1.6 
20 *291:87 *1391:CLK 12.52 
21 *291:74 *1388:CLK 8.19 
22 *291:72 *1422:CLK 20.775 
23 *291:70 *1424:CLK 3.6 
24 *291:66 *1389:CLK 5.515 
25 *291:60 *291:158 2 
26 *291:158 *1420:CLK 1.6 
27 *291:158 *1390:CLK 13.78 
*END

*D_NET *292 0.0188963
*CONN
*I *1429:CLK I *D sky130_fd_sc_hd__dfxtp_1
*I *1413:CLK I *D sky130_fd_sc_hd__dfxtp_1
*I *1427:CLK I *D sky130_fd_sc_hd__dfxtp_1
*I *1445:A I *D sky130_fd_sc_hd__clkbuf_4
*I *1428:CLK I *D sky130_fd_sc_hd__dfxtp_1
*I *1430:CLK I *D sky130_fd_sc_hd__dfxtp_1
*I *1409:CLK I *D sky130_fd_sc_hd__dfxtp_1
*I *1412:CLK I *D sky130_fd_sc_hd__dfxtp_1
*I *1410:CLK I *D sky130_fd_sc_hd__dfxtp_1
*I *1411:CLK I *D sky130_fd_sc_hd__dfxtp_1
*I *1417:CLK I *D sky130_fd_sc_hd__dfxtp_1
*I *1416:CLK I *D sky130_fd_sc_hd__dfxtp_1
*I *1414:CLK I *D sky130_fd_sc_hd__dfxtp_1
*I *1418:CLK I *D sky130_fd_sc_hd__dfxtp_1
*I *1441:X O *D sky130_fd_sc_hd__clkbuf_16
*CAP
1 *1429:CLK 0.000480912
2 *1413:CLK 0.000243471
3 *1427:CLK 1.90984e-05
4 *1445:A 0
5 *1428:CLK 7.41636e-05
6 *1430:CLK 0.000460006
7 *1409:CLK 5.68261e-05
8 *1412:CLK 0
9 *1410:CLK 0.000320251
10 *1411:CLK 0
11 *1417:CLK 2.09714e-05
12 *1416:CLK 0.000227149
13 *1414:CLK 0.000427936
14 *1418:CLK 0.000132993
15 *1441:X 0.000221891
16 *292:156 0.000794647
17 *292:147 0.000551278
18 *292:140 0.000634765
19 *292:111 0.000631112
20 *292:105 0.000539128
21 *292:60 0.000473225
22 *292:54 0.000369209
23 *292:46 0.000774758
24 *292:38 0.00037724
25 *292:32 0.000992359
26 *292:19 0.00100277
27 *292:8 0.00046314
28 *292:6 0.000724888
29 *1410:CLK *1510:A 0.000218775
30 *1410:CLK *1532:A 0
31 *1410:CLK *354:27 0.00019189
32 *1414:CLK *1306:C 0
33 *1414:CLK *1309:A1 1.97849e-05
34 *1414:CLK *1531:A 0
35 *1414:CLK *357:12 2.54692e-05
36 *1414:CLK *369:25 0
37 *1416:CLK *1532:A 0.000257522
38 *1416:CLK *1533:A 0.000151833
39 *1416:CLK *358:39 0.000154741
40 *1416:CLK *359:22 0.000210144
41 *1417:CLK *1344:A 4.82919e-05
42 *1417:CLK *360:8 1.34503e-05
43 *1429:CLK *335:10 0
44 *1429:CLK *375:41 0.000186635
45 *1429:CLK *375:54 1.89685e-05
46 *1430:CLK *1185:A 6.77501e-05
47 *1430:CLK *1370:A 0.00038879
48 *1430:CLK *1512:A 5.93869e-05
49 *292:6 *362:10 4.82919e-05
50 *292:32 *1307:A2 0.000338212
51 *292:32 *1309:A1 0.000231409
52 *292:32 *1329:A2 0
53 *292:32 *354:12 0
54 *292:32 *355:10 6.11019e-05
55 *292:32 *355:12 6.34101e-06
56 *292:32 *355:49 4.43777e-05
57 *292:46 *1330:C 0.00010163
58 *292:46 *345:31 0.000490692
59 *292:46 *370:14 0.000375231
60 *292:54 *1510:A 2.63378e-05
61 *292:54 *1532:A 0
62 *292:54 *1534:A 2.97004e-06
63 *292:54 *354:27 9.50342e-06
64 *292:60 *1344:A 5.4003e-05
65 *292:60 *1532:A 0.000301254
66 *292:60 *1534:A 0.000379354
67 *292:60 *360:23 0.000131401
68 *292:105 *1321:B 4.82919e-05
69 *292:105 *355:49 2.01541e-05
70 *292:105 *369:25 0.000259934
71 *292:111 *369:25 2.92496e-05
72 *292:140 *362:10 1.70935e-05
73 *292:140 *369:25 0.000210839
74 *292:147 *1309:A1 2.20732e-05
75 *292:147 *1309:C1 0.000122331
76 *292:147 *1317:B 0.000175695
77 *1309:B1 *292:140 9.66106e-05
78 *1309:B1 *292:147 0.000106791
79 *1324:C *1410:CLK 0
80 *1327:C *292:46 0.000110683
81 *1330:B *292:38 6.18325e-06
82 *1336:B *1414:CLK 9.98831e-05
83 *1341:A2 *1416:CLK 0
84 *1342:B *1416:CLK 0.000118513
85 *1345:B *1416:CLK 4.02505e-05
86 *1345:B *292:60 1.07797e-05
87 *1345:C *1416:CLK 7.4027e-05
88 *1346:A *1414:CLK 0.000186099
89 *1348:C *1414:CLK 0.000206824
90 *1348:C *292:32 7.06865e-05
91 *1370:B *1430:CLK 4.82863e-05
92 *1371:A2 *1413:CLK 0.000104424
93 *1411:D *292:54 5.39718e-05
94 *1412:D *292:46 2.86975e-05
95 *1418:D *1414:CLK 3.17178e-05
96 *1418:D *1418:CLK 3.18334e-05
97 *1427:D *1413:CLK 2.7881e-05
98 *1427:D *292:156 7.7152e-05
99 *1428:D *292:111 0
100 *1447:A *292:105 0.000162894
101 *3:15 *1414:CLK 3.00381e-05
102 *138:16 *1413:CLK 0.000194464
103 *138:16 *1429:CLK 0
104 *231:29 *292:140 5.83121e-06
105 *238:12 *292:140 0
106 *242:10 *292:147 0.000124007
107 *250:10 *292:147 8.8266e-05
108 *253:10 *292:105 0.000139238
109 *258:16 *292:32 0
110 *258:41 *1414:CLK 0
111 *258:47 *1414:CLK 0
112 *266:10 *1417:CLK 8.49205e-05
*RES
1 *1441:X *292:6 4.12 
2 *292:6 *292:8 3.21 
3 *292:8 *1418:CLK 3.355 
4 *292:8 *292:19 2 
5 *292:19 *1414:CLK 12.825 
6 *292:19 *292:32 11.9625 
7 *292:32 *292:38 3.0275 
8 *292:38 *292:46 10.85 
9 *292:46 *292:54 4.7 
10 *292:54 *292:60 9.365 
11 *292:60 *1416:CLK 11.61 
12 *292:60 *1417:CLK 4.395 
13 *292:54 *1411:CLK 1.6 
14 *292:46 *1410:CLK 10.53 
15 *292:38 *1412:CLK 1.6 
16 *292:32 *292:105 9.2675 
17 *292:105 *292:111 5.89 
18 *292:111 *1409:CLK 2.395 
19 *292:111 *1430:CLK 10.33 
20 *292:105 *1428:CLK 2.74 
21 *292:6 *292:140 7.885 
22 *292:140 *1445:A 1.6 
23 *292:140 *292:147 8.385 
24 *292:147 *1427:CLK 1.96 
25 *292:147 *292:156 1.14 
26 *292:156 *1413:CLK 11.66 
27 *292:156 *1429:CLK 13.835 
*END

*D_NET *293 0.0170669
*CONN
*I *1382:CLK I *D sky130_fd_sc_hd__dfxtp_2
*I *1396:CLK I *D sky130_fd_sc_hd__dfxtp_1
*I *1397:CLK I *D sky130_fd_sc_hd__dfxtp_1
*I *1398:CLK I *D sky130_fd_sc_hd__dfxtp_1
*I *1399:CLK I *D sky130_fd_sc_hd__dfxtp_1
*I *1393:CLK I *D sky130_fd_sc_hd__dfxtp_1
*I *1400:CLK I *D sky130_fd_sc_hd__dfxtp_1
*I *1394:CLK I *D sky130_fd_sc_hd__dfxtp_1
*I *1392:CLK I *D sky130_fd_sc_hd__dfxtp_1
*I *1387:CLK I *D sky130_fd_sc_hd__dfxtp_1
*I *1395:CLK I *D sky130_fd_sc_hd__dfxtp_1
*I *1401:CLK I *D sky130_fd_sc_hd__dfxtp_1
*I *1446:A I *D sky130_fd_sc_hd__clkbuf_8
*I *1442:X O *D sky130_fd_sc_hd__clkbuf_16
*CAP
1 *1382:CLK 0
2 *1396:CLK 0
3 *1397:CLK 0
4 *1398:CLK 2.8043e-05
5 *1399:CLK 0.000380018
6 *1393:CLK 3.37454e-05
7 *1400:CLK 1.04051e-05
8 *1394:CLK 2.08101e-05
9 *1392:CLK 0
10 *1387:CLK 0.000164232
11 *1395:CLK 0
12 *1401:CLK 0.00057844
13 *1446:A 8.91217e-05
14 *1442:X 0
15 *293:138 0.000742146
16 *293:134 0.00055917
17 *293:126 0.000559167
18 *293:118 0.000495036
19 *293:79 0.00112791
20 *293:75 0.0011132
21 *293:73 0.000614135
22 *293:67 0.000935562
23 *293:56 0.000933327
24 *293:42 0.000765882
25 *293:8 0.00100668
26 *293:4 0.000437523
27 *1398:CLK *320:10 2.49909e-05
28 *1399:CLK *1245:A 0
29 *1400:CLK *321:34 0
30 *1401:CLK *1213:A 0.000144435
31 *1401:CLK *391:8 0.000247672
32 *1446:A *302:30 4.99619e-05
33 *293:8 *1491:A 0.000496
34 *293:42 *302:30 0
35 *293:56 *302:30 0
36 *293:67 *1275:A 7.36562e-05
37 *293:67 *1285:A 9.58457e-05
38 *293:67 *373:10 2.46089e-05
39 *293:73 *1285:A 0.000171632
40 *293:73 *321:34 1.44259e-05
41 *293:79 *1270:A 4.79911e-05
42 *293:79 *1270:B 0.000232105
43 *293:79 *1508:A 9.0308e-05
44 *293:79 *330:8 9.43648e-05
45 *293:118 *1214:A 0.000770943
46 *293:126 *301:10 0
47 *293:126 *306:14 4.40556e-05
48 *293:126 *307:10 8.31082e-05
49 *293:134 *306:14 9.32743e-05
50 *293:134 *318:22 5.22973e-05
51 *293:134 *319:10 1.4389e-05
52 *293:134 *371:14 3.67779e-05
53 *293:138 *1198:C 0
54 *293:138 *306:14 7.26551e-05
55 *1199:C *293:67 7.5416e-05
56 *1201:B *293:67 0.000273001
57 *1202:A1 *1401:CLK 0
58 *1202:A1 *1446:A 0
59 *1202:A4 *1446:A 4.43871e-06
60 *1214:C *1401:CLK 4.66108e-05
61 *1215:A1 *293:42 0
62 *1215:A1 *293:56 0
63 *1215:A2 *293:118 0.000279787
64 *1215:B1 *293:118 0.000201503
65 *1220:A_N *1401:CLK 1.85412e-05
66 *1227:A3 *1401:CLK 0.000179015
67 *1227:A3 *1446:A 0.00013521
68 *1270:C *293:79 0.00013106
69 *1274:B1 *293:67 0
70 *1279:A2 *293:134 5.4256e-05
71 *1280:B1_N *293:138 0
72 *1281:A2 *293:73 0
73 *1281:B1 *1399:CLK 0.000183738
74 *1281:B1 *293:138 0.000116165
75 *1283:B1 *1399:CLK 2.11084e-05
76 *1283:C1 *1399:CLK 0
77 *1376:B *1401:CLK 8.38495e-06
78 *1382:D *293:118 0.000136972
79 *1382:D *293:126 0.0001111
80 *1392:D *293:79 1.43717e-05
81 *1393:D *293:73 7.70938e-05
82 *1394:D *293:73 0
83 *1394:D *293:79 1.43717e-05
84 *1395:D *293:56 1.43717e-05
85 *1395:D *293:67 0
86 *1397:D *293:134 4.75576e-05
87 *1397:D *293:138 3.25831e-05
88 *1400:D *293:73 5.02217e-05
89 *1401:D *1401:CLK 1.43717e-05
90 *1442:A *1401:CLK 9.30717e-05
91 *1449:A *293:134 0
92 *1449:A *293:138 0
93 *162:10 *1446:A 2.75145e-05
94 *170:29 *1401:CLK 4.78756e-05
95 *171:18 *1401:CLK 0.000683033
96 *172:21 *1401:CLK 1.33285e-05
97 *193:18 *293:126 0.00012819
98 *193:18 *293:134 0
99 *193:24 *293:134 0
100 *198:22 *293:56 3.34883e-05
101 *198:22 *293:67 0.000201503
102 *198:35 *293:67 2.75538e-05
103 *199:14 *293:67 0
104 *200:10 *293:73 0
105 *200:25 *293:73 0
106 *201:14 *1399:CLK 0
*RES
1 *1442:X *293:4 1.6 
2 *293:4 *293:8 6.59 
3 *293:8 *1446:A 5.685 
4 *293:8 *1401:CLK 18.165 
5 *293:4 *293:42 3.38 
6 *293:42 *293:56 10.13 
7 *293:56 *1395:CLK 1.6 
8 *293:56 *293:67 12.095 
9 *293:67 *293:73 10.46 
10 *293:73 *293:75 1.83 
11 *293:75 *293:79 15.645 
12 *293:79 *1387:CLK 4.12 
13 *293:79 *1392:CLK 1.6 
14 *293:75 *1394:CLK 1.96 
15 *293:73 *1400:CLK 1.96 
16 *293:67 *1393:CLK 4.05 
17 *293:42 *293:118 9.695 
18 *293:118 *293:126 9.155 
19 *293:126 *293:134 6.74 
20 *293:134 *293:138 8.225 
21 *293:138 *1399:CLK 10.275 
22 *293:138 *1398:CLK 4.05 
23 *293:134 *1397:CLK 1.6 
24 *293:126 *1396:CLK 3.6 
25 *293:118 *1382:CLK 1.6 
*END

*D_NET *294 0.0185823
*CONN
*I *1403:CLK I *D sky130_fd_sc_hd__dfxtp_1
*I *1426:CLK I *D sky130_fd_sc_hd__dfxtp_1
*I *1408:CLK I *D sky130_fd_sc_hd__dfxtp_1
*I *1425:CLK I *D sky130_fd_sc_hd__dfxtp_1
*I *1381:CLK I *D sky130_fd_sc_hd__dfxtp_1
*I *1407:CLK I *D sky130_fd_sc_hd__dfxtp_1
*I *1431:CLK I *D sky130_fd_sc_hd__dfxtp_2
*I *1405:CLK I *D sky130_fd_sc_hd__dfxtp_1
*I *1404:CLK I *D sky130_fd_sc_hd__dfxtp_1
*I *1432:CLK I *D sky130_fd_sc_hd__dfxtp_2
*I *1406:CLK I *D sky130_fd_sc_hd__dfxtp_1
*I *1384:CLK I *D sky130_fd_sc_hd__dfxtp_1
*I *1402:CLK I *D sky130_fd_sc_hd__dfxtp_1
*I *1383:CLK I *D sky130_fd_sc_hd__dfxtp_1
*I *1443:X O *D sky130_fd_sc_hd__clkbuf_16
*CAP
1 *1403:CLK 0.000444965
2 *1426:CLK 2.08101e-05
3 *1408:CLK 0.000314562
4 *1425:CLK 3.00522e-05
5 *1381:CLK 0
6 *1407:CLK 0.000115259
7 *1431:CLK 0.000524537
8 *1405:CLK 0.000409552
9 *1404:CLK 3.59579e-05
10 *1432:CLK 0
11 *1406:CLK 0.000118259
12 *1384:CLK 0.000221395
13 *1402:CLK 0.000283355
14 *1383:CLK 0.000631473
15 *1443:X 1.71225e-05
16 *294:142 0.000792293
17 *294:138 0.000906955
18 *294:129 0.000722051
19 *294:125 0.000911974
20 *294:112 0.000390283
21 *294:99 0.000684621
22 *294:84 0.000723792
23 *294:73 0.000559177
24 *294:35 0.000725272
25 *294:33 0.000659751
26 *294:29 0.000888428
27 *294:23 0.000951885
28 *294:8 0.000755559
29 *1383:CLK *1163:A 0.000124895
30 *1383:CLK *1217:C 4.41506e-05
31 *1383:CLK *1374:A1 4.70343e-05
32 *1383:CLK *1380:B1 0
33 *1383:CLK *314:12 0.000426195
34 *1403:CLK *303:8 2.05457e-05
35 *1405:CLK *1210:A 2.30292e-05
36 *1405:CLK *1237:B 3.26889e-05
37 *1405:CLK *305:6 0.000327308
38 *1405:CLK *305:84 3.20268e-05
39 *1405:CLK *305:101 0.000352156
40 *1405:CLK *375:14 0.000365089
41 *1405:CLK *375:20 0.000111302
42 *1406:CLK *302:104 0
43 *1408:CLK *1433:A 0
44 *1408:CLK *1519:A 5.4256e-05
45 *1408:CLK *1541:A 0
46 *1408:CLK *302:104 0.000344601
47 *1408:CLK *335:43 0
48 *1431:CLK *1431:D 3.51254e-06
49 *1431:CLK *375:20 0.000199833
50 *294:8 *1380:B1 5.05437e-05
51 *294:23 *1380:B1 4.19967e-05
52 *294:23 *310:36 0
53 *294:23 *375:26 0
54 *294:29 *1234:A1 5.062e-06
55 *294:29 *310:21 2.77183e-05
56 *294:33 *302:74 0.000289767
57 *294:35 *309:10 0
58 *294:73 *1234:A1 0.000184777
59 *294:73 *1380:B1 0.000177573
60 *294:73 *305:14 0
61 *294:73 *375:26 0
62 *294:84 *1161:A 0
63 *294:84 *305:14 0
64 *294:84 *375:20 0
65 *294:84 *375:26 0
66 *294:99 *1161:A 0
67 *294:99 *375:20 0
68 *294:112 *1161:A 0
69 *294:125 *1161:A 0
70 *294:125 *366:14 0
71 *294:129 *366:8 1.31502e-05
72 *294:138 *366:8 4.99619e-05
73 *294:142 *1185:A 0
74 *294:142 *1185:D_N 5.4155e-06
75 *1218:A2 *1383:CLK 6.05513e-05
76 *1218:A3 *1383:CLK 9.76447e-05
77 *1218:B2 *1383:CLK 4.92096e-05
78 *1219:B *1383:CLK 6.69088e-05
79 *1234:A2 *1404:CLK 9.66106e-05
80 *1237:A *1407:CLK 4.66742e-05
81 *1238:B *1404:CLK 6.69341e-05
82 *1375:A1 *1383:CLK 0
83 *1375:B1 *1383:CLK 0.000651786
84 *1381:D *294:125 0.00013818
85 *1381:D *294:129 4.81438e-05
86 *1383:D *1383:CLK 4.62994e-05
87 *1384:D *1384:CLK 0.000281858
88 *1406:D *1406:CLK 3.89528e-05
89 *1408:D *1408:CLK 5.83121e-06
90 *1425:D *294:142 0.000202686
91 *1426:D *294:138 1.43717e-05
92 *1432:D *294:29 4.91914e-05
93 *1443:A *1402:CLK 0.000158101
94 *1443:A *294:35 4.7043e-05
95 *135:10 *1406:CLK 0
96 *135:10 *294:35 0
97 *135:21 *1406:CLK 0
98 *145:10 *294:8 8.65905e-05
99 *147:16 *1383:CLK 0.000131845
100 *147:16 *294:23 2.97004e-06
*RES
1 *1443:X *294:8 4.395 
2 *294:8 *1383:CLK 19.875 
3 *294:8 *294:23 1.89 
4 *294:23 *294:29 8.585 
5 *294:29 *294:33 7.97 
6 *294:33 *294:35 3.675 
7 *294:35 *1402:CLK 9.18 
8 *294:35 *1384:CLK 7.515 
9 *294:33 *1406:CLK 5.745 
10 *294:29 *1432:CLK 1.6 
11 *294:23 *294:73 6.735 
12 *294:73 *1404:CLK 5.085 
13 *294:73 *294:84 3.93 
14 *294:84 *1405:CLK 14.43 
15 *294:84 *294:99 1.125 
16 *294:99 *1431:CLK 9.84 
17 *294:99 *294:112 1.38 
18 *294:112 *1407:CLK 5.43 
19 *294:112 *294:125 5.675 
20 *294:125 *294:129 3.48 
21 *294:129 *1381:CLK 1.6 
22 *294:129 *294:138 6.24 
23 *294:138 *294:142 6.675 
24 *294:142 *1425:CLK 2.05 
25 *294:142 *1408:CLK 12.275 
26 *294:138 *1426:CLK 1.96 
27 *294:125 *1403:CLK 6.805 
*END

*D_NET *295 0.00113087
*CONN
*I *1225:C I *D sky130_fd_sc_hd__or4_1
*I *1203:B I *D sky130_fd_sc_hd__or3_1
*I *1466:X O *D sky130_fd_sc_hd__clkbuf_1
*CAP
1 *1225:C 3.64804e-05
2 *1203:B 0.000272435
3 *1466:X 0.000101473
4 *295:6 0.000410388
5 *1203:B *1203:A 6.55328e-05
6 *1203:B *1226:A 0
7 *1203:B *339:14 0.000102024
8 *1225:C *1226:A 0.000116165
9 *295:6 *1491:A 8.73389e-06
10 *295:6 *339:14 1.34503e-05
11 *1226:D *1203:B 4.18603e-06
12 *193:18 *1203:B 0
*RES
1 *1466:X *295:6 2.74 
2 *295:6 *1203:B 9.92 
3 *295:6 *1225:C 6.98 
*END

*D_NET *296 0.000661801
*CONN
*I *1225:D I *D sky130_fd_sc_hd__or4_1
*I *1203:C I *D sky130_fd_sc_hd__or3_1
*I *1467:X O *D sky130_fd_sc_hd__clkbuf_1
*CAP
1 *1225:D 0
2 *1203:C 0.000182497
3 *1467:X 5.31875e-05
4 *296:8 0.000235684
5 *1203:C *1225:A 6.83659e-05
6 *1203:C *1225:B 7.83602e-05
7 *1203:C *372:34 2.75229e-05
8 *296:8 *1225:A 1.61831e-05
*RES
1 *1467:X *296:8 2.41 
2 *296:8 *1203:C 4.825 
3 *296:8 *1225:D 1.6 
*END

*D_NET *297 0.00764189
*CONN
*I *1293:B I *D sky130_fd_sc_hd__nor2_1
*I *1292:B I *D sky130_fd_sc_hd__nor2_1
*I *1380:B1 I *D sky130_fd_sc_hd__a21oi_1
*I *1451:A I *D sky130_fd_sc_hd__buf_2
*I *1468:X O *D sky130_fd_sc_hd__buf_1
*CAP
1 *1293:B 0
2 *1292:B 0
3 *1380:B1 0.000594807
4 *1451:A 0.000407087
5 *1468:X 0
6 *297:31 0.00145254
7 *297:21 0.00154566
8 *297:4 0.00109501
9 *1380:B1 *305:14 0
10 *1380:B1 *309:38 9.65676e-05
11 *1380:B1 *375:26 0.000161529
12 *297:21 *1230:B 0
13 *297:21 *1484:A 0
14 *297:21 *1485:A 0
15 *297:21 *1538:A 4.18603e-06
16 *297:21 *395:12 0.000106655
17 *297:31 *1485:A 0
18 *297:31 *1490:A 1.08758e-05
19 *297:31 *1538:A 5.92849e-05
20 *297:31 *309:38 1.9415e-05
21 *297:31 *364:10 0
22 *297:31 *395:12 9.50342e-06
23 global_state_bits[3] *297:21 0
24 global_state_bits[4] *297:21 1.17036e-05
25 *1178:C_N *1380:B1 0.00022921
26 *1231:B1 *297:21 0
27 *1236:C1 *297:31 4.99619e-05
28 *1238:A *297:31 0
29 *1292:A *297:31 0.000280595
30 *1380:A2 *1380:B1 1.16578e-05
31 *1383:CLK *1380:B1 0
32 *1405:D *297:21 9.30717e-05
33 *1432:D *1380:B1 9.52234e-05
34 *1468:A *1451:A 4.99619e-05
35 *134:14 *297:31 0.000363326
36 *145:10 *1380:B1 7.03608e-05
37 *145:27 *1380:B1 8.49205e-05
38 *147:16 *1380:B1 5.83121e-06
39 *152:8 *1380:B1 0.000462835
40 *193:18 *297:31 0
41 *294:8 *1380:B1 5.05437e-05
42 *294:23 *1380:B1 4.19967e-05
43 *294:73 *1380:B1 0.000177573
*RES
1 *1468:X *297:4 1.6 
2 *297:4 *1451:A 7.6 
3 *297:4 *297:21 13.025 
4 *297:21 *297:31 16.505 
5 *297:31 *1380:B1 25.185 
6 *297:31 *1292:B 1.6 
7 *297:21 *1293:B 3.6 
*END

*D_NET *298 0.000495764
*CONN
*I *1225:A I *D sky130_fd_sc_hd__or4_1
*I *1469:X O *D sky130_fd_sc_hd__clkbuf_1
*CAP
1 *1225:A 0.000146212
2 *1469:X 0.000146212
3 *1225:A *1225:B 1.65432e-05
4 *1225:A *1226:A 6.55406e-05
5 *1203:C *1225:A 6.83659e-05
6 *1467:A *1225:A 3.67085e-05
7 *296:8 *1225:A 1.61831e-05
*RES
1 *1469:X *1225:A 10.425 
*END

*D_NET *299 0.000936204
*CONN
*I *1367:A2 I *D sky130_fd_sc_hd__o21a_1
*I *1470:X O *D sky130_fd_sc_hd__clkbuf_1
*CAP
1 *1367:A2 0.000355395
2 *1470:X 0.000355395
3 *1367:A2 *1433:A 0
4 *1367:A2 *367:12 0
5 *1367:A2 *367:20 0
6 *1426:D *1367:A2 5.72004e-05
7 *135:72 *1367:A2 0.000168213
*RES
1 *1470:X *1367:A2 12.63 
*END

*D_NET *300 0.00378684
*CONN
*I *1311:A I *D sky130_fd_sc_hd__nand2_1
*I *1312:A1 I *D sky130_fd_sc_hd__a2111o_1
*I *1471:X O *D sky130_fd_sc_hd__buf_1
*CAP
1 *1311:A 0.000166087
2 *1312:A1 0
3 *1471:X 0.00128289
4 *300:10 0.00144898
5 *1311:A *1312:A2 0.000106516
6 *1311:A *302:78 2.31547e-05
7 *300:10 *1345:A 0.000123225
8 *300:10 *1347:B1 5.63701e-05
9 *1312:B1 *300:10 6.01793e-05
10 *1312:D1 *300:10 8.49205e-05
11 *1313:A3 *300:10 4.66826e-05
12 *1347:A2 *300:10 2.86975e-05
13 *238:12 *300:10 4.80285e-05
14 *239:12 *300:10 0.000118969
15 *258:41 *300:10 0.000192136
*RES
1 *1471:X *300:10 18.985 
2 *300:10 *1312:A1 1.6 
3 *300:10 *1311:A 4.765 
*END

*D_NET *301 0.00621395
*CONN
*I *1221:A2 I *D sky130_fd_sc_hd__o32a_1
*I *1217:C I *D sky130_fd_sc_hd__or3_1
*I *1374:B1_N I *D sky130_fd_sc_hd__o21bai_1
*I *1204:B1 I *D sky130_fd_sc_hd__a21o_1
*I *1472:X O *D sky130_fd_sc_hd__buf_1
*CAP
1 *1221:A2 2.42333e-05
2 *1217:C 8.62789e-05
3 *1374:B1_N 0.000748412
4 *1204:B1 0
5 *1472:X 0.000815694
6 *301:33 0.000908853
7 *301:27 0.000394088
8 *301:10 0.00111139
9 *1374:B1_N *1374:A2 0.000278181
10 *1374:B1_N *1379:D 1.88904e-05
11 *1374:B1_N *302:22 1.7635e-05
12 *301:10 *1214:A 4.92014e-05
13 *301:10 *1221:B2 1.52184e-05
14 *301:10 *307:10 7.55391e-05
15 *301:27 *1221:B2 0.000460969
16 *301:27 *307:10 5.53249e-06
17 *301:27 *307:23 0.000134456
18 *301:33 *306:48 1.0183e-05
19 *301:33 *306:52 4.82919e-05
20 *301:33 *311:25 8.65905e-05
21 *1215:B1 *301:33 8.53113e-06
22 *1218:A3 *1217:C 0
23 *1219:A *1217:C 9.45189e-05
24 *1219:A *301:33 0.000102472
25 *1219:B *1217:C 9.60785e-05
26 *1221:A3 *1217:C 5.31555e-05
27 *1221:A3 *301:27 2.75145e-05
28 *1221:A3 *301:33 2.70223e-05
29 *1228:A2 *1374:B1_N 0.000252839
30 *1383:CLK *1217:C 4.41506e-05
31 *133:10 *301:27 1.74678e-05
32 *133:10 *301:33 9.27255e-06
33 *148:10 *301:33 0
34 *148:16 *301:27 0.000139238
35 *154:23 *1374:B1_N 1.4399e-05
36 *193:18 *301:10 3.76533e-05
37 *293:126 *301:10 0
*RES
1 *1472:X *301:10 13.935 
2 *301:10 *1204:B1 3.6 
3 *301:10 *301:27 9.41 
4 *301:27 *301:33 4.0475 
5 *301:33 *1374:B1_N 6.60237 
6 *301:33 *1217:C 6.0075 
7 *301:27 *1221:A2 1.96 
*END

*D_NET *302 0.0212652
*CONN
*I *1433:A I *D sky130_fd_sc_hd__clkbuf_1
*I *1438:A I *D sky130_fd_sc_hd__clkbuf_1
*I *1311:B I *D sky130_fd_sc_hd__nand2_1
*I *1312:A2 I *D sky130_fd_sc_hd__a2111o_1
*I *1379:B I *D sky130_fd_sc_hd__or4_1
*I *1206:B1 I *D sky130_fd_sc_hd__o21a_1
*I *1202:A2 I *D sky130_fd_sc_hd__a41o_1
*I *1481:A I *D sky130_fd_sc_hd__buf_2
*I *1179:Y O *D sky130_fd_sc_hd__inv_2
*CAP
1 *1433:A 0.000347739
2 *1438:A 0
3 *1311:B 0
4 *1312:A2 9.33406e-05
5 *1379:B 0
6 *1206:B1 9.73191e-06
7 *1202:A2 0
8 *1481:A 0.00233793
9 *1179:Y 4.61019e-05
10 *302:104 0.00100492
11 *302:78 0.000768947
12 *302:74 0.00195721
13 *302:36 0.00329181
14 *302:30 0.00166956
15 *302:22 0.00111653
16 *302:16 0.000953558
17 *302:8 0.00123297
18 *1433:A *1541:A 0
19 *1433:A *367:12 0
20 *1481:A *1241:A 0.00012657
21 *1481:A *1241:D 1.83847e-05
22 *1481:A *1502:A 0.000189845
23 *302:8 *309:10 0
24 *302:16 *1379:C 4.21314e-05
25 *302:16 *375:26 0.000214839
26 *302:16 *375:28 0.000101022
27 *302:22 *1227:A2 8.25609e-05
28 *302:22 *1374:A1 1.96775e-05
29 *302:22 *1374:A2 2.05641e-05
30 *302:22 *1379:C 0.000185411
31 *302:22 *1379:D 0.000163773
32 *302:22 *372:34 7.88393e-05
33 *302:36 *1223:C1 0
34 *302:36 *1505:A 0
35 *302:36 *329:12 0
36 *302:36 *329:47 7.70938e-05
37 *302:36 *330:19 0
38 *302:36 *330:28 0
39 *302:74 *309:10 0
40 *302:104 *1169:C 0.00018305
41 *302:104 *1297:A1 0
42 *302:104 *335:10 0
43 *302:104 *335:43 0
44 *302:104 *337:10 0.000319855
45 *1202:A1 *302:30 6.90876e-05
46 *1202:A3 *302:36 0.000527586
47 *1202:A4 *302:30 0.000275548
48 *1206:A2 *1206:B1 4.82863e-05
49 *1206:A2 *302:30 0
50 *1214:C *302:30 0.000278111
51 *1227:A3 *302:30 0
52 *1251:A *1481:A 0.000201508
53 *1264:A2 *302:36 0.000146181
54 *1264:A3 *302:36 8.98459e-05
55 *1265:A_N *1481:A 0.000238919
56 *1265:B *1481:A 1.12643e-05
57 *1266:A2 *1481:A 1.83847e-05
58 *1311:A *1312:A2 0.000106516
59 *1311:A *302:78 2.31547e-05
60 *1367:A2 *1433:A 0
61 *1369:A2 *302:78 3.78597e-05
62 *1371:A1 *302:78 0.000163199
63 *1371:B2 *1312:A2 0
64 *1371:B2 *302:78 9.26175e-06
65 *1373:A *1433:A 0.000314745
66 *1373:A *302:104 4.66108e-05
67 *1374:B1_N *302:22 1.7635e-05
68 *1375:A1 *302:16 0.000116158
69 *1375:A1 *302:22 0.000264683
70 *1376:A *1206:B1 4.82863e-05
71 *1377:A1 *302:22 0.000136459
72 *1378:A3 *302:74 0
73 *1406:CLK *302:104 0
74 *1406:D *302:74 4.99619e-05
75 *1408:CLK *1433:A 0
76 *1408:CLK *302:104 0.000344601
77 *1408:D *302:104 5.39718e-05
78 *1425:D *1433:A 0.000141599
79 *1432:D *302:16 0
80 *1443:A *302:16 4.82919e-05
81 *1446:A *302:30 4.99619e-05
82 *1470:A *1433:A 0
83 *135:101 *302:8 3.86529e-05
84 *135:101 *302:74 6.10014e-05
85 *145:10 *302:16 6.21553e-05
86 *153:10 *302:74 7.97252e-05
87 *156:10 *302:36 2.04147e-05
88 *162:10 *302:30 3.30692e-05
89 *162:21 *302:22 0
90 *162:21 *302:30 0
91 *196:12 *1481:A 2.75229e-05
92 *196:43 *302:36 0
93 *196:45 *302:36 0
94 *244:6 *1312:A2 4.99619e-05
95 *244:6 *302:78 5.78185e-05
96 *244:19 *302:78 1.34594e-05
97 *293:42 *302:30 0
98 *293:56 *302:30 0
99 *294:33 *302:74 0.000289767
*RES
1 *1179:Y *302:8 4.47 
2 *302:8 *302:16 11.77 
3 *302:16 *302:22 10.35 
4 *302:22 *302:30 14.15 
5 *302:30 *302:36 23.74 
6 *302:36 *1481:A 38.74 
7 *302:30 *1202:A2 1.6 
8 *302:22 *1206:B1 4.05 
9 *302:16 *1379:B 3.6 
10 *302:8 *302:74 12.86 
11 *302:74 *302:78 10.125 
12 *302:78 *1312:A2 4.01875 
13 *302:78 *1311:B 1.6 
14 *302:74 *302:104 18.325 
15 *302:104 *1438:A 1.6 
16 *302:104 *1433:A 12.65 
*END

*D_NET *303 0.000897338
*CONN
*I *1482:A I *D sky130_fd_sc_hd__buf_2
*I *1458:A I *D sky130_fd_sc_hd__dlygate4sd3_1
*I *1381:Q O *D sky130_fd_sc_hd__dfxtp_1
*CAP
1 *1482:A 8.83727e-05
2 *1458:A 0.000221014
3 *1381:Q 0.00012901
4 *303:8 0.000438396
5 *1458:A *375:8 0
6 *1482:A *375:8 0
7 *1403:CLK *303:8 2.05457e-05
8 *1403:D *1458:A 0
*RES
1 *1381:Q *303:8 5.085 
2 *303:8 *1458:A 7.05 
3 *303:8 *1482:A 4.98 
*END

*D_NET *304 0.000133214
*CONN
*I *1483:A I *D sky130_fd_sc_hd__buf_2
*I *1433:X O *D sky130_fd_sc_hd__clkbuf_1
*CAP
1 *1483:A 5.60528e-05
2 *1433:X 5.60528e-05
3 global_state_authorized *1483:A 2.11084e-05
*RES
1 *1433:X *1483:A 4.265 
*END

*D_NET *305 0.01166
*CONN
*I *1484:A I *D sky130_fd_sc_hd__buf_2
*I *1230:A I *D sky130_fd_sc_hd__xor2_1
*I *1455:A I *D sky130_fd_sc_hd__dlygate4sd3_1
*I *1173:A I *D sky130_fd_sc_hd__nor2_1
*I *1181:A I *D sky130_fd_sc_hd__or3_2
*I *1183:C_N I *D sky130_fd_sc_hd__or3b_2
*I *1175:A I *D sky130_fd_sc_hd__or4b_2
*I *1374:A1 I *D sky130_fd_sc_hd__o21bai_1
*I *1177:A I *D sky130_fd_sc_hd__nor3_1
*I *1431:Q O *D sky130_fd_sc_hd__dfxtp_2
*CAP
1 *1484:A 0.000515987
2 *1230:A 0
3 *1455:A 0
4 *1173:A 1.89178e-05
5 *1181:A 0
6 *1183:C_N 5.19061e-05
7 *1175:A 0
8 *1374:A1 0.000662536
9 *1177:A 0
10 *1431:Q 0.00026157
11 *305:101 0.0010556
12 *305:84 0.000598532
13 *305:57 0.000170887
14 *305:49 0.000339366
15 *305:27 0.000893966
16 *305:21 0.000495643
17 *305:14 0.000612118
18 *305:6 0.000869863
19 *1173:A *1173:B 5.02729e-06
20 *1183:C_N *1489:A 2.60908e-05
21 *1374:A1 *1175:D_N 9.52646e-05
22 *1374:A1 *1374:A2 4.55864e-06
23 *1374:A1 *314:16 4.58257e-05
24 *305:6 *375:20 1.17309e-05
25 *305:14 *1488:A 0
26 *305:14 *310:30 5.39961e-05
27 *305:14 *310:73 8.88799e-05
28 *305:21 *1177:B 0.000198939
29 *305:21 *1177:C 0.000160635
30 *305:21 *310:73 7.00889e-06
31 *305:27 *1163:A 0.000294301
32 *305:27 *309:42 0
33 *305:49 *1173:B 0.00017217
34 *305:49 *1177:B 0.000227261
35 *305:49 *1177:C 0.000312182
36 *305:57 *1173:B 1.56428e-06
37 *305:57 *314:44 0
38 *305:101 *1165:A 0.000139245
39 *305:101 *1210:A 0.000273008
40 *305:101 *1210:B 4.82919e-05
41 *305:101 *1485:A 0
42 *305:101 *1487:A 0
43 *305:101 *375:14 1.07797e-05
44 global_state_bits[0] *1484:A 3.38178e-05
45 global_state_bits[1] *1484:A 6.06899e-05
46 *1181:B *305:57 9.71067e-05
47 *1181:C *1183:C_N 5.58311e-05
48 *1181:C *305:57 9.50342e-06
49 *1187:B *305:14 2.75145e-05
50 *1189:A *305:57 7.00066e-05
51 *1191:A2 *305:27 8.35683e-05
52 *1191:B1 *1183:C_N 9.14049e-05
53 *1191:B2 *1183:C_N 0
54 *1218:B1 *1374:A1 0
55 *1218:B2 *1374:A1 0
56 *1375:A1 *1374:A1 0.000143266
57 *1377:A1 *1374:A1 6.81374e-05
58 *1380:B1 *305:14 0
59 *1383:CLK *1374:A1 4.70343e-05
60 *1404:D *305:14 9.30717e-05
61 *1405:CLK *305:6 0.000327308
62 *1405:CLK *305:84 3.20268e-05
63 *1405:CLK *305:101 0.000352156
64 *133:45 *305:14 0.000229534
65 *133:62 *305:14 0.000136413
66 *136:10 *305:101 0.00011964
67 *143:10 *1374:A1 4.66108e-05
68 *144:6 *305:21 4.36241e-05
69 *146:17 *1183:C_N 0.000105792
70 *147:29 *1374:A1 0.000235573
71 *148:10 *305:27 0.000251595
72 *174:10 *1374:A1 0.000155463
73 *193:18 *305:57 0
74 *294:73 *305:14 0
75 *294:84 *305:14 0
76 *297:21 *1484:A 0
77 *302:22 *1374:A1 1.96775e-05
*RES
1 *1431:Q *305:6 5.155 
2 *305:6 *305:14 15.28 
3 *305:14 *1177:A 1.6 
4 *305:14 *305:21 2.52 
5 *305:21 *305:27 10.225 
6 *305:27 *1374:A1 17.93 
7 *305:27 *1175:A 1.6 
8 *305:21 *305:49 5.58 
9 *305:49 *305:57 4.4 
10 *305:57 *1183:C_N 5.49 
11 *305:57 *1181:A 3.6 
12 *305:49 *1173:A 1.96 
13 *305:6 *305:84 1.065 
14 *305:84 *1455:A 1.6 
15 *305:84 *305:101 15.4 
16 *305:101 *1230:A 1.6 
17 *305:101 *1484:A 14.03 
*END

*D_NET *306 0.00908411
*CONN
*I *1221:A1 I *D sky130_fd_sc_hd__o32a_1
*I *1217:B I *D sky130_fd_sc_hd__or3_1
*I *1374:A2 I *D sky130_fd_sc_hd__o21bai_1
*I *1214:A I *D sky130_fd_sc_hd__or3_1
*I *1166:A I *D sky130_fd_sc_hd__inv_2
*I *1473:X O *D sky130_fd_sc_hd__clkbuf_2
*CAP
1 *1221:A1 0
2 *1217:B 8.30311e-05
3 *1374:A2 0.00044048
4 *1214:A 0.000531498
5 *1166:A 0
6 *1473:X 0.000885933
7 *306:52 0.000572978
8 *306:48 0.000292988
9 *306:29 0.000884095
10 *306:14 0.000995009
11 *1214:A *1207:A2 9.50342e-06
12 *1214:A *1221:B2 2.92496e-05
13 *1217:B *1207:B2 3.3657e-05
14 *1374:A2 *1207:B2 7.96104e-06
15 *306:14 *1203:A 8.57237e-05
16 *306:14 *339:10 0
17 *306:14 *339:14 0.00016063
18 *306:29 *1203:A 0.000286773
19 *306:29 *1207:A1 4.66108e-05
20 *306:29 *339:14 0.000141698
21 *306:48 *1207:A2 0.000390183
22 *306:48 *1221:B2 0.000505654
23 *306:48 *311:25 7.06865e-05
24 *306:52 *311:25 1.46828e-05
25 *1215:B1 *1214:A 0
26 *1218:B1 *1217:B 0
27 *1228:A2 *1374:A2 0.00018246
28 *1228:A2 *306:52 0.000120655
29 *1374:A1 *1374:A2 4.55864e-06
30 *1374:B1_N *1374:A2 0.000278181
31 *1397:D *306:14 0.000137571
32 *133:10 *1217:B 7.12477e-05
33 *133:10 *306:52 2.67275e-05
34 *137:6 *306:29 8.65961e-05
35 *154:23 *306:52 0.000122325
36 *164:6 *306:29 4.66108e-05
37 *174:10 *1374:A2 3.16707e-06
38 *193:18 *306:14 0.000425815
39 *293:118 *1214:A 0.000770943
40 *293:126 *306:14 4.40556e-05
41 *293:134 *306:14 9.32743e-05
42 *293:138 *306:14 7.26551e-05
43 *301:10 *1214:A 4.92014e-05
44 *301:33 *306:48 1.0183e-05
45 *301:33 *306:52 4.82919e-05
46 *302:22 *1374:A2 2.05641e-05
*RES
1 *1473:X *306:14 23.075 
2 *306:14 *1166:A 1.6 
3 *306:14 *306:29 6.035 
4 *306:29 *1214:A 13.545 
5 *306:29 *306:48 8.765 
6 *306:48 *306:52 3.83 
7 *306:52 *1374:A2 6.03527 
8 *306:52 *1217:B 5.235 
9 *306:48 *1221:A1 1.6 
*END

*D_NET *307 0.0100053
*CONN
*I *1485:A I *D sky130_fd_sc_hd__buf_2
*I *1173:B I *D sky130_fd_sc_hd__nor2_1
*I *1177:C I *D sky130_fd_sc_hd__nor3_1
*I *1183:A I *D sky130_fd_sc_hd__or3b_2
*I *1175:B I *D sky130_fd_sc_hd__or4b_2
*I *1464:A I *D sky130_fd_sc_hd__dlygate4sd3_1
*I *1204:A1 I *D sky130_fd_sc_hd__a21o_1
*I *1382:Q O *D sky130_fd_sc_hd__dfxtp_2
*CAP
1 *1485:A 0.00103343
2 *1173:B 0.000236663
3 *1177:C 0.00020853
4 *1183:A 3.64493e-05
5 *1175:B 0.000183307
6 *1464:A 0
7 *1204:A1 0
8 *1382:Q 0.000450509
9 *307:58 0.000445193
10 *307:56 0.00121498
11 *307:45 0.00027959
12 *307:34 0.000377696
13 *307:23 0.000517376
14 *307:10 0.000835087
15 *1175:B *314:16 0.000273878
16 *1183:A *1190:B1 0.000158072
17 *1485:A *1230:B 0.000134155
18 *1485:A *1487:A 0.000418841
19 *1485:A *309:40 0.000143427
20 *307:23 *314:12 0.000163204
21 *307:34 *1175:D_N 2.59981e-05
22 *307:34 *314:12 0.000252749
23 *307:45 *1175:D_N 6.92253e-05
24 *307:45 *309:42 5.53249e-06
25 *307:56 *309:40 3.86607e-05
26 *307:56 *309:42 0.000162346
27 *1173:A *1173:B 5.02729e-06
28 *1180:B *1183:A 0.000120655
29 *1231:B1 *1485:A 0
30 *1236:A1 *1485:A 0.000107634
31 *1238:A *1485:A 0
32 *1376:A *307:10 9.50342e-06
33 *1376:A *307:23 0.000136877
34 *1383:D *307:23 0.000163204
35 *1383:D *307:34 3.83041e-05
36 *134:10 *1485:A 0.000252977
37 *144:6 *1177:C 7.00889e-06
38 *148:8 *1183:A 2.16917e-05
39 *148:10 *307:23 0.000102411
40 *148:10 *307:34 0
41 *148:16 *307:23 8.97564e-05
42 *193:18 *1485:A 4.5783e-05
43 *193:18 *307:10 0
44 *193:18 *307:23 0
45 *193:18 *307:34 2.15594e-05
46 *193:18 *307:45 6.9117e-05
47 *193:18 *307:56 0.000203655
48 *293:126 *307:10 8.31082e-05
49 *297:21 *1485:A 0
50 *297:31 *1485:A 0
51 *301:10 *307:10 7.55391e-05
52 *301:27 *307:10 5.53249e-06
53 *301:27 *307:23 0.000134456
54 *305:21 *1177:C 0.000160635
55 *305:49 *1173:B 0.00017217
56 *305:49 *1177:C 0.000312182
57 *305:57 *1173:B 1.56428e-06
58 *305:101 *1485:A 0
*RES
1 *1382:Q *307:10 9.48 
2 *307:10 *1204:A1 3.6 
3 *307:10 *307:23 11.495 
4 *307:23 *1464:A 1.6 
5 *307:23 *307:34 5.36 
6 *307:34 *1175:B 6.12 
7 *307:34 *307:45 1.635 
8 *307:45 *1183:A 5.085 
9 *307:45 *307:56 4.44 
10 *307:56 *307:58 2 
11 *307:58 *1177:C 6.205 
12 *307:58 *1173:B 5.515 
13 *307:56 *1485:A 24.705 
*END

*D_NET *308 0.00167258
*CONN
*I *1190:A2 I *D sky130_fd_sc_hd__a21o_1
*I *1486:A I *D sky130_fd_sc_hd__buf_2
*I *1174:B I *D sky130_fd_sc_hd__or2_1
*I *1454:A I *D sky130_fd_sc_hd__dlygate4sd3_1
*I *1383:Q O *D sky130_fd_sc_hd__dfxtp_1
*CAP
1 *1190:A2 0.000139327
2 *1486:A 0
3 *1174:B 0.000136768
4 *1454:A 8.90149e-05
5 *1383:Q 7.91457e-05
6 *308:25 0.000164516
7 *308:21 0.000328519
8 *308:8 0.000329603
9 *1174:B *314:44 9.70988e-05
10 *1190:A2 *1489:A 0
11 *1190:A2 *314:44 0.000163019
12 *1454:A *1489:A 0
13 *308:21 *1489:A 0
14 *308:25 *314:44 7.00889e-06
15 global_state_bits[2] *1190:A2 2.10433e-05
16 *1469:A *1454:A 6.36578e-05
17 *1469:A *308:21 2.38193e-05
18 *1475:A *1454:A 3.00381e-05
*RES
1 *1383:Q *308:8 4.395 
2 *308:8 *1454:A 5.43 
3 *308:8 *308:21 2.655 
4 *308:21 *308:25 2.45 
5 *308:25 *1174:B 4.135 
6 *308:25 *1486:A 1.6 
7 *308:21 *1190:A2 6.45 
*END

*D_NET *309 0.0114287
*CONN
*I *1232:A I *D sky130_fd_sc_hd__nand2_1
*I *1487:A I *D sky130_fd_sc_hd__buf_2
*I *1177:B I *D sky130_fd_sc_hd__nor3_1
*I *1180:A I *D sky130_fd_sc_hd__or2_1
*I *1190:B1 I *D sky130_fd_sc_hd__a21o_1
*I *1175:D_N I *D sky130_fd_sc_hd__or4b_2
*I *1233:A I *D sky130_fd_sc_hd__or2_1
*I *1294:A I *D sky130_fd_sc_hd__and2_1
*I *1384:Q O *D sky130_fd_sc_hd__dfxtp_1
*CAP
1 *1232:A 0
2 *1487:A 0.000728502
3 *1177:B 0.000205022
4 *1180:A 0
5 *1190:B1 0.000167893
6 *1175:D_N 0.0002392
7 *1233:A 0
8 *1294:A 0
9 *1384:Q 0.000243769
10 *309:57 0.000167893
11 *309:42 0.000438507
12 *309:40 0.000593833
13 *309:38 0.00183375
14 *309:32 0.00100996
15 *309:23 0.000747164
16 *309:10 0.000896716
17 *1175:D_N *314:16 0.000385327
18 *1190:B1 *1190:A1 0.000267369
19 *1190:B1 *310:36 0.000268745
20 *1487:A *1165:A 0
21 *1487:A *1236:B1 0
22 *1487:A *1488:A 0.000462835
23 *309:23 *1232:B 5.05521e-05
24 *309:32 *1232:B 6.90876e-05
25 *309:38 *1232:B 1.85674e-05
26 *309:38 *1235:B2 8.65961e-05
27 *309:40 *1163:A 0
28 *1175:C *1175:D_N 0.00012657
29 *1180:B *1190:B1 4.21973e-05
30 *1183:A *1190:B1 0.000158072
31 *1191:B1 *1190:B1 3.45588e-05
32 *1234:B1 *309:32 1.08758e-05
33 *1234:B1 *309:38 4.40325e-06
34 *1234:B2 *309:32 8.8266e-05
35 *1236:C1 *1487:A 0
36 *1292:A *309:38 0.000117308
37 *1374:A1 *1175:D_N 9.52646e-05
38 *1380:B1 *309:38 9.65676e-05
39 *1443:A *309:10 3.68682e-05
40 *1485:A *1487:A 0.000418841
41 *1485:A *309:40 0.000143427
42 *134:14 *309:38 0.000100171
43 *135:10 *309:10 7.63204e-05
44 *135:21 *309:10 5.53249e-06
45 *135:21 *309:23 0.000215155
46 *148:8 *1190:B1 2.96334e-05
47 *148:10 *1175:D_N 0
48 *148:10 *309:42 0
49 *153:10 *309:10 0
50 *153:10 *309:23 0
51 *294:35 *309:10 0
52 *297:31 *309:38 1.9415e-05
53 *302:8 *309:10 0
54 *302:74 *309:10 0
55 *305:21 *1177:B 0.000198939
56 *305:27 *309:42 0
57 *305:49 *1177:B 0.000227261
58 *305:101 *1487:A 0
59 *307:34 *1175:D_N 2.59981e-05
60 *307:45 *1175:D_N 6.92253e-05
61 *307:45 *309:42 5.53249e-06
62 *307:56 *309:40 3.86607e-05
63 *307:56 *309:42 0.000162346
*RES
1 *1384:Q *309:10 7.725 
2 *309:10 *1294:A 3.6 
3 *309:10 *309:23 12.755 
4 *309:23 *1233:A 1.6 
5 *309:23 *309:32 2.19 
6 *309:32 *309:38 13.67 
7 *309:38 *309:40 3.93 
8 *309:40 *309:42 3.675 
9 *309:42 *1175:D_N 9.66 
10 *309:42 *309:57 2 
11 *309:57 *1190:B1 6.91 
12 *309:57 *1180:A 1.6 
13 *309:40 *1177:B 7.5 
14 *309:38 *1487:A 18.36 
15 *309:32 *1232:A 1.6 
*END

*D_NET *310 0.00936381
*CONN
*I *1488:A I *D sky130_fd_sc_hd__buf_2
*I *1459:A I *D sky130_fd_sc_hd__dlygate4sd3_1
*I *1235:B2 I *D sky130_fd_sc_hd__o2bb2a_1
*I *1178:A I *D sky130_fd_sc_hd__or3b_2
*I *1190:A1 I *D sky130_fd_sc_hd__a21o_1
*I *1174:A I *D sky130_fd_sc_hd__or2_1
*I *1187:A I *D sky130_fd_sc_hd__and3_1
*I *1234:A1 I *D sky130_fd_sc_hd__a221o_1
*I *1432:Q O *D sky130_fd_sc_hd__dfxtp_2
*CAP
1 *1488:A 0.000752565
2 *1459:A 0.00011511
3 *1235:B2 1.41735e-05
4 *1178:A 0
5 *1190:A1 0.000143314
6 *1174:A 8.4936e-05
7 *1187:A 0
8 *1234:A1 0.000188993
9 *1432:Q 0
10 *310:84 0.00100535
11 *310:73 0.000370411
12 *310:36 0.000862505
13 *310:30 0.000740734
14 *310:21 0.000554386
15 *310:4 0.000418342
16 *1174:A *1489:A 0.000158297
17 *1174:A *314:44 2.49909e-05
18 *1234:A1 *375:26 0.000198273
19 *1488:A *1161:A 0
20 *1488:A *375:14 0
21 *310:36 *1379:A 7.62032e-05
22 *310:73 *1163:A 0
23 *310:73 *312:12 0.000114492
24 *1178:C_N *310:21 0.000161529
25 *1178:C_N *310:30 0
26 *1178:C_N *310:36 0
27 *1178:C_N *310:73 9.48519e-05
28 *1180:B *310:36 3.09088e-05
29 *1190:B1 *1190:A1 0.000267369
30 *1190:B1 *310:36 0.000268745
31 *1234:B1 *1234:A1 9.54399e-05
32 *1235:B1 *310:84 0.000116158
33 *1237:A *1488:A 0
34 *1292:A *1235:B2 8.65961e-05
35 *1407:D *1488:A 0
36 *1487:A *1488:A 0.000462835
37 *133:23 *310:30 2.15738e-05
38 *133:23 *310:36 9.19845e-05
39 *133:34 *310:30 2.46007e-05
40 *133:45 *310:30 1.61461e-05
41 *133:45 *310:73 9.95272e-05
42 *133:45 *310:84 9.23473e-05
43 *133:62 *1459:A 8.49205e-05
44 *133:62 *1488:A 1.07797e-05
45 *133:62 *310:84 0.00012819
46 *136:10 *1488:A 0.000116165
47 *136:10 *310:84 0.000242085
48 *142:17 *1174:A 8.5225e-05
49 *144:6 *310:73 9.72733e-05
50 *146:6 *310:36 0.000158072
51 *146:17 *1190:A1 0.000148084
52 *146:17 *310:36 4.82863e-05
53 *147:16 *310:36 0
54 *148:8 *310:36 3.70009e-05
55 *294:23 *310:36 0
56 *294:29 *1234:A1 5.062e-06
57 *294:29 *310:21 2.77183e-05
58 *294:73 *1234:A1 0.000184777
59 *305:14 *1488:A 0
60 *305:14 *310:30 5.39961e-05
61 *305:14 *310:73 8.88799e-05
62 *305:21 *310:73 7.00889e-06
63 *309:38 *1235:B2 8.65961e-05
*RES
1 *1432:Q *310:4 1.6 
2 *310:4 *1234:A1 11.255 
3 *310:4 *310:21 3.915 
4 *310:21 *1187:A 1.6 
5 *310:21 *310:30 4.4 
6 *310:30 *310:36 13.385 
7 *310:36 *1174:A 7.94 
8 *310:36 *1190:A1 5.185 
9 *310:30 *1178:A 3.6 
10 *310:21 *310:73 7.25 
11 *310:73 *1235:B2 4.395 
12 *310:73 *310:84 4.695 
13 *310:84 *1459:A 5.43 
14 *310:84 *1488:A 16.515 
*END

*D_NET *311 0.00867695
*CONN
*I *1489:A I *D sky130_fd_sc_hd__buf_2
*I *1379:D I *D sky130_fd_sc_hd__or4_1
*I *1227:A2 I *D sky130_fd_sc_hd__a31o_1
*I *1207:A2 I *D sky130_fd_sc_hd__a221oi_1
*I *1184:Y O *D sky130_fd_sc_hd__inv_2
*CAP
1 *1489:A 0.00077593
2 *1379:D 0.000441681
3 *1227:A2 0.000125775
4 *1207:A2 0.000153488
5 *1184:Y 0
6 *311:25 0.00122641
7 *311:8 0.00128572
8 *311:4 0.00124921
9 *1227:A2 *391:60 3.29924e-05
10 *1379:D *1379:A 3.49233e-05
11 *1379:D *1379:C 0.000194443
12 *1489:A *1226:B 7.06865e-05
13 *1489:A *314:44 0
14 *1174:A *1489:A 0.000158297
15 *1183:C_N *1489:A 2.60908e-05
16 *1189:A *1489:A 0
17 *1189:B *1489:A 2.75229e-05
18 *1190:A2 *1489:A 0
19 *1191:A3 *1489:A 2.12581e-05
20 *1191:B1 *1489:A 0.000117297
21 *1191:B2 *1489:A 3.18219e-05
22 *1194:B *1379:D 0
23 *1214:A *1207:A2 9.50342e-06
24 *1215:B1 *1207:A2 0.000157679
25 *1215:B1 *311:25 2.25075e-05
26 *1218:B1 *1227:A2 0.000162311
27 *1226:C *311:8 1.61831e-05
28 *1227:B1 *1227:A2 4.80285e-05
29 *1227:B1 *311:8 3.65439e-05
30 *1374:B1_N *1379:D 1.88904e-05
31 *1380:A2 *1379:D 5.91678e-05
32 *1432:D *1379:D 4.18603e-06
33 *1454:A *1489:A 0
34 *142:17 *1489:A 2.16389e-05
35 *145:27 *1379:D 2.45351e-05
36 *146:17 *1489:A 2.25161e-05
37 *148:16 *311:8 0.000273122
38 *154:10 *1379:D 0
39 *154:23 *311:25 0.000840743
40 *162:21 *1227:A2 8.44437e-05
41 *162:21 *1379:D 9.2929e-05
42 *193:18 *1489:A 0
43 *301:33 *311:25 8.65905e-05
44 *302:22 *1227:A2 8.25609e-05
45 *302:22 *1379:D 0.000163773
46 *306:48 *1207:A2 0.000390183
47 *306:48 *311:25 7.06865e-05
48 *306:52 *311:25 1.46828e-05
49 *308:21 *1489:A 0
*RES
1 *1184:Y *311:4 1.6 
2 *311:4 *311:8 7.97 
3 *311:8 *1207:A2 8.295 
4 *311:8 *311:25 13.6 
5 *311:25 *1227:A2 7.335 
6 *311:25 *1379:D 12.87 
7 *311:4 *1489:A 18.11 
*END

*D_NET *312 0.00261851
*CONN
*I *1188:B I *D sky130_fd_sc_hd__or2_1
*I *1490:A I *D sky130_fd_sc_hd__buf_2
*I *1187:X O *D sky130_fd_sc_hd__and3_1
*CAP
1 *1188:B 0
2 *1490:A 0.000263605
3 *1187:X 0.000543039
4 *312:12 0.000806644
5 *1490:A *364:10 0
6 *312:12 *1163:A 0
7 global_state_escalated *1490:A 0
8 *1181:B *312:12 0.000235568
9 *133:45 *312:12 0.000182349
10 *134:6 *312:12 0.000461935
11 *193:18 *1490:A 0
12 *297:31 *1490:A 1.08758e-05
13 *310:73 *312:12 0.000114492
*RES
1 *1187:X *312:12 16.82 
2 *312:12 *1490:A 9.74 
3 *312:12 *1188:B 1.6 
*END

*D_NET *313 0.00941422
*CONN
*I *1379:C I *D sky130_fd_sc_hd__or4_1
*I *1491:A I *D sky130_fd_sc_hd__buf_2
*I *1213:A I *D sky130_fd_sc_hd__nand2_1
*I *1211:A2 I *D sky130_fd_sc_hd__a31o_1
*I *1182:Y O *D sky130_fd_sc_hd__inv_2
*CAP
1 *1379:C 0.000489731
2 *1491:A 0.000972174
3 *1213:A 0.000121862
4 *1211:A2 6.68938e-05
5 *1182:Y 0
6 *313:21 0.00115772
7 *313:10 0.000470441
8 *313:4 0.000829593
9 *1379:C *1379:A 2.49909e-05
10 *1491:A *1203:A 3.59311e-05
11 *1491:A *1207:A1 0.000124007
12 *1491:A *339:10 0.000164679
13 *1491:A *339:14 0.000830755
14 *1202:A1 *1213:A 1.52184e-05
15 *1202:A1 *313:10 2.92496e-05
16 *1205:A2 *1491:A 9.78429e-05
17 *1211:A1 *1211:A2 4.82863e-05
18 *1211:A1 *313:21 4.66108e-05
19 *1214:B *313:10 4.48716e-05
20 *1214:C *1213:A 9.72742e-06
21 *1215:A1 *1491:A 0.000201508
22 *1220:A_N *1213:A 5.35987e-05
23 *1222:A *313:10 0.000131654
24 *1222:B *313:10 7.23533e-05
25 *1222:C_N *1211:A2 2.0514e-05
26 *1228:A1 *313:10 0.000287337
27 *1379:D *1379:C 0.000194443
28 *1401:CLK *1213:A 0.000144435
29 *1432:D *1379:C 0
30 *1442:A *1213:A 0.00011379
31 *135:101 *313:10 0.000355543
32 *135:103 *1213:A 8.25609e-05
33 *135:103 *313:10 0.000457774
34 *145:27 *1379:C 1.4174e-05
35 *147:29 *1379:C 0.000308926
36 *163:14 *1491:A 0.000514843
37 *163:14 *313:21 4.21973e-05
38 *164:6 *1491:A 1.12578e-05
39 *170:29 *313:10 4.19967e-05
40 *171:18 *313:10 0
41 *172:21 *1213:A 5.2456e-05
42 *293:8 *1491:A 0.000496
43 *295:6 *1491:A 8.73389e-06
44 *302:16 *1379:C 4.21314e-05
45 *302:22 *1379:C 0.000185411
*RES
1 *1182:Y *313:4 1.6 
2 *313:4 *313:10 14.05 
3 *313:10 *1211:A2 2.755 
4 *313:10 *313:21 1.14 
5 *313:21 *1213:A 9.455 
6 *313:21 *1491:A 27.95 
7 *313:4 *1379:C 13.985 
*END

*D_NET *314 0.00818027
*CONN
*I *1188:A I *D sky130_fd_sc_hd__or2_1
*I *1492:A I *D sky130_fd_sc_hd__buf_2
*I *1379:A I *D sky130_fd_sc_hd__or4_1
*I *1207:B2 I *D sky130_fd_sc_hd__a221oi_1
*I *1176:Y O *D sky130_fd_sc_hd__inv_2
*CAP
1 *1188:A 0.000153046
2 *1492:A 0
3 *1379:A 0.000537188
4 *1207:B2 0.00037602
5 *1176:Y 0.000130121
6 *314:44 0.000773885
7 *314:16 0.00114275
8 *314:12 0.000980501
9 *1207:B2 *1163:A 0
10 *1207:B2 *1205:A1 0.000142662
11 *1379:A *1163:A 0
12 global_state_boot *314:44 3.19349e-05
13 global_state_safe_mode *1188:A 3.24046e-05
14 global_state_safe_mode *314:44 5.20196e-05
15 *1174:A *314:44 2.49909e-05
16 *1174:B *314:44 9.70988e-05
17 *1175:B *314:16 0.000273878
18 *1175:C *314:16 6.26945e-05
19 *1175:C *314:44 3.83194e-05
20 *1175:D_N *314:16 0.000385327
21 *1181:B *1188:A 0
22 *1181:B *314:44 0
23 *1189:A *314:44 0
24 *1189:B *314:44 2.39642e-05
25 *1190:A2 *314:44 0.000163019
26 *1207:C1 *1207:B2 0.00011379
27 *1215:B1 *1207:B2 0.000484922
28 *1217:B *1207:B2 3.3657e-05
29 *1219:A *1207:B2 0.000210852
30 *1374:A1 *314:16 4.58257e-05
31 *1374:A2 *1207:B2 7.96104e-06
32 *1379:C *1379:A 2.49909e-05
33 *1379:D *1379:A 3.49233e-05
34 *1380:A2 *1379:A 4.00541e-06
35 *1383:CLK *314:12 0.000426195
36 *1383:D *314:12 0.000132968
37 *1489:A *314:44 0
38 *133:10 *1207:B2 0.000113828
39 *133:23 *1207:B2 0.000228508
40 *133:23 *1379:A 0.000108722
41 *142:6 *314:44 2.75229e-05
42 *143:10 *1207:B2 0
43 *143:12 *1207:B2 0
44 *145:27 *1379:A 5.61451e-05
45 *146:17 *314:44 0
46 *193:18 *314:12 0.000204463
47 *305:57 *314:44 0
48 *307:23 *314:12 0.000163204
49 *307:34 *314:12 0.000252749
50 *308:25 *314:44 7.00889e-06
51 *310:36 *1379:A 7.62032e-05
*RES
1 *1176:Y *314:12 11.9 
2 *314:12 *314:16 7.625 
3 *314:16 *1207:B2 14.16 
4 *314:16 *1379:A 12.42 
5 *314:12 *314:44 12.56 
6 *314:44 *1492:A 3.6 
7 *314:44 *1188:A 6.03 
*END

*D_NET *315 0.00452933
*CONN
*I *1462:A I *D sky130_fd_sc_hd__dlygate4sd3_1
*I *1241:D I *D sky130_fd_sc_hd__and4_2
*I *1240:C I *D sky130_fd_sc_hd__and3_1
*I *1250:A2 I *D sky130_fd_sc_hd__a21oi_1
*I *1493:A I *D sky130_fd_sc_hd__buf_2
*I *1248:B I *D sky130_fd_sc_hd__xnor2_1
*I *1385:Q O *D sky130_fd_sc_hd__dfxtp_1
*CAP
1 *1462:A 0.000167948
2 *1241:D 6.71126e-05
3 *1240:C 0
4 *1250:A2 1.88809e-05
5 *1493:A 0.00011049
6 *1248:B 0.000201797
7 *1385:Q 0
8 *315:43 0.000242215
9 *315:14 0.000761707
10 *315:12 0.000489111
11 *315:10 0.000400907
12 *315:4 0.000372943
13 *1241:D *1241:C 3.67779e-05
14 *1241:D *1503:A 7.23602e-05
15 *1248:B *1248:A 0.000133745
16 *1250:A2 *1240:A 0
17 *1250:A2 *1250:A1 5.4155e-06
18 *1493:A *1500:A 0.000136415
19 *315:10 *1247:A1 0.000139245
20 *315:10 *1503:A 0
21 *315:10 *371:63 0.000175848
22 *315:10 *373:79 9.54469e-05
23 *315:12 *1240:A 0
24 *315:14 *323:30 0.000202644
25 *315:43 *1250:A1 3.00381e-05
26 *315:43 *1250:B1 3.00381e-05
27 *315:43 *323:30 3.52139e-06
28 *315:43 *323:41 3.52139e-06
29 *315:43 *324:10 5.44629e-05
30 *1249:A2 *1248:B 4.88481e-05
31 *1249:A2 *1493:A 8.40983e-05
32 *1249:A2 *315:14 2.72392e-05
33 *1386:D *315:14 0.000128647
34 *1391:CLK *1462:A 0.000269521
35 *1481:A *1241:D 1.83847e-05
*RES
1 *1385:Q *315:4 1.6 
2 *315:4 *315:10 8.95 
3 *315:10 *315:12 0.36 
4 *315:12 *315:14 7.695 
5 *315:14 *1248:B 5.08 
6 *315:14 *1493:A 8.255 
7 *315:12 *1250:A2 1.96 
8 *315:10 *315:43 2.25375 
9 *315:43 *1240:C 1.6 
10 *315:43 *1241:D 6.92 
11 *315:4 *1462:A 4.735 
*END

*D_NET *316 0.00541942
*CONN
*I *1224:A I *D sky130_fd_sc_hd__or3_1
*I *1209:A1 I *D sky130_fd_sc_hd__a31o_1
*I *1272:B1 I *D sky130_fd_sc_hd__a21oi_1
*I *1243:A I *D sky130_fd_sc_hd__and4_1
*I *1199:A I *D sky130_fd_sc_hd__or3_1
*I *1494:A I *D sky130_fd_sc_hd__buf_2
*I *1395:Q O *D sky130_fd_sc_hd__dfxtp_1
*CAP
1 *1224:A 0
2 *1209:A1 6.70387e-05
3 *1272:B1 0.000213379
4 *1243:A 0.000282843
5 *1199:A 4.51661e-05
6 *1494:A 0.000657362
7 *1395:Q 0
8 *316:72 0.000324873
9 *316:14 0.000808235
10 *316:12 0.000484302
11 *316:10 0.000463745
12 *316:6 0.000412449
13 *1209:A1 *371:24 1.61831e-05
14 *1272:B1 *373:27 7.8192e-05
15 *1494:A *1223:A2 0
16 *1494:A *1506:A 0
17 *1494:A *1507:A 6.57653e-06
18 *1494:A *330:19 0
19 *1494:A *331:12 7.18817e-05
20 *1494:A *331:18 4.41808e-05
21 *1494:A *332:23 0.000122103
22 *1494:A *332:36 0.000186407
23 *316:12 *1223:A2 0
24 *316:14 *1223:A2 0
25 *316:72 *371:24 8.68535e-05
26 global_timeout_count[10] *1494:A 7.00889e-06
27 *1199:C *1199:A 4.82863e-05
28 *1200:A2 *1494:A 0
29 *1209:B1 *1209:A1 7.22354e-05
30 *1209:B1 *316:72 4.35348e-05
31 *1211:A3 *1209:A1 7.00889e-06
32 *1224:B *316:72 2.75145e-05
33 *1227:A3 *316:72 3.72916e-05
34 *1243:D *1243:A 2.39856e-05
35 *1270:D *1494:A 0.000108198
36 *1273:A *316:72 2.24423e-05
37 *1274:A1 *1494:A 0
38 *1274:A1 *316:10 0
39 *1274:A1 *316:12 0
40 *1274:A1 *316:14 0
41 *1274:A2 *1272:B1 5.83121e-06
42 *1274:A2 *316:10 0.000136884
43 *156:6 *1243:A 4.66742e-05
44 *157:10 *1494:A 0
45 *161:14 *1272:B1 4.84661e-05
46 *161:14 *316:72 0
47 *161:27 *316:72 0
48 *198:10 *1243:A 5.73739e-05
49 *198:10 *1272:B1 5.38986e-06
50 *198:10 *316:10 1.23331e-05
51 *198:10 *316:12 3.1388e-05
52 *198:10 *316:72 8.08153e-06
53 *211:14 *1494:A 0.000297723
*RES
1 *1395:Q *316:6 3.6 
2 *316:6 *316:10 2.7225 
3 *316:10 *316:12 1.7625 
4 *316:12 *316:14 1.635 
5 *316:14 *1494:A 17.895 
6 *316:14 *1199:A 4.395 
7 *316:12 *1243:A 7.845 
8 *316:10 *1272:B1 7.1625 
9 *316:6 *316:72 7.295 
10 *316:72 *1209:A1 3.085 
11 *316:72 *1224:A 1.6 
*END

*D_NET *317 0.00700201
*CONN
*I *1290:A2 I *D sky130_fd_sc_hd__o211a_1
*I *1287:B1_N I *D sky130_fd_sc_hd__a21boi_1
*I *1303:B I *D sky130_fd_sc_hd__or4_1
*I *1304:A2 I *D sky130_fd_sc_hd__o41ai_1
*I *1474:X O *D sky130_fd_sc_hd__buf_1
*CAP
1 *1290:A2 0
2 *1287:B1_N 7.35278e-05
3 *1303:B 0
4 *1304:A2 0.000137639
5 *1474:X 0.00102524
6 *317:30 0.000790325
7 *317:14 0.00187968
8 *1287:B1_N *1290:A1 0.000162318
9 *1287:B1_N *391:10 8.49205e-05
10 *1304:A2 *361:18 0.000206434
11 *317:14 *1202:B1 4.40812e-05
12 *317:14 *1212:A 0.000394217
13 *317:14 *346:23 0.000276065
14 *317:14 *346:27 0.000220832
15 *317:30 *361:18 0.000123225
16 *1290:B1 *1287:B1_N 8.78813e-05
17 *1290:B1 *317:30 2.11084e-05
18 *1350:A2 *317:14 0.000197535
19 *1371:A2 *317:30 0.000198945
20 *1440:A *317:14 0
21 *1444:A *317:14 4.82919e-05
22 *171:18 *1287:B1_N 8.49205e-05
23 *231:39 *317:14 0.000534193
24 *231:45 *317:14 0.000197637
25 *235:12 *317:14 6.23375e-05
26 *291:6 *317:14 7.57202e-05
27 *291:8 *317:14 7.49327e-05
*RES
1 *1474:X *317:14 28.31 
2 *317:14 *1304:A2 3.4975 
3 *317:14 *1303:B 1.6 
4 *317:14 *317:30 8.91 
5 *317:30 *1287:B1_N 8.285 
6 *317:30 *1290:A2 1.6 
*END

*D_NET *318 0.00371219
*CONN
*I *1495:A I *D sky130_fd_sc_hd__buf_2
*I *1244:B I *D sky130_fd_sc_hd__and3_1
*I *1277:A1 I *D sky130_fd_sc_hd__a21oi_1
*I *1201:A I *D sky130_fd_sc_hd__or2_1
*I *1275:A I *D sky130_fd_sc_hd__xnor2_1
*I *1396:Q O *D sky130_fd_sc_hd__dfxtp_1
*CAP
1 *1495:A 0
2 *1244:B 0
3 *1277:A1 1.92163e-05
4 *1201:A 0.000136778
5 *1275:A 0.000138138
6 *1396:Q 0.000120907
7 *318:39 0.000184028
8 *318:24 0.000279291
9 *318:22 0.000873189
10 *318:10 0.000880978
11 *1201:A *373:27 5.83121e-06
12 *318:22 *319:6 9.60582e-07
13 *318:22 *319:10 0.00012857
14 global_timeout_count[11] *318:22 3.86607e-05
15 *1244:C *1201:A 2.16833e-05
16 *1244:C *1277:A1 5.37074e-05
17 *1244:C *318:24 3.52139e-06
18 *1274:B1 *1201:A 8.60035e-05
19 *1278:A *318:22 0.000198945
20 *1278:A *318:24 1.46744e-05
21 *1278:B *1277:A1 3.26889e-05
22 *1278:B *318:24 1.47256e-05
23 *1278:B *318:39 3.26889e-05
24 *1279:A2 *318:22 8.8266e-05
25 *1397:D *318:22 2.68594e-05
26 *1472:A *318:10 3.19349e-05
27 *193:30 *1275:A 0
28 *198:35 *1275:A 0.000114492
29 *199:8 *318:22 9.53428e-06
30 *199:8 *318:24 4.99619e-05
31 *293:67 *1275:A 7.36562e-05
32 *293:134 *318:22 5.22973e-05
*RES
1 *1396:Q *318:10 5.43 
2 *318:10 *318:22 13.535 
3 *318:22 *318:24 1.485 
4 *318:24 *1275:A 8.375 
5 *318:24 *318:39 0.615 
6 *318:39 *1201:A 4.825 
7 *318:39 *1277:A1 2.41 
8 *318:22 *1244:B 1.6 
9 *318:10 *1495:A 3.6 
*END

*D_NET *319 0.00390106
*CONN
*I *1496:A I *D sky130_fd_sc_hd__buf_2
*I *1198:D I *D sky130_fd_sc_hd__or4_1
*I *1244:A I *D sky130_fd_sc_hd__and3_1
*I *1277:B1 I *D sky130_fd_sc_hd__a21oi_1
*I *1397:Q O *D sky130_fd_sc_hd__dfxtp_1
*CAP
1 *1496:A 0
2 *1198:D 0.000485625
3 *1244:A 0
4 *1277:B1 5.91216e-05
5 *1397:Q 6.82094e-05
6 *319:28 0.000709453
7 *319:10 0.000764368
8 *319:6 0.000997283
9 *1198:D *1280:A2 0.000241483
10 *1244:C *1277:B1 0.000112232
11 *1244:C *319:10 0
12 *1278:A *319:10 3.09179e-05
13 *1278:B *1277:B1 0.000198051
14 *1278:B *319:10 2.05056e-05
15 *1397:D *319:10 4.41999e-05
16 *1473:A *319:28 2.56866e-05
17 *293:134 *319:10 1.4389e-05
18 *318:22 *319:6 9.60582e-07
19 *318:22 *319:10 0.00012857
*RES
1 *1397:Q *319:6 2.395 
2 *319:6 *319:10 8.745 
3 *319:10 *1277:B1 3.43 
4 *319:10 *1244:A 1.6 
5 *319:6 *319:28 7.675 
6 *319:28 *1198:D 8.965 
7 *319:28 *1496:A 1.6 
*END

*D_NET *320 0.0030722
*CONN
*I *1463:A I *D sky130_fd_sc_hd__dlygate4sd3_1
*I *1497:A I *D sky130_fd_sc_hd__buf_2
*I *1198:C I *D sky130_fd_sc_hd__or4_1
*I *1245:A I *D sky130_fd_sc_hd__and2_1
*I *1398:Q O *D sky130_fd_sc_hd__dfxtp_1
*CAP
1 *1463:A 0
2 *1497:A 9.19934e-05
3 *1198:C 6.23572e-05
4 *1245:A 0.000100537
5 *1398:Q 0.000102916
6 *320:34 0.000236947
7 *320:10 0.00084342
8 *320:6 0.000928395
9 *1245:A *1246:B 4.66108e-05
10 global_timeout_count[13] *1497:A 0.000103688
11 global_timeout_count[13] *320:34 3.85757e-05
12 global_timeout_count[15] *1497:A 1.00941e-05
13 *1280:B1_N *1198:C 2.67022e-05
14 *1280:B1_N *1245:A 2.24336e-05
15 *1280:B1_N *320:10 2.75145e-05
16 *1398:CLK *320:10 2.49909e-05
17 *1398:D *320:10 4.55458e-05
18 *1399:CLK *1245:A 0
19 *1449:A *1198:C 0.000106655
20 *1449:A *1245:A 7.47215e-05
21 *200:51 *1245:A 0.000155497
22 *200:51 *320:10 2.26018e-05
23 *293:138 *1198:C 0
*RES
1 *1398:Q *320:6 2.74 
2 *320:6 *320:10 9.695 
3 *320:10 *1245:A 5.955 
4 *320:10 *1198:C 4.98 
5 *320:6 *320:34 4.655 
6 *320:34 *1497:A 5.745 
7 *320:34 *1463:A 3.6 
*END

*D_NET *321 0.00619621
*CONN
*I *1498:A I *D sky130_fd_sc_hd__buf_2
*I *1283:A1 I *D sky130_fd_sc_hd__o211a_1
*I *1198:B I *D sky130_fd_sc_hd__or4_1
*I *1280:A2 I *D sky130_fd_sc_hd__a21bo_1
*I *1246:B I *D sky130_fd_sc_hd__nand3_2
*I *1284:A1 I *D sky130_fd_sc_hd__a21oi_1
*I *1282:B I *D sky130_fd_sc_hd__nand3b_1
*I *1399:Q O *D sky130_fd_sc_hd__dfxtp_1
*CAP
1 *1498:A 0
2 *1283:A1 0
3 *1198:B 6.62781e-05
4 *1280:A2 0.000139453
5 *1246:B 2.61242e-05
6 *1284:A1 0
7 *1282:B 7.5872e-05
8 *1399:Q 0.000188795
9 *321:69 0.000238795
10 *321:58 0.000420626
11 *321:34 0.000392077
12 *321:18 0.000938277
13 *321:14 0.000449242
14 *321:12 0.000377402
15 *1198:B *1280:A1 5.83121e-06
16 *1198:B *322:49 3.34057e-05
17 *1280:A2 *1280:A1 0.000280741
18 *1280:A2 *322:49 4.66108e-05
19 *1282:B *1282:A_N 0
20 *1282:B *1284:B1 4.44198e-05
21 *321:58 *322:10 5.42473e-05
22 *321:58 *322:25 0.000183738
23 *321:58 *322:36 0.000355889
24 *321:58 *322:49 9.50342e-06
25 *321:69 *322:49 0.000133763
26 global_timeout_count[14] *321:12 3.86529e-05
27 *1198:D *1280:A2 0.000241483
28 *1245:A *1246:B 4.66108e-05
29 *1283:A2 *321:18 0.000168224
30 *1283:A2 *321:34 0.000147076
31 *1283:A2 *321:58 0
32 *1283:B1 *1282:B 6.91485e-05
33 *1283:B1 *321:12 0
34 *1283:C1 *321:18 0.000318091
35 *1283:C1 *321:58 0
36 *1284:A2 *1282:B 4.77463e-05
37 *1399:D *321:12 0
38 *1400:CLK *321:34 0
39 *1400:D *1282:B 1.08758e-05
40 *1400:D *321:34 9.5433e-05
41 *1400:D *321:58 0
42 *1449:A *1198:B 9.61344e-05
43 *1449:A *321:58 6.21553e-05
44 *1449:A *321:69 0.00013994
45 *193:57 *1198:B 3.84331e-05
46 *200:25 *1282:B 1.93244e-05
47 *200:25 *321:58 0
48 *201:14 *321:58 0.000181369
49 *293:73 *321:34 1.44259e-05
*RES
1 *1399:Q *321:12 8.12 
2 *321:12 *321:14 2.865 
3 *321:14 *321:18 5.985 
4 *321:18 *321:34 9.775 
5 *321:34 *1282:B 3.9325 
6 *321:34 *1284:A1 1.6 
7 *321:18 *321:58 10.52 
8 *321:58 *1246:B 4.05 
9 *321:58 *321:69 1.635 
10 *321:69 *1280:A2 7.62 
11 *321:69 *1198:B 5.175 
12 *321:14 *1283:A1 1.6 
13 *321:12 *1498:A 1.6 
*END

*D_NET *322 0.00412122
*CONN
*I *1453:A I *D sky130_fd_sc_hd__dlygate4sd3_1
*I *1280:A1 I *D sky130_fd_sc_hd__a21bo_1
*I *1198:A I *D sky130_fd_sc_hd__or4_1
*I *1246:A I *D sky130_fd_sc_hd__nand3_2
*I *1499:A I *D sky130_fd_sc_hd__buf_2
*I *1282:A_N I *D sky130_fd_sc_hd__nand3b_1
*I *1400:Q O *D sky130_fd_sc_hd__dfxtp_1
*CAP
1 *1453:A 4.65362e-05
2 *1280:A1 0.000143298
3 *1198:A 0
4 *1246:A 0
5 *1499:A 0.000509431
6 *1282:A_N 3.76694e-05
7 *1400:Q 4.91208e-05
8 *322:49 0.000221876
9 *322:36 0.000211737
10 *322:25 0.000731771
11 *322:12 0.00020598
12 *322:10 0.000174787
13 *1282:A_N *1284:B1 3.23663e-05
14 *322:12 *1284:B1 5.83121e-06
15 *1198:B *1280:A1 5.83121e-06
16 *1198:B *322:49 3.34057e-05
17 *1280:A2 *1280:A1 0.000280741
18 *1280:A2 *322:49 4.66108e-05
19 *1281:A2 *322:36 1.44259e-05
20 *1282:B *1282:A_N 0
21 *1283:B1 *1282:A_N 5.30673e-05
22 *1283:B1 *1453:A 2.67275e-05
23 *1283:B1 *322:12 5.78185e-05
24 *1283:C1 *322:10 0.000139238
25 *1284:A2 *1282:A_N 0
26 *158:8 *322:49 3.64998e-06
27 *193:57 *322:36 0.00018305
28 *193:57 *322:49 0.000156842
29 *200:10 *322:25 0
30 *200:10 *322:36 0
31 *200:25 *322:25 1.22676e-05
32 *321:58 *322:10 5.42473e-05
33 *321:58 *322:25 0.000183738
34 *321:58 *322:36 0.000355889
35 *321:58 *322:49 9.50342e-06
36 *321:69 *322:49 0.000133763
*RES
1 *1400:Q *322:10 7.235 
2 *322:10 *322:12 1.485 
3 *322:12 *1282:A_N 2.755 
4 *322:12 *322:25 4.145 
5 *322:25 *1499:A 10.95 
6 *322:25 *322:36 4.185 
7 *322:36 *1246:A 3.6 
8 *322:36 *322:49 4.685 
9 *322:49 *1198:A 1.6 
10 *322:49 *1280:A1 4.825 
11 *322:10 *1453:A 2.395 
*END

*D_NET *323 0.00367124
*CONN
*I *1241:C I *D sky130_fd_sc_hd__and4_2
*I *1240:B I *D sky130_fd_sc_hd__and3_1
*I *1250:A1 I *D sky130_fd_sc_hd__a21oi_1
*I *1500:A I *D sky130_fd_sc_hd__buf_2
*I *1248:A I *D sky130_fd_sc_hd__xnor2_1
*I *1386:Q O *D sky130_fd_sc_hd__dfxtp_1
*CAP
1 *1241:C 0.000152058
2 *1240:B 0
3 *1250:A1 5.05307e-05
4 *1500:A 7.47521e-05
5 *1248:A 0.000156678
6 *1386:Q 0
7 *323:41 0.000256145
8 *323:30 0.000833749
9 *323:17 0.000781545
10 *323:4 0.00018434
11 *1241:C *1501:A 5.16418e-05
12 *1241:C *1503:A 2.24992e-05
13 *1250:A1 *1240:A 5.4155e-06
14 *1250:A1 *1501:A 0
15 *1241:D *1241:C 3.67779e-05
16 *1248:B *1248:A 0.000133745
17 *1249:A2 *1248:A 4.94457e-05
18 *1249:A2 *323:17 4.77719e-05
19 *1249:A2 *323:30 0.000119866
20 *1250:A2 *1250:A1 5.4155e-06
21 *1251:B *1241:C 8.40213e-05
22 *1251:B *323:41 0.000124007
23 *1386:D *323:30 5.23341e-05
24 *1493:A *1500:A 0.000136415
25 *195:10 *1241:C 7.23602e-05
26 *315:14 *323:30 0.000202644
27 *315:43 *1250:A1 3.00381e-05
28 *315:43 *323:30 3.52139e-06
29 *315:43 *323:41 3.52139e-06
*RES
1 *1386:Q *323:4 1.6 
2 *323:4 *1248:A 4.405 
3 *323:4 *323:17 0.45 
4 *323:17 *1500:A 7.235 
5 *323:17 *323:30 8.73 
6 *323:30 *1250:A1 2.92 
7 *323:30 *323:41 1.485 
8 *323:41 *1240:B 1.6 
9 *323:41 *1241:C 8.54 
*END

*D_NET *324 0.00129957
*CONN
*I *1241:B I *D sky130_fd_sc_hd__and4_2
*I *1501:A I *D sky130_fd_sc_hd__buf_2
*I *1240:A I *D sky130_fd_sc_hd__and3_1
*I *1250:B1 I *D sky130_fd_sc_hd__a21oi_1
*I *1387:Q O *D sky130_fd_sc_hd__dfxtp_1
*CAP
1 *1241:B 7.35466e-05
2 *1501:A 0.000119294
3 *1240:A 2.0204e-05
4 *1250:B1 8.19609e-06
5 *1387:Q 0
6 *324:10 6.62947e-05
7 *324:8 0.000229208
8 *324:4 0.000145566
9 *1501:A *1252:B1 4.99619e-05
10 *1501:A *1503:A 9.97548e-05
11 *1501:A *371:76 2.75145e-05
12 *1241:C *1501:A 5.16418e-05
13 *1250:A1 *1240:A 5.4155e-06
14 *1250:A1 *1501:A 0
15 *1250:A2 *1240:A 0
16 *1251:A *1241:B 2.49909e-05
17 *1251:B *1241:B 3.86529e-05
18 *1251:B *1250:B1 3.00381e-05
19 *1251:B *324:8 6.38806e-05
20 *1251:B *324:10 6.27029e-05
21 *1252:A2 *1501:A 0
22 *195:10 *1241:B 7.06865e-05
23 *195:10 *324:8 2.75229e-05
24 *315:12 *1240:A 0
25 *315:43 *1250:B1 3.00381e-05
26 *315:43 *324:10 5.44629e-05
*RES
1 *1387:Q *324:4 1.6 
2 *324:4 *324:8 1.755 
3 *324:8 *324:10 1.14 
4 *324:10 *1250:B1 2.05 
5 *324:10 *1240:A 1.96 
6 *324:8 *1501:A 8.555 
7 *324:4 *1241:B 6.92 
*END

*D_NET *325 0.00619095
*CONN
*I *1200:A1 I *D sky130_fd_sc_hd__a31o_1
*I *1223:A2 I *D sky130_fd_sc_hd__o211a_1
*I *1502:A I *D sky130_fd_sc_hd__buf_2
*I *1241:A I *D sky130_fd_sc_hd__and4_2
*I *1253:A I *D sky130_fd_sc_hd__nor2_1
*I *1388:Q O *D sky130_fd_sc_hd__dfxtp_1
*CAP
1 *1200:A1 0
2 *1223:A2 0.000344486
3 *1502:A 0.000313523
4 *1241:A 5.73173e-05
5 *1253:A 5.05434e-05
6 *1388:Q 0
7 *325:49 0.00107387
8 *325:25 0.000590917
9 *325:12 0.000632844
10 *325:4 0.0010916
11 *1223:A2 *1223:A1 2.41641e-05
12 *1199:B *325:49 4.66108e-05
13 *1200:A2 *325:49 1.83847e-05
14 *1200:B1 *325:49 1.37328e-05
15 *1202:A3 *325:49 4.99619e-05
16 *1242:A *325:49 0.000393312
17 *1251:B *1502:A 0
18 *1252:A2 *1502:A 0.000126734
19 *1253:B *1502:A 0
20 *1253:B *325:25 0
21 *1254:B *325:12 0
22 *1262:B1_N *325:12 0
23 *1273:B *1223:A2 0
24 *1387:D *1502:A 5.72004e-05
25 *1391:CLK *1253:A 0.000124895
26 *1391:CLK *325:12 0.000199833
27 *1481:A *1241:A 0.00012657
28 *1481:A *1502:A 0.000189845
29 *1494:A *1223:A2 0
30 *157:10 *1223:A2 5.16348e-05
31 *157:21 *1223:A2 0.000139245
32 *157:30 *1223:A2 0.000116158
33 *157:43 *1223:A2 0.000206824
34 *161:14 *1223:A2 0
35 *195:10 *1502:A 0
36 *197:10 *325:49 0.000150745
37 *198:10 *1223:A2 0
38 *316:12 *1223:A2 0
39 *316:14 *1223:A2 0
*RES
1 *1388:Q *325:4 1.6 
2 *325:4 *325:12 10.525 
3 *325:12 *1253:A 2.74 
4 *325:12 *325:25 7.675 
5 *325:25 *1241:A 2.74 
6 *325:25 *1502:A 12.125 
7 *325:4 *325:49 12.195 
8 *325:49 *1223:A2 12.38 
9 *325:49 *1200:A1 1.6 
*END

*D_NET *326 0.0087173
*CONN
*I *1208:B I *D sky130_fd_sc_hd__or2_1
*I *1223:A1 I *D sky130_fd_sc_hd__o211a_1
*I *1258:A1 I *D sky130_fd_sc_hd__a21oi_1
*I *1196:B I *D sky130_fd_sc_hd__and2_1
*I *1503:A I *D sky130_fd_sc_hd__buf_2
*I *1256:A I *D sky130_fd_sc_hd__xnor2_1
*I *1389:Q O *D sky130_fd_sc_hd__dfxtp_1
*CAP
1 *1208:B 0
2 *1223:A1 0.000362272
3 *1258:A1 0
4 *1196:B 0.0001855
5 *1503:A 0.000825886
6 *1256:A 0.000323595
7 *1389:Q 0
8 *326:60 0.000529461
9 *326:36 0.00025733
10 *326:34 0.000743501
11 *326:6 0.0015003
12 *326:4 0.000855297
13 *1196:B *1196:A 0.000122337
14 *1196:B *327:10 4.38051e-05
15 *1196:B *327:12 0.000118527
16 *1196:B *371:32 0
17 *1223:A1 *1223:C1 0.000369326
18 *1223:A1 *327:10 0
19 *1503:A *371:38 0.000135667
20 *1503:A *371:44 0.000160276
21 *1503:A *371:63 0
22 *1503:A *373:69 0
23 *326:34 *1260:B1 4.51861e-05
24 *326:36 *327:10 0.000134509
25 *326:60 *1260:B1 0
26 *326:60 *327:10 0.000312666
27 *326:60 *327:43 0.000201503
28 *326:60 *371:24 0.000353049
29 *1223:A2 *1223:A1 2.41641e-05
30 *1241:C *1503:A 2.24992e-05
31 *1241:D *1503:A 7.23602e-05
32 *1253:B *1503:A 0
33 *1255:A2 *1503:A 6.28843e-05
34 *1256:B *1256:A 5.51926e-05
35 *1257:A2 *1503:A 0
36 *1258:A2 *1196:B 9.50342e-06
37 *1258:A2 *326:36 4.21314e-05
38 *1389:CLK *1256:A 3.66579e-05
39 *1389:D *1256:A 4.82319e-06
40 *1389:D *1503:A 7.06865e-05
41 *1501:A *1503:A 9.97548e-05
42 *195:10 *1503:A 0
43 *196:12 *1503:A 0.000518141
44 *197:34 *1196:B 0.000118513
45 *315:10 *1503:A 0
*RES
1 *1389:Q *326:4 1.6 
2 *326:4 *326:6 3.9 
3 *326:6 *1256:A 5.89 
4 *326:6 *1503:A 23.555 
5 *326:4 *326:34 7.625 
6 *326:34 *326:36 1.635 
7 *326:36 *1196:B 7.665 
8 *326:36 *1258:A1 3.6 
9 *326:34 *326:60 7.61 
10 *326:60 *1223:A1 11.585 
11 *326:60 *1208:B 1.6 
*END

*D_NET *327 0.00561401
*CONN
*I *1208:A I *D sky130_fd_sc_hd__or2_1
*I *1223:C1 I *D sky130_fd_sc_hd__o211a_1
*I *1258:B1 I *D sky130_fd_sc_hd__a21oi_1
*I *1196:A I *D sky130_fd_sc_hd__and2_1
*I *1504:A I *D sky130_fd_sc_hd__buf_2
*I *1390:Q O *D sky130_fd_sc_hd__dfxtp_1
*CAP
1 *1208:A 3.29962e-05
2 *1223:C1 0.000173471
3 *1258:B1 4.96309e-05
4 *1196:A 5.6414e-05
5 *1504:A 0.000505284
6 *1390:Q 0
7 *327:43 0.000357321
8 *327:12 0.000606179
9 *327:10 0.000360063
10 *327:4 0.000416805
11 *1208:A *371:24 6.76966e-05
12 *1504:A *1266:B1 0.000895669
13 *1504:A *373:31 0.000193765
14 *327:10 *373:31 4.75576e-05
15 *327:12 *373:31 7.44375e-05
16 *327:43 *371:24 1.33285e-05
17 *1196:B *1196:A 0.000122337
18 *1196:B *327:10 4.38051e-05
19 *1196:B *327:12 0.000118527
20 *1223:A1 *1223:C1 0.000369326
21 *1223:A1 *327:10 0
22 *1262:A2 *1504:A 0.000194596
23 *1272:A2 *1258:B1 5.18292e-05
24 *197:12 *1504:A 8.97564e-05
25 *197:34 *1504:A 0.000116636
26 *197:34 *327:12 7.90356e-06
27 *302:36 *1223:C1 0
28 *326:36 *327:10 0.000134509
29 *326:60 *327:10 0.000312666
30 *326:60 *327:43 0.000201503
*RES
1 *1390:Q *327:4 1.6 
2 *327:4 *327:10 7.325 
3 *327:10 *327:12 1.635 
4 *327:12 *1504:A 17.985 
5 *327:12 *1196:A 4.74 
6 *327:10 *1258:B1 4.41 
7 *327:4 *327:43 2.175 
8 *327:43 *1223:C1 9.5 
9 *327:43 *1208:A 2.4025 
*END

*D_NET *328 0.000655627
*CONN
*I *1226:B I *D sky130_fd_sc_hd__or4_1
*I *1475:X O *D sky130_fd_sc_hd__clkbuf_1
*CAP
1 *1226:B 0.000207374
2 *1475:X 0.000207374
3 *1226:D *1226:B 3.86607e-05
4 *1227:B1 *1226:B 8.49205e-05
5 *1469:A *1226:B 0
6 *1475:A *1226:B 4.66108e-05
7 *1489:A *1226:B 7.06865e-05
8 *193:18 *1226:B 0
*RES
1 *1475:X *1226:B 10.59 
*END

*D_NET *329 0.00464708
*CONN
*I *1197:D I *D sky130_fd_sc_hd__and4_1
*I *1263:B I *D sky130_fd_sc_hd__and3_1
*I *1261:A1 I *D sky130_fd_sc_hd__a31o_1
*I *1456:A I *D sky130_fd_sc_hd__dlygate4sd3_1
*I *1264:A1 I *D sky130_fd_sc_hd__a31o_1
*I *1505:A I *D sky130_fd_sc_hd__buf_2
*I *1391:Q O *D sky130_fd_sc_hd__dfxtp_1
*CAP
1 *1197:D 2.52657e-05
2 *1263:B 2.9928e-05
3 *1261:A1 0.000588858
4 *1456:A 0
5 *1264:A1 0.000139025
6 *1505:A 0.000432986
7 *1391:Q 0.000236303
8 *329:47 0.000664404
9 *329:41 0.000220428
10 *329:12 0.000672581
11 *329:8 0.000486415
12 *1261:A1 *1261:A3 2.81759e-05
13 *1261:A1 *1261:B1 4.66826e-05
14 *1505:A *1261:A3 0
15 *1505:A *1506:A 0
16 *1505:A *330:19 0
17 *329:12 *1261:A3 0
18 *329:12 *1262:A1 0
19 *1263:C *1261:A1 3.16307e-05
20 *1264:A2 *1264:A1 2.30292e-05
21 *1264:A2 *329:47 0.000137571
22 *1264:A3 *1264:A1 0.000238919
23 *1264:A3 *329:12 0.000187759
24 *1265:B *1264:A1 0.000198945
25 *1265:B *1505:A 5.21627e-05
26 *1266:A2 *1505:A 0
27 *157:10 *1197:D 1.56428e-05
28 *157:10 *329:41 1.83756e-05
29 *211:10 *1261:A1 4.82863e-05
30 *211:10 *1263:B 4.66108e-05
31 *302:36 *1505:A 0
32 *302:36 *329:12 0
33 *302:36 *329:47 7.70938e-05
*RES
1 *1391:Q *329:8 5.08 
2 *329:8 *329:12 4.4 
3 *329:12 *1505:A 10.71 
4 *329:12 *1264:A1 7.17 
5 *329:8 *1456:A 1.6 
6 *329:8 *329:41 2.175 
7 *329:41 *329:47 5.635 
8 *329:47 *1261:A1 8.53 
9 *329:47 *1263:B 2.05 
10 *329:41 *1197:D 2.05 
*END

*D_NET *330 0.00258394
*CONN
*I *1263:A I *D sky130_fd_sc_hd__and3_1
*I *1195:C I *D sky130_fd_sc_hd__and3_1
*I *1197:C I *D sky130_fd_sc_hd__and4_1
*I *1264:B1 I *D sky130_fd_sc_hd__a31o_1
*I *1506:A I *D sky130_fd_sc_hd__buf_2
*I *1392:Q O *D sky130_fd_sc_hd__dfxtp_1
*CAP
1 *1263:A 0.000167488
2 *1195:C 9.73329e-05
3 *1197:C 7.25309e-05
4 *1264:B1 0
5 *1506:A 0.000102418
6 *1392:Q 0.000192343
7 *330:30 0.000169864
8 *330:28 0.000254422
9 *330:19 0.000389821
10 *330:8 0.000597648
11 *1195:C *1197:A 0.000115745
12 *1195:C *1197:B 3.82323e-06
13 *1197:C *1197:B 5.35969e-06
14 *1200:A2 *1263:A 0.000100536
15 *1264:A2 *1263:A 4.28313e-05
16 *1264:A2 *330:28 3.89528e-05
17 *1270:D *330:19 0
18 *1271:C *330:19 2.87867e-05
19 *1494:A *1506:A 0
20 *1494:A *330:19 0
21 *1505:A *1506:A 0
22 *1505:A *330:19 0
23 *157:10 *1197:C 1.54061e-06
24 *157:10 *1263:A 8.97564e-05
25 *211:10 *1263:A 1.83756e-05
26 *211:14 *1263:A 0
27 *211:14 *330:19 0
28 *211:14 *330:28 0
29 *293:79 *330:8 9.43648e-05
30 *302:36 *330:19 0
31 *302:36 *330:28 0
*RES
1 *1392:Q *330:8 6.12 
2 *330:8 *1506:A 5.235 
3 *330:8 *330:19 4.695 
4 *330:19 *1264:B1 3.6 
5 *330:19 *330:28 1.635 
6 *330:28 *330:30 2 
7 *330:30 *1197:C 2.395 
8 *330:30 *1195:C 2.9875 
9 *330:28 *1263:A 7.215 
*END

*D_NET *331 0.00395356
*CONN
*I *1267:A I *D sky130_fd_sc_hd__xnor2_1
*I *1195:B I *D sky130_fd_sc_hd__and3_1
*I *1197:B I *D sky130_fd_sc_hd__and4_1
*I *1269:A1 I *D sky130_fd_sc_hd__a31o_1
*I *1270:B I *D sky130_fd_sc_hd__nand4_1
*I *1507:A I *D sky130_fd_sc_hd__buf_2
*I *1393:Q O *D sky130_fd_sc_hd__dfxtp_1
*CAP
1 *1267:A 0
2 *1195:B 0
3 *1197:B 0.000204804
4 *1269:A1 0
5 *1270:B 0.000167805
6 *1507:A 0.000222427
7 *1393:Q 0.000163937
8 *331:51 0.000359958
9 *331:20 0.000424149
10 *331:18 0.000168155
11 *331:12 0.000354195
12 *331:8 0.00022874
13 *1197:B *1197:A 4.40446e-05
14 *1507:A *1508:A 0
15 *1507:A *332:23 0.00011686
16 *331:18 *332:36 0.000332744
17 *331:20 *332:23 0.000107627
18 *331:20 *332:36 9.50342e-06
19 *331:51 *1197:A 2.20732e-05
20 *331:51 *332:36 3.64622e-05
21 global_timeout_count[8] *1507:A 5.05521e-05
22 *1195:C *1197:B 3.82323e-06
23 *1197:C *1197:B 5.35969e-06
24 *1268:A2 *331:12 2.67022e-05
25 *1268:A2 *331:18 3.88511e-05
26 *1270:C *1507:A 7.30547e-05
27 *1270:C *331:18 9.50342e-06
28 *1270:C *331:20 0.000116158
29 *1271:A *331:18 0
30 *1274:A1 *331:12 0
31 *1274:A1 *331:18 0
32 *1494:A *1507:A 6.57653e-06
33 *1494:A *331:12 7.18817e-05
34 *1494:A *331:18 4.41808e-05
35 *201:33 *331:18 0.000311331
36 *293:79 *1270:B 0.000232105
*RES
1 *1393:Q *331:8 4.045 
2 *331:8 *331:12 3.635 
3 *331:12 *331:18 5.505 
4 *331:18 *331:20 1.38 
5 *331:20 *1507:A 7.995 
6 *331:20 *1270:B 5.775 
7 *331:18 *1269:A1 3.6 
8 *331:12 *331:51 3.83 
9 *331:51 *1197:B 4.3 
10 *331:51 *1195:B 1.6 
11 *331:8 *1267:A 1.6 
*END

*D_NET *332 0.00311544
*CONN
*I *1508:A I *D sky130_fd_sc_hd__buf_2
*I *1195:A I *D sky130_fd_sc_hd__and3_1
*I *1197:A I *D sky130_fd_sc_hd__and4_1
*I *1269:B1 I *D sky130_fd_sc_hd__a31o_1
*I *1270:A I *D sky130_fd_sc_hd__nand4_1
*I *1394:Q O *D sky130_fd_sc_hd__dfxtp_1
*CAP
1 *1508:A 0.000347335
2 *1195:A 0
3 *1197:A 7.08096e-05
4 *1269:B1 0
5 *1270:A 0.000155618
6 *1394:Q 0
7 *332:36 0.000232077
8 *332:23 0.000237823
9 *332:19 0.000479458
10 *332:4 0.000211186
11 *1195:C *1197:A 0.000115745
12 *1197:B *1197:A 4.40446e-05
13 *1270:C *1270:A 5.45491e-05
14 *1270:C *1508:A 4.66826e-05
15 *1270:C *332:19 4.80285e-05
16 *1494:A *332:23 0.000122103
17 *1494:A *332:36 0.000186407
18 *1507:A *1508:A 0
19 *1507:A *332:23 0.00011686
20 *293:79 *1270:A 4.79911e-05
21 *293:79 *1508:A 9.0308e-05
22 *331:18 *332:36 0.000332744
23 *331:20 *332:23 0.000107627
24 *331:20 *332:36 9.50342e-06
25 *331:51 *1197:A 2.20732e-05
26 *331:51 *332:36 3.64622e-05
*RES
1 *1394:Q *332:4 1.6 
2 *332:4 *1270:A 4.255 
3 *332:4 *332:19 0.795 
4 *332:19 *332:23 4.655 
5 *332:23 *1269:B1 3.6 
6 *332:23 *332:36 7.07 
7 *332:36 *1197:A 3.43 
8 *332:36 *1195:A 1.6 
9 *332:19 *1508:A 10.445 
*END

*D_NET *333 0.00186571
*CONN
*I *1509:A I *D sky130_fd_sc_hd__buf_2
*I *1452:A I *D sky130_fd_sc_hd__dlygate4sd3_1
*I *1408:Q O *D sky130_fd_sc_hd__dfxtp_1
*CAP
1 *1509:A 0.00040121
2 *1452:A 0
3 *1408:Q 0.000171418
4 *333:8 0.000572627
5 *1509:A *1368:A2 0
6 *1509:A *366:28 9.05377e-05
7 *1509:A *367:20 0.000121688
8 *1509:A *367:32 0.000141606
9 *1480:A *1509:A 0
10 *135:40 *333:8 0.000161829
11 *135:57 *1509:A 1.86911e-05
12 *135:70 *1509:A 0.000186099
*RES
1 *1408:Q *333:8 4.825 
2 *333:8 *1452:A 1.6 
3 *333:8 *1509:A 14.06 
*END

*D_NET *334 0.00533621
*CONN
*I *1510:A I *D sky130_fd_sc_hd__buf_2
*I *1434:A I *D sky130_fd_sc_hd__clkbuf_1
*I *1170:Y O *D sky130_fd_sc_hd__inv_2
*CAP
1 *1510:A 0.000637355
2 *1434:A 0.000367375
3 *1170:Y 0.000812463
4 *334:8 0.00181719
5 *1434:A *1298:A 0.000140145
6 *1434:A *1533:A 0
7 *1434:A *359:22 0
8 *1434:A *370:18 9.83767e-05
9 *1434:A *370:20 9.28444e-05
10 *1510:A *1324:A 0.000225971
11 *1510:A *1532:A 0
12 *1510:A *1534:A 0
13 *1510:A *360:23 0
14 *1510:A *370:18 0.00023354
15 *334:8 *1307:A1 4.17178e-05
16 *334:8 *1307:A2 1.07285e-05
17 *334:8 *1307:B1 0.000201738
18 *334:8 *362:34 1.09415e-05
19 group_timeout_count[0] *1510:A 4.82863e-05
20 *1324:C *1510:A 0
21 *1345:B *1434:A 0
22 *1410:CLK *1510:A 0.000218775
23 *1411:D *1510:A 9.54469e-05
24 *1417:D *1434:A 4.75576e-05
25 *1471:A *1434:A 4.92063e-05
26 *240:6 *334:8 0.000160211
27 *292:54 *1510:A 2.63378e-05
*RES
1 *1170:Y *334:8 13.365 
2 *334:8 *1434:A 11.49 
3 *334:8 *1510:A 18.945 
*END

*D_NET *335 0.00572351
*CONN
*I *1511:A I *D sky130_fd_sc_hd__buf_2
*I *1185:B I *D sky130_fd_sc_hd__or4b_1
*I *1169:A I *D sky130_fd_sc_hd__or4b_2
*I *1171:D_N I *D sky130_fd_sc_hd__or4b_2
*I *1167:B I *D sky130_fd_sc_hd__or4b_2
*I *1427:Q O *D sky130_fd_sc_hd__dfxtp_1
*CAP
1 *1511:A 0.000444917
2 *1185:B 0
3 *1169:A 9.71884e-06
4 *1171:D_N 0.000272749
5 *1167:B 0
6 *1427:Q 0.000675275
7 *335:43 0.000841482
8 *335:32 0.000447822
9 *335:14 0.000506701
10 *335:10 0.000950765
11 *1169:A *1169:B 4.82919e-05
12 *1171:D_N *1169:B 7.49327e-05
13 *1171:D_N *336:36 0
14 *1171:D_N *338:16 8.65905e-05
15 *1171:D_N *338:29 0.000149765
16 *1511:A *1513:A 0.000163199
17 *1511:A *1517:A 0.000155966
18 *1511:A *1519:A 8.18011e-05
19 *335:10 *337:10 0
20 *335:10 *375:54 0
21 *335:14 *1169:B 0.000164911
22 *335:32 *1169:C 0
23 *335:43 *1517:A 7.44375e-05
24 *335:43 *1519:A 2.67022e-05
25 *335:43 *337:44 0
26 group_state_bits[2] *1511:A 3.07153e-05
27 group_state_suspended *1511:A 1.17409e-05
28 *1296:C *1169:A 4.82919e-05
29 *1318:B *335:43 6.00003e-05
30 *1408:CLK *335:43 0
31 *1429:CLK *335:10 0
32 *139:12 *335:10 0.000158297
33 *139:12 *335:32 6.61973e-05
34 *139:12 *335:43 4.38051e-05
35 *140:14 *1171:D_N 2.61299e-05
36 *230:22 *335:10 9.37731e-05
37 *230:22 *335:32 8.53113e-06
38 *302:104 *335:10 0
39 *302:104 *335:43 0
*RES
1 *1427:Q *335:10 15.12 
2 *335:10 *335:14 4.865 
3 *335:14 *1167:B 1.6 
4 *335:14 *1171:D_N 6.475 
5 *335:10 *335:32 0.87 
6 *335:32 *1169:A 4.05 
7 *335:32 *335:43 7.5 
8 *335:43 *1185:B 3.6 
9 *335:43 *1511:A 11.64 
*END

*D_NET *336 0.00594216
*CONN
*I *1185:A I *D sky130_fd_sc_hd__or4b_1
*I *1512:A I *D sky130_fd_sc_hd__buf_2
*I *1169:D_N I *D sky130_fd_sc_hd__or4b_2
*I *1167:A I *D sky130_fd_sc_hd__or4b_2
*I *1171:A I *D sky130_fd_sc_hd__or4b_2
*I *1319:A I *D sky130_fd_sc_hd__xor2_1
*I *1428:Q O *D sky130_fd_sc_hd__dfxtp_1
*CAP
1 *1185:A 0.000567632
2 *1512:A 0.000242433
3 *1169:D_N 9.22913e-05
4 *1167:A 1.15106e-05
5 *1171:A 0
6 *1319:A 8.14047e-05
7 *1428:Q 0.00010704
8 *336:56 0.000909519
9 *336:36 0.000236679
10 *336:27 0.000685342
11 *336:12 0.000752105
12 *336:8 0.00032473
13 *1167:A *1167:C 5.4155e-06
14 *1169:D_N *1169:B 0.000106086
15 *1185:A *1185:C 6.97202e-05
16 *1185:A *1185:D_N 0
17 *1185:A *1370:A 0.000265565
18 *1185:A *338:8 0.000127948
19 *1512:A *1370:A 0.000123225
20 *1512:A *1515:A 0
21 *336:12 *1370:A 0
22 *336:12 *1515:A 9.78734e-05
23 *336:27 *1171:C 4.61744e-05
24 *336:27 *338:10 0.000208484
25 *336:27 *338:16 0.000163992
26 *336:27 *375:54 0
27 *336:36 *1167:C 0
28 *336:36 *1169:B 5.05437e-05
29 *336:36 *338:16 2.75145e-05
30 *336:36 *338:29 9.27495e-05
31 *336:56 *1370:A 0
32 *336:56 *1515:A 5.72742e-05
33 *1171:D_N *336:36 0
34 *1295:D *336:27 0
35 *1296:C *1169:D_N 0
36 *1370:B *1512:A 4.82863e-05
37 *1430:CLK *1185:A 6.77501e-05
38 *1430:CLK *1512:A 5.93869e-05
39 *1430:D *1185:A 7.7152e-05
40 *138:10 *1169:D_N 8.49205e-05
41 *138:10 *336:36 0.000123225
42 *149:10 *1185:A 2.8185e-05
43 *294:142 *1185:A 0
*RES
1 *1428:Q *336:8 4.74 
2 *336:8 *336:12 4.655 
3 *336:12 *1319:A 2.74 
4 *336:12 *336:27 13.12 
5 *336:27 *1171:A 1.6 
6 *336:27 *336:36 2.88 
7 *336:36 *1167:A 1.96 
8 *336:36 *1169:D_N 3.79 
9 *336:8 *336:56 3.89 
10 *336:56 *1512:A 9.755 
11 *336:56 *1185:A 11.725 
*END

*D_NET *337 0.00515276
*CONN
*I *1169:C I *D sky130_fd_sc_hd__or4b_2
*I *1513:A I *D sky130_fd_sc_hd__buf_2
*I *1185:C I *D sky130_fd_sc_hd__or4b_1
*I *1171:C I *D sky130_fd_sc_hd__or4b_2
*I *1167:D_N I *D sky130_fd_sc_hd__or4b_2
*I *1429:Q O *D sky130_fd_sc_hd__dfxtp_1
*CAP
1 *1169:C 8.41939e-05
2 *1513:A 0.000159672
3 *1185:C 4.97529e-05
4 *1171:C 0.000281856
5 *1167:D_N 0
6 *1429:Q 0.000321127
7 *337:44 0.000475186
8 *337:27 0.000596783
9 *337:18 0.000258146
10 *337:10 0.000614301
11 *1171:C *375:54 0
12 *1185:C *1185:D_N 8.34748e-05
13 *1513:A *1517:A 9.86689e-05
14 *337:44 *1517:A 9.59969e-05
15 group_state_suspended *1513:A 1.83756e-05
16 *1185:A *1185:C 6.97202e-05
17 *1295:D *337:18 9.70985e-05
18 *1295:D *337:27 5.46798e-05
19 *1295:D *337:44 0.000227817
20 *1318:B *1171:C 0.000178482
21 *1318:B *337:27 4.5783e-05
22 *1318:B *337:44 2.86623e-05
23 *1511:A *1513:A 0.000163199
24 *138:10 *1171:C 5.33085e-05
25 *139:12 *337:18 8.79989e-05
26 *149:10 *1185:C 4.82919e-05
27 *149:10 *337:44 8.70923e-05
28 *229:10 *337:18 7.3664e-05
29 *229:10 *337:27 1.70935e-05
30 *230:22 *1169:C 3.68769e-05
31 *230:22 *337:18 0.000196376
32 *302:104 *1169:C 0.00018305
33 *302:104 *337:10 0.000319855
34 *335:10 *337:10 0
35 *335:32 *1169:C 0
36 *335:43 *337:44 0
37 *336:27 *1171:C 4.61744e-05
*RES
1 *1429:Q *337:10 9.105 
2 *337:10 *337:18 9.01 
3 *337:18 *1167:D_N 3.6 
4 *337:18 *337:27 1.38 
5 *337:27 *1171:C 11.845 
6 *337:27 *337:44 6.735 
7 *337:44 *1185:C 5.085 
8 *337:44 *1513:A 7.23 
9 *337:10 *1169:C 5.745 
*END

*D_NET *338 0.0048675
*CONN
*I *1185:D_N I *D sky130_fd_sc_hd__or4b_1
*I *1514:A I *D sky130_fd_sc_hd__buf_2
*I *1315:A_N I *D sky130_fd_sc_hd__nand2b_1
*I *1169:B I *D sky130_fd_sc_hd__or4b_2
*I *1167:C I *D sky130_fd_sc_hd__or4b_2
*I *1171:B I *D sky130_fd_sc_hd__or4b_2
*I *1430:Q O *D sky130_fd_sc_hd__dfxtp_1
*CAP
1 *1185:D_N 0.000261228
2 *1514:A 0.000284425
3 *1315:A_N 0
4 *1169:B 0.000168274
5 *1167:C 1.88809e-05
6 *1171:B 2.97826e-05
7 *1430:Q 0
8 *338:29 0.000220675
9 *338:16 0.000150989
10 *338:10 0.000306353
11 *338:8 0.00082764
12 *338:4 0.000585777
13 *338:10 *1370:A 0
14 group_state_bits[0] *1514:A 3.72916e-05
15 *1167:A *1167:C 5.4155e-06
16 *1169:A *1169:B 4.82919e-05
17 *1169:D_N *1169:B 0.000106086
18 *1171:D_N *1169:B 7.49327e-05
19 *1171:D_N *338:16 8.65905e-05
20 *1171:D_N *338:29 0.000149765
21 *1185:A *1185:D_N 0
22 *1185:A *338:8 0.000127948
23 *1185:C *1185:D_N 8.34748e-05
24 *1295:D *338:10 0
25 *1296:C *1169:B 4.78537e-05
26 *1373:B *338:10 0.000196422
27 *1373:B *338:16 4.43871e-06
28 *1430:D *1514:A 3.84331e-05
29 *1430:D *338:8 1.04285e-06
30 *1430:D *338:10 3.86607e-05
31 *138:10 *1171:B 1.94805e-05
32 *138:10 *338:16 0
33 *149:10 *1185:D_N 4.82919e-05
34 *149:10 *1514:A 0
35 *149:10 *338:8 8.49205e-05
36 *149:10 *338:10 0
37 *247:10 *1171:B 0
38 *247:10 *338:16 0.000100528
39 *294:142 *1185:D_N 5.4155e-06
40 *335:14 *1169:B 0.000164911
41 *336:27 *338:10 0.000208484
42 *336:27 *338:16 0.000163992
43 *336:36 *1167:C 0
44 *336:36 *1169:B 5.05437e-05
45 *336:36 *338:16 2.75145e-05
46 *336:36 *338:29 9.27495e-05
*RES
1 *1430:Q *338:4 1.6 
2 *338:4 *338:8 6.245 
3 *338:8 *338:10 5.715 
4 *338:10 *338:16 4.94 
5 *338:16 *1171:B 6.215 
6 *338:16 *338:29 1.485 
7 *338:29 *1167:C 1.96 
8 *338:29 *1169:B 6.115 
9 *338:10 *1315:A_N 3.6 
10 *338:8 *1514:A 8.43 
11 *338:4 *1185:D_N 5.545 
*END

*D_NET *339 0.0048368
*CONN
*I *1226:A I *D sky130_fd_sc_hd__or4_1
*I *1221:B2 I *D sky130_fd_sc_hd__o32a_1
*I *1207:A1 I *D sky130_fd_sc_hd__a221oi_1
*I *1476:X O *D sky130_fd_sc_hd__buf_1
*CAP
1 *1226:A 0.000288153
2 *1221:B2 0.000175881
3 *1207:A1 4.57679e-05
4 *1476:X 0.000236482
5 *339:14 0.00038676
6 *339:10 0.000689745
7 *339:14 *1203:A 1.47347e-05
8 global_state_locked *339:10 1.94351e-05
9 *1203:B *1226:A 0
10 *1203:B *339:14 0.000102024
11 *1205:A2 *1207:A1 0
12 *1214:A *1221:B2 2.92496e-05
13 *1225:A *1226:A 6.55406e-05
14 *1225:C *1226:A 0.000116165
15 *1226:D *1226:A 0
16 *1227:B1 *1226:A 2.75145e-05
17 *1466:A *1226:A 0
18 *1467:A *1226:A 0
19 *1472:A *339:10 3.00381e-05
20 *1491:A *1207:A1 0.000124007
21 *1491:A *339:10 0.000164679
22 *1491:A *339:14 0.000830755
23 *137:6 *339:14 8.8266e-05
24 *148:16 *1221:B2 1.26626e-05
25 *164:6 *1207:A1 4.47125e-05
26 *295:6 *339:14 1.34503e-05
27 *301:10 *1221:B2 1.52184e-05
28 *301:27 *1221:B2 0.000460969
29 *306:14 *339:10 0
30 *306:14 *339:14 0.00016063
31 *306:29 *1207:A1 4.66108e-05
32 *306:29 *339:14 0.000141698
33 *306:48 *1221:B2 0.000505654
*RES
1 *1476:X *339:10 7.815 
2 *339:10 *339:14 9.695 
3 *339:14 *1207:A1 3.1 
4 *339:14 *1221:B2 11.825 
5 *339:10 *1226:A 8.49 
*END

*D_NET *340 0.00283501
*CONN
*I *1515:A I *D sky130_fd_sc_hd__buf_2
*I *1308:B1 I *D sky130_fd_sc_hd__o31ai_1
*I *1172:Y O *D sky130_fd_sc_hd__inv_2
*CAP
1 *1515:A 0.000409893
2 *1308:B1 0.000182595
3 *1172:Y 4.16082e-05
4 *340:8 0.000634096
5 *1308:B1 *362:34 0
6 *1515:A *1370:A 0
7 *1308:A2 *1308:B1 4.47125e-05
8 *1316:B *1308:B1 0
9 *1320:D *1515:A 0
10 *1370:B *1515:A 0.0003884
11 *1512:A *1515:A 0
12 *1542:A *1308:B1 0.0001249
13 *139:24 *1308:B1 3.68769e-05
14 *140:14 *1308:B1 2.24336e-05
15 *140:14 *1515:A 7.75325e-05
16 *140:18 *340:8 1.56428e-05
17 *246:10 *1308:B1 0.0002337
18 *246:10 *1515:A 0.000467472
19 *336:12 *1515:A 9.78734e-05
20 *336:56 *1515:A 5.72742e-05
*RES
1 *1172:Y *340:8 4.05 
2 *340:8 *1308:B1 8.19 
3 *340:8 *1515:A 15.18 
*END

*D_NET *341 0.000138592
*CONN
*I *1516:A I *D sky130_fd_sc_hd__buf_2
*I *1434:X O *D sky130_fd_sc_hd__clkbuf_1
*CAP
1 *1516:A 6.9296e-05
2 *1434:X 6.9296e-05
*RES
1 *1434:X *1516:A 4.265 
*END

*D_NET *342 0.000992806
*CONN
*I *1435:A I *D sky130_fd_sc_hd__clkbuf_1
*I *1517:A I *D sky130_fd_sc_hd__buf_2
*I *1186:Y O *D sky130_fd_sc_hd__inv_2
*CAP
1 *1435:A 0
2 *1517:A 0.00016816
3 *1186:Y 5.45422e-05
4 *342:6 0.000222703
5 *1373:A *342:6 0.000122331
6 *1511:A *1517:A 0.000155966
7 *1513:A *1517:A 9.86689e-05
8 *335:43 *1517:A 7.44375e-05
9 *337:44 *1517:A 9.59969e-05
*RES
1 *1186:Y *342:6 2.74 
2 *342:6 *1517:A 10.235 
3 *342:6 *1435:A 1.6 
*END

*D_NET *343 0.00703306
*CONN
*I *1288:A1 I *D sky130_fd_sc_hd__o21a_1
*I *1289:A1 I *D sky130_fd_sc_hd__o21ai_1
*I *1304:B1 I *D sky130_fd_sc_hd__o41ai_1
*I *1436:A I *D sky130_fd_sc_hd__clkbuf_1
*I *1518:A I *D sky130_fd_sc_hd__buf_2
*I *1212:B I *D sky130_fd_sc_hd__nor2_1
*I *1168:Y O *D sky130_fd_sc_hd__inv_2
*CAP
1 *1288:A1 0
2 *1289:A1 1.85662e-05
3 *1304:B1 0.000105468
4 *1436:A 3.47092e-05
5 *1518:A 0.000684903
6 *1212:B 0
7 *1168:Y 9.4745e-05
8 *343:33 0.00200416
9 *343:25 0.00163137
10 *343:14 0.00035965
11 *343:12 0.000234918
12 *343:8 0.000192807
13 *1304:B1 *1212:A 0
14 *1304:B1 *1303:A 0
15 *1436:A *1338:A 0
16 *1518:A *1212:A 0
17 *1518:A *348:12 0
18 *1518:A *361:12 0.000141599
19 *343:8 *1288:B1 1.43521e-05
20 *343:8 *1291:B2 0
21 *343:12 *1288:B1 3.04982e-05
22 *343:33 *1338:A 0.00012657
23 *343:33 *1531:A 0.000178347
24 group_timeout_count[10] *1518:A 0
25 *1290:B1 *343:12 0
26 *1299:C1 *343:33 0.0001249
27 *1304:A3 *1304:B1 1.01661e-05
28 *1313:A1 *1304:B1 6.10014e-05
29 *1371:A2 *343:8 0
30 *1371:A2 *343:12 0
31 *1415:CLK *1436:A 0
32 *1415:CLK *1518:A 0
33 *1421:CLK *1518:A 0
34 *1421:D *1518:A 0
35 *1478:A *1518:A 9.81389e-05
36 *3:15 *1436:A 0
37 *3:15 *1518:A 0
38 *171:18 *1289:A1 3.83041e-05
39 *171:18 *343:14 0.000313857
40 *171:18 *343:25 2.16833e-05
41 *226:12 *343:12 5.39718e-05
42 *232:10 *343:33 0.000124895
43 *262:29 *1436:A 0
44 *262:44 *343:33 0.000169018
45 *278:10 *1518:A 1.94723e-05
46 *278:14 *1518:A 0.00014499
*RES
1 *1168:Y *343:8 5.235 
2 *343:8 *343:12 4.145 
3 *343:12 *343:14 2.865 
4 *343:14 *1212:B 1.6 
5 *343:14 *343:25 3.84 
6 *343:25 *343:33 21.2 
7 *343:33 *1518:A 16.575 
8 *343:33 *1436:A 4.215 
9 *343:25 *1304:B1 7.235 
10 *343:12 *1289:A1 2.05 
11 *343:8 *1288:A1 3.6 
*END

*D_NET *344 0.000728781
*CONN
*I *1519:A I *D sky130_fd_sc_hd__buf_2
*I *1435:X O *D sky130_fd_sc_hd__clkbuf_1
*CAP
1 *1519:A 0.00024622
2 *1435:X 0.00024622
3 *1519:A *1541:A 0
4 *1373:A *1519:A 7.35813e-05
5 *1408:CLK *1519:A 5.4256e-05
6 *1511:A *1519:A 8.18011e-05
7 *335:43 *1519:A 2.67022e-05
*RES
1 *1435:X *1519:A 11.76 
*END

*D_NET *345 0.00685693
*CONN
*I *1520:A I *D sky130_fd_sc_hd__buf_2
*I *1321:A_N I *D sky130_fd_sc_hd__and2b_1
*I *1328:C I *D sky130_fd_sc_hd__and4_1
*I *1322:A I *D sky130_fd_sc_hd__nand2_1
*I *1323:A I *D sky130_fd_sc_hd__or2_1
*I *1325:B I *D sky130_fd_sc_hd__nand3_1
*I *1326:A1 I *D sky130_fd_sc_hd__a21o_1
*I *1329:A2 I *D sky130_fd_sc_hd__a31o_1
*I *1409:Q O *D sky130_fd_sc_hd__dfxtp_1
*CAP
1 *1520:A 0.000467189
2 *1321:A_N 6.10483e-05
3 *1328:C 0
4 *1322:A 5.05681e-05
5 *1323:A 7.08557e-05
6 *1325:B 0
7 *1326:A1 0.00010834
8 *1329:A2 9.56794e-05
9 *1409:Q 3.38751e-05
10 *345:53 0.000210623
11 *345:37 0.000146543
12 *345:31 0.000536165
13 *345:14 0.000554913
14 *345:12 0.000113343
15 *345:10 0.000203918
16 *345:8 0.000581061
17 *1322:A *1532:A 0.000208484
18 *1322:A *353:56 1.27434e-05
19 *1323:A *1323:B 4.66108e-05
20 *1326:A1 *1325:A 0.000120955
21 *1326:A1 *353:39 1.52249e-05
22 *1329:A2 *1329:A3 0.000252691
23 *1329:A2 *354:12 0.000229203
24 *1329:A2 *354:52 0.000124471
25 *1520:A *353:10 2.92496e-05
26 *1520:A *369:12 0
27 *345:8 *353:10 4.82863e-05
28 *345:10 *353:10 0.000163012
29 *345:12 *353:10 0.000129735
30 *345:12 *353:12 9.50342e-06
31 *345:12 *370:12 1.73877e-05
32 *345:14 *1329:A3 0.000114492
33 *345:14 *353:12 4.31106e-05
34 *345:14 *354:12 0.000147397
35 *345:31 *1325:A 3.23663e-05
36 *345:31 *353:35 4.82863e-05
37 *345:31 *353:39 0.000122331
38 *345:37 *1532:A 4.9968e-05
39 *345:37 *353:39 4.66108e-05
40 *345:53 *1532:A 0.000315146
41 *345:53 *353:45 0.000111096
42 *345:53 *353:56 1.71013e-05
43 group_timeout_count[3] *345:37 5.16418e-05
44 group_timeout_count[3] *345:53 8.76033e-05
45 group_timeout_count[6] *1322:A 0.000173222
46 *1324:C *1323:A 4.9253e-06
47 *1327:B *345:31 0.000346135
48 *1330:B *1329:A2 1.31297e-05
49 *1409:D *1520:A 0
50 *1447:A *1520:A 0
51 *292:32 *1329:A2 0
52 *292:46 *345:31 0.000490692
*RES
1 *1409:Q *345:8 4.05 
2 *345:8 *345:10 1.89 
3 *345:10 *345:12 1.635 
4 *345:12 *345:14 1.89 
5 *345:14 *1329:A2 7.395 
6 *345:14 *345:31 13.075 
7 *345:31 *345:37 3.065 
8 *345:37 *1326:A1 3.355 
9 *345:37 *1325:B 1.6 
10 *345:31 *345:53 3.675 
11 *345:53 *1323:A 4.74 
12 *345:53 *1322:A 6 
13 *345:12 *1328:C 3.6 
14 *345:10 *1321:A_N 4.395 
15 *345:8 *1520:A 10.845 
*END

*D_NET *346 0.0069049
*CONN
*I *1299:B1 I *D sky130_fd_sc_hd__o211a_1
*I *1350:B1 I *D sky130_fd_sc_hd__a21o_1
*I *1349:A I *D sky130_fd_sc_hd__and3_1
*I *1351:A I *D sky130_fd_sc_hd__and3_1
*I *1521:A I *D sky130_fd_sc_hd__buf_2
*I *1305:A I *D sky130_fd_sc_hd__or3_2
*I *1419:Q O *D sky130_fd_sc_hd__dfxtp_1
*CAP
1 *1299:B1 0.000164407
2 *1350:B1 2.09808e-05
3 *1349:A 0.000268933
4 *1351:A 0
5 *1521:A 0.000635603
6 *1305:A 0.000154116
7 *1419:Q 3.72342e-05
8 *346:42 0.000373363
9 *346:27 0.000849871
10 *346:23 0.000262387
11 *346:10 0.000355607
12 *346:8 0.000271565
13 *1299:B1 *1299:A2 9.50342e-06
14 *1349:A *361:12 8.51588e-05
15 *1521:A *1301:B 0.000105876
16 *1521:A *1357:B 4.11198e-05
17 *1521:A *1522:A 2.97004e-06
18 *1521:A *347:31 4.19797e-05
19 *346:8 *361:12 1.83756e-05
20 *346:23 *1212:A 0.000684915
21 *346:27 *1212:A 0.000571399
22 *1302:A *1305:A 7.89689e-05
23 *1350:A2 *1349:A 1.70906e-05
24 *1350:A2 *346:27 0.000195859
25 *1350:A2 *346:42 0
26 *1351:B *346:42 4.05358e-05
27 *1357:C *1521:A 0
28 *1357:C *346:42 0
29 *1415:CLK *346:42 2.7881e-05
30 *1421:CLK *1521:A 0.000105068
31 *1421:CLK *346:42 8.42239e-05
32 *1421:D *1521:A 0
33 *1444:A *346:23 4.66108e-05
34 *231:39 *1299:B1 0
35 *233:10 *1305:A 4.13171e-05
36 *238:12 *1299:B1 9.42585e-05
37 *238:12 *1305:A 0.000175855
38 *238:12 *346:10 6.10014e-05
39 *262:44 *1349:A 6.16151e-05
40 *262:44 *346:42 9.50342e-06
41 *262:51 *1349:A 0.000181965
42 *291:6 *346:23 8.65961e-05
43 *291:8 *346:23 8.49205e-05
44 *291:25 *346:10 0
45 *291:60 *1305:A 5.93674e-05
46 *317:14 *346:23 0.000276065
47 *317:14 *346:27 0.000220832
*RES
1 *1419:Q *346:8 4.05 
2 *346:8 *346:10 1.38 
3 *346:10 *1305:A 8.04 
4 *346:10 *346:23 8.315 
5 *346:23 *346:27 7.28 
6 *346:27 *1521:A 14.76 
7 *346:27 *346:42 4.4 
8 *346:42 *1351:A 1.6 
9 *346:42 *1349:A 5.635 
10 *346:23 *1350:B1 1.96 
11 *346:8 *1299:B1 6.81 
*END

*D_NET *347 0.00470341
*CONN
*I *1353:A I *D sky130_fd_sc_hd__nand2_1
*I *1354:A I *D sky130_fd_sc_hd__or2_1
*I *1301:C I *D sky130_fd_sc_hd__or3_1
*I *1357:B I *D sky130_fd_sc_hd__and3_1
*I *1356:A1 I *D sky130_fd_sc_hd__a21o_1
*I *1522:A I *D sky130_fd_sc_hd__buf_2
*I *1420:Q O *D sky130_fd_sc_hd__dfxtp_1
*CAP
1 *1353:A 0.00034306
2 *1354:A 0
3 *1301:C 0
4 *1357:B 8.60984e-05
5 *1356:A1 8.5905e-05
6 *1522:A 0.00067319
7 *1420:Q 0
8 *347:31 0.000250983
9 *347:18 0.00075217
10 *347:16 0.000244759
11 *347:12 0.000329965
12 *347:4 0.000428266
13 *1353:A *369:90 0.000121306
14 *1356:A1 *1357:A 8.65961e-05
15 *1357:B *369:96 0
16 *1522:A *1301:A 9.95272e-05
17 *1522:A *1301:B 0
18 *1522:A *1362:A 0
19 *1522:A *351:26 0.000136284
20 *1522:A *369:106 0.000316799
21 *347:16 *1301:B 2.65814e-06
22 *347:31 *1301:A 5.53249e-06
23 *347:31 *369:96 0
24 *1354:B *1353:A 0
25 *1354:B *347:12 0
26 *1354:B *347:16 4.77757e-05
27 *1355:C *347:12 6.90456e-05
28 *1355:C *347:16 8.64421e-05
29 *1356:A2 *1356:A1 2.05056e-05
30 *1357:C *1357:B 9.30717e-05
31 *1420:D *1353:A 0.000121643
32 *1423:D *1522:A 6.28843e-05
33 *1521:A *1357:B 4.11198e-05
34 *1521:A *1522:A 2.97004e-06
35 *1521:A *347:31 4.19797e-05
36 *234:10 *347:12 1.52352e-05
37 *234:10 *347:16 9.10218e-05
38 *272:19 *1353:A 0
39 *278:10 *1357:B 4.66108e-05
*RES
1 *1420:Q *347:4 1.6 
2 *347:4 *347:12 5.575 
3 *347:12 *347:16 4.26 
4 *347:16 *347:18 2 
5 *347:18 *1522:A 16.455 
6 *347:18 *347:31 1.38 
7 *347:31 *1356:A1 4.74 
8 *347:31 *1357:B 5.43 
9 *347:16 *1301:C 1.6 
10 *347:12 *1354:A 1.6 
11 *347:4 *1353:A 11.135 
*END

*D_NET *348 0.00238459
*CONN
*I *1523:A I *D sky130_fd_sc_hd__buf_2
*I *1357:A I *D sky130_fd_sc_hd__and3_1
*I *1356:B1 I *D sky130_fd_sc_hd__a21o_1
*I *1301:B I *D sky130_fd_sc_hd__or3_1
*I *1421:Q O *D sky130_fd_sc_hd__dfxtp_1
*CAP
1 *1523:A 0
2 *1357:A 4.9352e-05
3 *1356:B1 2.08101e-05
4 *1301:B 0.00031571
5 *1421:Q 0.000142148
6 *348:31 9.25061e-05
7 *348:16 0.000510003
8 *348:12 0.000314097
9 *1357:A *1358:B 6.52265e-05
10 *348:16 *1358:B 0.000111285
11 *348:31 *1358:B 2.75229e-05
12 group_timeout_count[12] *348:12 3.00381e-05
13 *1356:A1 *1357:A 8.65961e-05
14 *1356:A2 *1357:A 4.99619e-05
15 *1358:A_N *348:16 0.000198939
16 *1358:C *348:16 0.000200615
17 *1478:A *348:12 6.16226e-06
18 *1518:A *348:12 0
19 *1521:A *1301:B 0.000105876
20 *1522:A *1301:B 0
21 *3:15 *348:12 5.50794e-05
22 *278:14 *1301:B 0
23 *347:16 *1301:B 2.65814e-06
*RES
1 *1421:Q *348:12 8.375 
2 *348:12 *348:16 4.26 
3 *348:16 *1301:B 10.175 
4 *348:16 *348:31 0.45 
5 *348:31 *1356:B1 1.96 
6 *348:31 *1357:A 3.085 
7 *348:12 *1523:A 1.6 
*END

*D_NET *349 0.00381116
*CONN
*I *1301:A I *D sky130_fd_sc_hd__or3_1
*I *1359:A I *D sky130_fd_sc_hd__or2_1
*I *1524:A I *D sky130_fd_sc_hd__buf_2
*I *1360:A I *D sky130_fd_sc_hd__and2_1
*I *1363:B I *D sky130_fd_sc_hd__and3_1
*I *1422:Q O *D sky130_fd_sc_hd__dfxtp_1
*CAP
1 *1301:A 0.00015934
2 *1359:A 0
3 *1524:A 0.000100354
4 *1360:A 5.94466e-05
5 *1363:B 0.000202537
6 *1422:Q 0
7 *349:31 0.000186895
8 *349:29 0.000637003
9 *349:19 0.000824069
10 *349:6 0.000257357
11 *1301:A *369:96 0
12 *1301:A *369:106 0.000131401
13 *1363:B *369:106 7.06865e-05
14 *349:19 *369:106 0.000110683
15 *349:29 *1361:B 7.06865e-05
16 group_timeout_count[13] *1524:A 0
17 *1360:B *1360:A 4.66108e-05
18 *1360:B *1524:A 2.92496e-05
19 *1360:B *349:29 0
20 *1360:B *349:31 0.000152328
21 *1361:A_N *1360:A 2.31229e-05
22 *1361:A_N *349:31 1.03423e-05
23 *1361:C *349:29 5.10957e-05
24 *1362:B *1360:A 4.00541e-06
25 *1362:B *349:31 0.000124895
26 *1363:C *1363:B 2.66586e-05
27 *1364:A_N *1363:B 5.30673e-05
28 *1365:B *1363:B 5.30673e-05
29 *1422:CLK *349:29 6.46704e-05
30 *1422:D *349:29 0.00010943
31 *1522:A *1301:A 9.95272e-05
32 *3:15 *1524:A 0
33 *3:15 *349:29 0
34 *278:14 *349:29 0.000147093
35 *347:31 *1301:A 5.53249e-06
*RES
1 *1422:Q *349:6 3.6 
2 *349:6 *1363:B 6.645 
3 *349:6 *349:19 1.38 
4 *349:19 *349:29 14.445 
5 *349:29 *349:31 1.485 
6 *349:31 *1360:A 2.755 
7 *349:31 *1524:A 7.235 
8 *349:29 *1359:A 1.6 
9 *349:19 *1301:A 7.275 
*END

*D_NET *350 0.00510361
*CONN
*I *1212:A I *D sky130_fd_sc_hd__nor2_1
*I *1477:X O *D sky130_fd_sc_hd__clkbuf_1
*CAP
1 *1212:A 0.00131833
2 *1477:X 0.00131833
3 *1212:A *1202:B1 0.000147597
4 *1212:A *1303:A 3.05373e-05
5 *1212:A *361:12 2.87867e-05
6 *1304:B1 *1212:A 0
7 *1313:A1 *1212:A 0
8 *1351:B *1212:A 0.000234674
9 *1352:B *1212:A 0.00019898
10 *1440:A *1212:A 0.000175848
11 *1518:A *1212:A 0
12 *3:15 *1212:A 0
13 *317:14 *1212:A 0.000394217
14 *346:23 *1212:A 0.000684915
15 *346:27 *1212:A 0.000571399
*RES
1 *1477:X *1212:A 38.185 
*END

*D_NET *351 0.00370044
*CONN
*I *1300:B I *D sky130_fd_sc_hd__or2_1
*I *1363:A I *D sky130_fd_sc_hd__and3_1
*I *1362:A I *D sky130_fd_sc_hd__or2_1
*I *1525:A I *D sky130_fd_sc_hd__buf_2
*I *1423:Q O *D sky130_fd_sc_hd__dfxtp_1
*CAP
1 *1300:B 0
2 *1363:A 0
3 *1362:A 7.71163e-05
4 *1525:A 0.000441168
5 *1423:Q 0.000225858
6 *351:26 0.00108309
7 *351:16 0.000783463
8 *351:14 0.00044451
9 *351:14 *1526:A 9.48606e-05
10 *351:14 *352:21 4.77719e-05
11 *351:16 *1365:A 0.000125539
12 *351:16 *352:21 0.00015005
13 *1365:B *351:16 7.08554e-05
14 *1423:CLK *351:14 1.9872e-05
15 *1423:D *1362:A 0
16 *1423:D *1525:A 0
17 *1522:A *1362:A 0
18 *1522:A *351:26 0.000136284
*RES
1 *1423:Q *351:14 9.665 
2 *351:14 *351:16 3.9 
3 *351:16 *351:26 12.75 
4 *351:26 *1525:A 10.41 
5 *351:26 *1362:A 4.725 
6 *351:16 *1363:A 1.6 
7 *351:14 *1300:B 1.6 
*END

*D_NET *352 0.00319374
*CONN
*I *1526:A I *D sky130_fd_sc_hd__buf_2
*I *1300:A I *D sky130_fd_sc_hd__or2_1
*I *1365:A I *D sky130_fd_sc_hd__xor2_1
*I *1424:Q O *D sky130_fd_sc_hd__dfxtp_1
*CAP
1 *1526:A 0.000835059
2 *1300:A 0
3 *1365:A 4.62588e-05
4 *1424:Q 0.000105712
5 *352:21 0.000917475
6 *352:10 0.000234386
7 *1526:A *1249:A1 0.000161837
8 *1526:A *1249:B1 0.000201503
9 *1526:A *1252:B1 4.82919e-05
10 *1526:A *373:92 0
11 *1366:B *352:21 8.14331e-05
12 *1385:D *1526:A 0
13 *1386:CLK *1526:A 0
14 *1386:D *1526:A 0.000140905
15 *233:10 *1526:A 2.65814e-06
16 *291:76 *1526:A 0
17 *351:14 *1526:A 9.48606e-05
18 *351:14 *352:21 4.77719e-05
19 *351:16 *1365:A 0.000125539
20 *351:16 *352:21 0.00015005
*RES
1 *1424:Q *352:10 7.235 
2 *352:10 *1365:A 2.74 
3 *352:10 *352:21 2.535 
4 *352:21 *1300:A 1.6 
5 *352:21 *1526:A 21.005 
*END

*D_NET *353 0.00653618
*CONN
*I *1328:D I *D sky130_fd_sc_hd__and4_1
*I *1326:A2 I *D sky130_fd_sc_hd__a21o_1
*I *1325:C I *D sky130_fd_sc_hd__nand3_1
*I *1527:A I *D sky130_fd_sc_hd__buf_2
*I *1322:B I *D sky130_fd_sc_hd__nand2_1
*I *1323:B I *D sky130_fd_sc_hd__or2_1
*I *1329:A3 I *D sky130_fd_sc_hd__a31o_1
*I *1410:Q O *D sky130_fd_sc_hd__dfxtp_1
*CAP
1 *1328:D 0
2 *1326:A2 9.48747e-06
3 *1325:C 0
4 *1527:A 0.000229781
5 *1322:B 0
6 *1323:B 8.44897e-05
7 *1329:A3 0.000141134
8 *1410:Q 0.000314831
9 *353:56 0.000341807
10 *353:45 0.000399756
11 *353:39 0.000272973
12 *353:35 0.000553775
13 *353:12 0.000644128
14 *353:10 0.000343271
15 *1326:A2 *1325:A 1.35397e-05
16 *1527:A *1532:A 8.08153e-06
17 *353:35 *1325:A 2.30292e-05
18 *353:35 *1529:A 0.000725831
19 *353:35 *1532:A 5.21714e-05
20 *353:35 *354:27 7.17811e-05
21 *353:35 *355:49 0.000145515
22 *353:39 *1325:A 3.00381e-05
23 group_timeout_count[0] *1527:A 0.000161837
24 group_timeout_count[1] *1527:A 0
25 group_timeout_count[3] *353:45 0.000141606
26 group_timeout_count[6] *1527:A 0.000120186
27 group_timeout_count[6] *353:56 0.000175583
28 *1322:A *353:56 1.27434e-05
29 *1323:A *1323:B 4.66108e-05
30 *1326:A1 *353:39 1.52249e-05
31 *1329:A2 *1329:A3 0.000252691
32 *1330:B *1329:A3 0.00020338
33 *1520:A *353:10 2.92496e-05
34 *258:10 *353:35 0.000118081
35 *345:8 *353:10 4.82863e-05
36 *345:10 *353:10 0.000163012
37 *345:12 *353:10 0.000129735
38 *345:12 *353:12 9.50342e-06
39 *345:14 *1329:A3 0.000114492
40 *345:14 *353:12 4.31106e-05
41 *345:31 *353:35 4.82863e-05
42 *345:31 *353:39 0.000122331
43 *345:37 *353:39 4.66108e-05
44 *345:53 *353:45 0.000111096
45 *345:53 *353:56 1.71013e-05
*RES
1 *1410:Q *353:10 9.45 
2 *353:10 *353:12 0.615 
3 *353:12 *1329:A3 7.725 
4 *353:12 *353:35 16.125 
5 *353:35 *353:39 1.845 
6 *353:39 *353:45 6.38 
7 *353:45 *1323:B 4.74 
8 *353:45 *353:56 2.655 
9 *353:56 *1322:B 3.6 
10 *353:56 *1527:A 8.115 
11 *353:39 *1325:C 1.6 
12 *353:35 *1326:A2 1.96 
13 *353:10 *1328:D 3.6 
*END

*D_NET *354 0.00541614
*CONN
*I *1307:A2 I *D sky130_fd_sc_hd__o211a_1
*I *1329:A1 I *D sky130_fd_sc_hd__a31o_1
*I *1328:B I *D sky130_fd_sc_hd__and4_1
*I *1326:B1 I *D sky130_fd_sc_hd__a21o_1
*I *1325:A I *D sky130_fd_sc_hd__nand3_1
*I *1528:A I *D sky130_fd_sc_hd__buf_2
*I *1411:Q O *D sky130_fd_sc_hd__dfxtp_1
*CAP
1 *1307:A2 0.000215108
2 *1329:A1 0
3 *1328:B 0
4 *1326:B1 0
5 *1325:A 7.19272e-05
6 *1528:A 2.22788e-05
7 *1411:Q 0.000115019
8 *354:52 0.000353663
9 *354:27 0.000162282
10 *354:14 0.000398286
11 *354:12 0.00040815
12 *354:6 0.000376072
13 *1307:A2 *1307:A1 0.000122701
14 *1307:A2 *1307:B1 9.13949e-06
15 *1307:A2 *1329:B1 0.000121019
16 *1307:A2 *355:10 2.07184e-05
17 *1307:A2 *355:12 0.000317494
18 *1307:A2 *362:34 0.000158532
19 *1528:A *1529:A 4.82863e-05
20 *354:12 *370:12 3.31204e-05
21 *354:14 *1529:A 0.00064091
22 *354:14 *355:49 8.49205e-05
23 *354:14 *370:12 4.80285e-05
24 *354:27 *1532:A 0
25 *1326:A1 *1325:A 0.000120955
26 *1326:A2 *1325:A 1.35397e-05
27 *1329:A2 *354:12 0.000229203
28 *1329:A2 *354:52 0.000124471
29 *1410:CLK *354:27 0.00019189
30 *258:10 *354:12 0.000136877
31 *258:16 *354:12 0.000208491
32 *292:32 *1307:A2 0.000338212
33 *292:32 *354:12 0
34 *292:54 *354:27 9.50342e-06
35 *334:8 *1307:A2 1.07285e-05
36 *345:14 *354:12 0.000147397
37 *345:31 *1325:A 3.23663e-05
38 *353:35 *1325:A 2.30292e-05
39 *353:35 *354:27 7.17811e-05
40 *353:39 *1325:A 3.00381e-05
*RES
1 *1411:Q *354:6 3.085 
2 *354:6 *354:12 8.695 
3 *354:12 *354:14 6.66 
4 *354:14 *1528:A 2.05 
5 *354:14 *354:27 6.4 
6 *354:27 *1325:A 3.805 
7 *354:27 *1326:B1 1.6 
8 *354:12 *1328:B 1.6 
9 *354:6 *354:52 2.445 
10 *354:52 *1329:A1 1.6 
11 *354:52 *1307:A2 12.86 
*END

*D_NET *355 0.00843454
*CONN
*I *1328:A I *D sky130_fd_sc_hd__and4_1
*I *1529:A I *D sky130_fd_sc_hd__buf_2
*I *1329:B1 I *D sky130_fd_sc_hd__a31o_1
*I *1307:A1 I *D sky130_fd_sc_hd__o211a_1
*I *1309:A1 I *D sky130_fd_sc_hd__o211a_1
*I *1412:Q O *D sky130_fd_sc_hd__dfxtp_1
*CAP
1 *1328:A 0
2 *1529:A 0.000196782
3 *1329:B1 8.68148e-05
4 *1307:A1 4.24172e-05
5 *1309:A1 0.00102068
6 *1412:Q 0.000350177
7 *355:49 0.000516734
8 *355:12 0.00123177
9 *355:10 0.000332264
10 *355:8 0.000746898
11 *1307:A1 *362:34 2.05056e-05
12 *355:49 *370:12 8.38077e-05
13 group_timeout_count[2] *1529:A 8.65961e-05
14 *1307:A2 *1307:A1 0.000122701
15 *1307:A2 *1329:B1 0.000121019
16 *1307:A2 *355:10 2.07184e-05
17 *1307:A2 *355:12 0.000317494
18 *1309:B1 *1309:A1 0.00028585
19 *1346:A *1309:A1 5.39961e-05
20 *1348:C *1309:A1 0.000271334
21 *1414:CLK *1309:A1 1.97849e-05
22 *1448:A *355:49 4.66108e-05
23 *1528:A *1529:A 4.82863e-05
24 *231:29 *1309:A1 0.000151327
25 *240:6 *1307:A1 2.75145e-05
26 *253:10 *355:8 4.88287e-05
27 *253:10 *355:49 0.000116853
28 *258:10 *355:49 4.24242e-05
29 *292:32 *1309:A1 0.000231409
30 *292:32 *355:10 6.11019e-05
31 *292:32 *355:12 6.34101e-06
32 *292:32 *355:49 4.43777e-05
33 *292:105 *355:49 2.01541e-05
34 *292:147 *1309:A1 2.20732e-05
35 *334:8 *1307:A1 4.17178e-05
36 *353:35 *1529:A 0.000725831
37 *353:35 *355:49 0.000145515
38 *354:14 *1529:A 0.00064091
39 *354:14 *355:49 8.49205e-05
*RES
1 *1412:Q *355:8 7.5 
2 *355:8 *355:10 1.635 
3 *355:10 *355:12 3.93 
4 *355:12 *1309:A1 20.85 
5 *355:12 *1307:A1 5.085 
6 *355:10 *1329:B1 5.085 
7 *355:8 *355:49 8.9 
8 *355:49 *1529:A 9.655 
9 *355:49 *1328:A 1.6 
*END

*D_NET *356 0.00641943
*CONN
*I *1331:A I *D sky130_fd_sc_hd__nand2_1
*I *1309:A2 I *D sky130_fd_sc_hd__o211a_1
*I *1332:A I *D sky130_fd_sc_hd__or2_1
*I *1299:A2 I *D sky130_fd_sc_hd__o211a_1
*I *1335:A1 I *D sky130_fd_sc_hd__a21o_1
*I *1334:B I *D sky130_fd_sc_hd__and3_2
*I *1306:D I *D sky130_fd_sc_hd__and4_1
*I *1530:A I *D sky130_fd_sc_hd__buf_2
*I *1413:Q O *D sky130_fd_sc_hd__dfxtp_1
*CAP
1 *1331:A 0
2 *1309:A2 0.000135
3 *1332:A 3.99824e-05
4 *1299:A2 0.000259547
5 *1335:A1 1.8855e-05
6 *1334:B 0
7 *1306:D 5.61175e-05
8 *1530:A 0.000334871
9 *1413:Q 5.45834e-05
10 *356:73 0.000249081
11 *356:69 9.49086e-05
12 *356:24 0.000873586
13 *356:18 0.000757363
14 *356:12 0.000454396
15 *356:10 0.000551443
16 *356:8 0.000206513
17 *1299:A2 *1299:A1 0.000429843
18 *1299:A2 *1309:C1 0.000108322
19 *1530:A *1348:A 0.000273878
20 *1530:A *358:43 4.16445e-05
21 *1530:A *359:16 0.000172018
22 *1530:A *359:22 4.99619e-05
23 *356:18 *357:16 0.000223726
24 *356:24 *1306:C 0
25 *356:24 *1342:C 0
26 *356:24 *1531:A 0
27 *356:24 *357:16 2.96426e-05
28 *356:24 *359:12 0
29 *1299:B1 *1299:A2 9.50342e-06
30 *1313:A1 *1309:A2 0.000174236
31 *1313:A1 *356:73 0.000141599
32 *1331:B *356:10 0.00019637
33 *1331:B *356:12 0.000348281
34 *1334:C *356:12 2.20014e-05
35 *1334:C *356:18 2.47149e-05
36 *1342:B *1530:A 2.49909e-05
37 *231:14 *1306:D 0
38 *231:33 *1299:A2 0
39 *238:12 *1309:A2 0
40 *238:12 *356:73 0
41 *239:12 *1306:D 5.53249e-06
42 *258:56 *1335:A1 9.13949e-06
43 *262:12 *356:18 4.77774e-05
*RES
1 *1413:Q *356:8 2.41 
2 *356:8 *356:10 2.52 
3 *356:10 *356:12 3.555 
4 *356:12 *356:18 4.965 
5 *356:18 *356:24 8.87 
6 *356:24 *1530:A 10.62 
7 *356:24 *1306:D 4.47 
8 *356:18 *1334:B 1.6 
9 *356:12 *1335:A1 1.96 
10 *356:10 *1299:A2 11.825 
11 *356:8 *356:69 0.36 
12 *356:69 *356:73 3.635 
13 *356:73 *1332:A 4.05 
14 *356:73 *1309:A2 6.255 
15 *356:69 *1331:A 1.6 
*END

*D_NET *357 0.00763376
*CONN
*I *1309:C1 I *D sky130_fd_sc_hd__o211a_1
*I *1299:A1 I *D sky130_fd_sc_hd__o211a_1
*I *1335:B1 I *D sky130_fd_sc_hd__a21o_1
*I *1334:A I *D sky130_fd_sc_hd__and3_2
*I *1306:C I *D sky130_fd_sc_hd__and4_1
*I *1531:A I *D sky130_fd_sc_hd__buf_2
*I *1414:Q O *D sky130_fd_sc_hd__dfxtp_1
*CAP
1 *1309:C1 0.000243693
2 *1299:A1 0.000100071
3 *1335:B1 0
4 *1334:A 0
5 *1306:C 0.000350285
6 *1531:A 0.000892655
7 *1414:Q 0
8 *357:54 0.000343764
9 *357:18 0.00124294
10 *357:16 0.000131673
11 *357:12 0.000585938
12 *357:4 0.000454265
13 *1306:C *1348:A 0.000198939
14 *1309:C1 *369:25 0
15 *1531:A *1336:C 0
16 *1531:A *1338:A 1.61831e-05
17 *1531:A *1536:A 4.99619e-05
18 *1531:A *369:61 0
19 *1299:A2 *1299:A1 0.000429843
20 *1299:A2 *1309:C1 0.000108322
21 *1309:B1 *1309:C1 0.000122331
22 *1334:C *357:16 0.000384923
23 *1336:B *357:12 3.86607e-05
24 *1348:B *1306:C 2.87867e-05
25 *1414:CLK *1306:C 0
26 *1414:CLK *1531:A 0
27 *1414:CLK *357:12 2.54692e-05
28 *1439:A *357:12 0.000195603
29 *231:14 *1306:C 0
30 *231:33 *1309:C1 0
31 *238:12 *1299:A1 0.000429843
32 *238:12 *1309:C1 0.000487985
33 *262:12 *1531:A 5.51158e-05
34 *262:29 *1531:A 2.75229e-05
35 *262:44 *1531:A 0.000134938
36 *292:147 *1309:C1 0.000122331
37 *343:33 *1531:A 0.000178347
38 *356:18 *357:16 0.000223726
39 *356:24 *1306:C 0
40 *356:24 *1531:A 0
41 *356:24 *357:16 2.96426e-05
*RES
1 *1414:Q *357:4 1.6 
2 *357:4 *357:12 10.225 
3 *357:12 *357:16 4.605 
4 *357:16 *357:18 2 
5 *357:18 *1531:A 18.48 
6 *357:18 *1306:C 9.615 
7 *357:16 *1334:A 1.6 
8 *357:12 *1335:B1 1.6 
9 *357:4 *357:54 2 
10 *357:54 *1299:A1 8.55 
11 *357:54 *1309:C1 10.455 
*END

*D_NET *358 0.00927171
*CONN
*I *1337:A I *D sky130_fd_sc_hd__nand2_1
*I *1532:A I *D sky130_fd_sc_hd__buf_2
*I *1306:B I *D sky130_fd_sc_hd__and4_1
*I *1298:B I *D sky130_fd_sc_hd__and4_1
*I *1341:A1 I *D sky130_fd_sc_hd__a21o_1
*I *1338:A I *D sky130_fd_sc_hd__or2_1
*I *1415:Q O *D sky130_fd_sc_hd__dfxtp_1
*CAP
1 *1337:A 0
2 *1532:A 0.000838882
3 *1306:B 0.000159256
4 *1298:B 0.000202879
5 *1341:A1 0
6 *1338:A 0.000117562
7 *1415:Q 0.000151455
8 *358:50 0.000487798
9 *358:43 0.000295715
10 *358:39 0.00133855
11 *358:29 0.000561439
12 *358:10 0.000500842
13 *1298:B *1298:A 3.64622e-05
14 *1298:B *359:22 0
15 *1298:B *370:20 7.06865e-05
16 *1306:B *1348:A 4.47209e-05
17 *1306:B *359:16 0.000148977
18 *1532:A *1534:A 8.08153e-06
19 *358:10 *1339:A 0.000354725
20 *358:39 *1536:A 9.50342e-06
21 *358:39 *372:16 0
22 *358:43 *359:16 8.8266e-05
23 *358:43 *359:22 2.0514e-05
24 *358:50 *359:16 0.000191521
25 group_timeout_count[1] *1532:A 0
26 group_timeout_count[3] *1532:A 2.94565e-05
27 group_timeout_count[6] *1532:A 6.18754e-05
28 group_timeout_count[9] *1532:A 5.78448e-05
29 *1322:A *1532:A 0.000208484
30 *1324:C *1532:A 8.89751e-05
31 *1337:B *358:29 4.82863e-05
32 *1342:A_N *1532:A 0.000442439
33 *1342:A_N *358:39 0.000314407
34 *1342:B *358:39 0.000139835
35 *1343:B *1532:A 0.000232258
36 *1410:CLK *1532:A 0
37 *1415:CLK *1338:A 8.5225e-05
38 *1415:CLK *358:10 3.1835e-05
39 *1416:CLK *1532:A 0.000257522
40 *1416:CLK *358:39 0.000154741
41 *1436:A *1338:A 0
42 *1510:A *1532:A 0
43 *1527:A *1532:A 8.08153e-06
44 *1530:A *358:43 4.16445e-05
45 *1531:A *1338:A 1.61831e-05
46 *3:15 *358:29 3.51884e-05
47 *3:15 *358:39 0.000164874
48 *262:14 *358:29 8.49205e-05
49 *262:29 *1338:A 0.000163942
50 *262:29 *358:29 7.89034e-05
51 *262:44 *1338:A 3.66286e-05
52 *262:73 *358:29 1.52184e-05
53 *292:54 *1532:A 0
54 *292:60 *1532:A 0.000301254
55 *343:33 *1338:A 0.00012657
56 *345:37 *1532:A 4.9968e-05
57 *345:53 *1532:A 0.000315146
58 *353:35 *1532:A 5.21714e-05
59 *354:27 *1532:A 0
*RES
1 *1415:Q *358:10 7.425 
2 *358:10 *1338:A 7.395 
3 *358:10 *358:29 6.335 
4 *358:29 *358:39 11.03 
5 *358:39 *358:43 4.175 
6 *358:43 *1341:A1 1.6 
7 *358:43 *358:50 1.83 
8 *358:50 *1298:B 8.3 
9 *358:50 *1306:B 3.775 
10 *358:39 *1532:A 25.38 
11 *358:29 *1337:A 1.6 
*END

*D_NET *359 0.00307183
*CONN
*I *1306:A I *D sky130_fd_sc_hd__and4_1
*I *1341:B1 I *D sky130_fd_sc_hd__a21o_1
*I *1533:A I *D sky130_fd_sc_hd__buf_2
*I *1298:A I *D sky130_fd_sc_hd__and4_1
*I *1416:Q O *D sky130_fd_sc_hd__dfxtp_1
*CAP
1 *1306:A 0
2 *1341:B1 0
3 *1533:A 0.000142614
4 *1298:A 0.000238915
5 *1416:Q 0.000162261
6 *359:22 0.000502931
7 *359:16 0.00021356
8 *359:12 0.000254419
9 *1533:A *1345:A 4.66108e-05
10 *359:12 *1342:C 5.42473e-05
11 *359:12 *370:20 1.0183e-05
12 *359:16 *1348:A 0.000123225
13 *359:22 *370:20 0
14 *1298:B *1298:A 3.64622e-05
15 *1298:B *359:22 0
16 *1306:B *359:16 0.000148977
17 *1345:B *1533:A 7.57302e-05
18 *1346:B *359:12 3.72916e-05
19 *1416:CLK *1533:A 0.000151833
20 *1416:CLK *359:22 0.000210144
21 *1434:A *1298:A 0.000140145
22 *1434:A *1533:A 0
23 *1434:A *359:22 0
24 *1530:A *359:16 0.000172018
25 *1530:A *359:22 4.99619e-05
26 *356:24 *359:12 0
27 *358:43 *359:16 8.8266e-05
28 *358:43 *359:22 2.0514e-05
29 *358:50 *359:16 0.000191521
*RES
1 *1416:Q *359:12 8.285 
2 *359:12 *359:16 4.26 
3 *359:16 *359:22 4.85 
4 *359:22 *1298:A 7.5 
5 *359:22 *1533:A 6.63 
6 *359:16 *1341:B1 1.6 
7 *359:12 *1306:A 1.6 
*END

*D_NET *360 0.00473793
*CONN
*I *1307:B1 I *D sky130_fd_sc_hd__o211a_1
*I *1347:A1 I *D sky130_fd_sc_hd__a31o_1
*I *1298:D I *D sky130_fd_sc_hd__and4_1
*I *1534:A I *D sky130_fd_sc_hd__buf_2
*I *1343:A I *D sky130_fd_sc_hd__nand2_1
*I *1344:A I *D sky130_fd_sc_hd__or2_1
*I *1417:Q O *D sky130_fd_sc_hd__dfxtp_1
*CAP
1 *1307:B1 0.000180219
2 *1347:A1 0.000154434
3 *1298:D 8.20417e-05
4 *1534:A 0.000247475
5 *1343:A 0
6 *1344:A 7.20094e-05
7 *1417:Q 0
8 *360:45 0.000374906
9 *360:43 0.000318649
10 *360:23 0.00029943
11 *360:8 0.000625867
12 *360:4 0.000501902
13 *1298:D *1298:C 9.428e-05
14 *1307:B1 *362:34 0.000137921
15 *1307:B1 *362:36 5.84378e-05
16 *1347:A1 *1347:B1 0.000237249
17 *360:45 *1298:C 1.1561e-05
18 *360:45 *362:36 0.000138969
19 *1307:A2 *1307:B1 9.13949e-06
20 *1345:B *1344:A 5.23362e-05
21 *1345:B *360:23 7.06865e-05
22 *1417:CLK *1344:A 4.82919e-05
23 *1417:CLK *360:8 1.34503e-05
24 *1417:D *360:8 3.51254e-06
25 *1510:A *1534:A 0
26 *1510:A *360:23 0
27 *1532:A *1534:A 8.08153e-06
28 *239:12 *1298:D 9.05377e-05
29 *239:12 *1347:A1 2.23589e-05
30 *239:12 *360:45 2.7881e-05
31 *239:18 *360:45 0
32 *258:16 *1307:B1 0
33 *258:16 *360:45 0
34 *258:26 *360:45 0
35 *266:10 *1344:A 2.16833e-05
36 *266:10 *360:8 6.51523e-05
37 *292:54 *1534:A 2.97004e-06
38 *292:60 *1344:A 5.4003e-05
39 *292:60 *1534:A 0.000379354
40 *292:60 *360:23 0.000131401
41 *334:8 *1307:B1 0.000201738
*RES
1 *1417:Q *360:4 1.6 
2 *360:4 *360:8 7.625 
3 *360:8 *1344:A 5.37 
4 *360:8 *360:23 1.635 
5 *360:23 *1343:A 3.6 
6 *360:23 *1534:A 8.925 
7 *360:4 *360:43 2 
8 *360:43 *360:45 3.165 
9 *360:45 *1298:D 5.94 
10 *360:45 *1347:A1 6.48 
11 *360:43 *1307:B1 8.55 
*END

*D_NET *361 0.00653398
*CONN
*I *1304:A1 I *D sky130_fd_sc_hd__o41ai_1
*I *1303:A I *D sky130_fd_sc_hd__or4_1
*I *1202:B1 I *D sky130_fd_sc_hd__a41o_1
*I *1478:X O *D sky130_fd_sc_hd__buf_1
*CAP
1 *1304:A1 0
2 *1303:A 2.83834e-05
3 *1202:B1 0.00102296
4 *1478:X 0.000856786
5 *361:18 0.00120585
6 *361:12 0.00101129
7 *361:12 *1352:C 4.89295e-05
8 *1212:A *1202:B1 0.000147597
9 *1212:A *1303:A 3.05373e-05
10 *1212:A *361:12 2.87867e-05
11 *1303:C *361:18 4.40972e-05
12 *1303:D *361:18 0.0001249
13 *1304:A2 *361:18 0.000206434
14 *1304:B1 *1303:A 0
15 *1349:A *361:12 8.51588e-05
16 *1350:A2 *361:12 6.21477e-06
17 *1419:D *361:12 0.000147848
18 *1518:A *361:12 0.000141599
19 *3:15 *361:12 0
20 *162:10 *1202:B1 8.8266e-05
21 *262:44 *361:12 6.32851e-05
22 *262:51 *361:12 0.000170307
23 *291:25 *361:12 0.000160897
24 *291:29 *361:12 0.000728165
25 *317:14 *1202:B1 4.40812e-05
26 *317:30 *361:18 0.000123225
27 *346:8 *361:12 1.83756e-05
*RES
1 *1478:X *361:12 24.245 
2 *361:12 *361:18 6.17 
3 *361:18 *1202:B1 20.175 
4 *361:18 *1303:A 4.215 
5 *361:12 *1304:A1 1.6 
*END

*D_NET *362 0.00576003
*CONN
*I *1535:A I *D sky130_fd_sc_hd__buf_2
*I *1347:B1 I *D sky130_fd_sc_hd__a31o_1
*I *1298:C I *D sky130_fd_sc_hd__and4_1
*I *1308:A1 I *D sky130_fd_sc_hd__o31ai_1
*I *1316:A I *D sky130_fd_sc_hd__nor4_1
*I *1418:Q O *D sky130_fd_sc_hd__dfxtp_1
*CAP
1 *1535:A 0.000514857
2 *1347:B1 8.24326e-05
3 *1298:C 9.3293e-05
4 *1308:A1 0
5 *1316:A 4.73235e-05
6 *1418:Q 0.000206786
7 *362:36 0.000419981
8 *362:34 0.00151712
9 *362:23 0.000851284
10 *362:10 0.000347389
11 *1298:C *370:20 0
12 *1535:A *370:18 0
13 *362:10 *369:25 0.000106376
14 *362:23 *369:25 2.63122e-05
15 *362:36 *370:18 0
16 *362:36 *370:20 0
17 *1170:A *1316:A 3.45679e-05
18 *1170:A *362:23 0.000160665
19 *1170:A *362:34 9.10452e-05
20 *1298:D *1298:C 9.428e-05
21 *1307:A1 *362:34 2.05056e-05
22 *1307:A2 *362:34 0.000158532
23 *1307:B1 *362:34 0.000137921
24 *1307:B1 *362:36 5.84378e-05
25 *1308:B1 *362:34 0
26 *1316:B *362:23 5.63405e-05
27 *1316:D *362:23 0
28 *1347:A1 *1347:B1 0.000237249
29 *238:12 *362:10 0
30 *238:16 *362:10 0
31 *238:16 *362:23 0
32 *239:12 *1347:B1 0.000163204
33 *240:6 *362:34 5.09024e-05
34 *258:16 *1535:A 0
35 *258:16 *362:36 0
36 *292:6 *362:10 4.82919e-05
37 *292:140 *362:10 1.70935e-05
38 *300:10 *1347:B1 5.63701e-05
39 *334:8 *362:34 1.09415e-05
40 *360:45 *1298:C 1.1561e-05
41 *360:45 *362:36 0.000138969
*RES
1 *1418:Q *362:10 7.47 
2 *362:10 *1316:A 4.395 
3 *362:10 *362:23 4.655 
4 *362:23 *1308:A1 1.6 
5 *362:23 *362:34 11.69 
6 *362:34 *362:36 4.95 
7 *362:36 *1298:C 5.745 
8 *362:36 *1347:B1 6.465 
9 *362:34 *1535:A 10.95 
*END

*D_NET *363 0.000688527
*CONN
*I *1536:A I *D sky130_fd_sc_hd__buf_2
*I *1436:X O *D sky130_fd_sc_hd__clkbuf_1
*CAP
1 *1536:A 0.000216202
2 *1436:X 0.000216202
3 *1536:A *372:16 0
4 group_unlocked *1536:A 9.58678e-06
5 *1339:B *1536:A 0.000187071
6 *1339:C *1536:A 0
7 *1531:A *1536:A 4.99619e-05
8 *3:15 *1536:A 0
9 *358:39 *1536:A 9.50342e-06
*RES
1 *1436:X *1536:A 11.07 
*END

*D_NET *364 0.000612646
*CONN
*I *1537:A I *D sky130_fd_sc_hd__buf_2
*I *1437:A I *D sky130_fd_sc_hd__clkbuf_1
*I *1188:X O *D sky130_fd_sc_hd__or2_1
*CAP
1 *1537:A 0
2 *1437:A 7.95331e-05
3 *1188:X 0.000176446
4 *364:10 0.00025598
5 global_state_escalated *364:10 4.05358e-05
6 safe_led *364:10 6.01508e-05
7 *1490:A *364:10 0
8 *297:31 *364:10 0
*RES
1 *1188:X *364:10 9.02 
2 *364:10 *1437:A 2.74 
3 *364:10 *1537:A 1.6 
*END

*D_NET *365 0.000290671
*CONN
*I *1538:A I *D sky130_fd_sc_hd__buf_2
*I *1437:X O *D sky130_fd_sc_hd__clkbuf_1
*CAP
1 *1538:A 0.000101748
2 *1437:X 0.000101748
3 security_breach *1538:A 2.37037e-05
4 *297:21 *1538:A 4.18603e-06
5 *297:31 *1538:A 5.92849e-05
*RES
1 *1437:X *1538:A 9.285 
*END

*D_NET *366 0.00442888
*CONN
*I *1539:A I *D sky130_fd_sc_hd__buf_2
*I *1457:A I *D sky130_fd_sc_hd__dlygate4sd3_1
*I *1192:A1 I *D sky130_fd_sc_hd__o31a_1
*I *1193:A I *D sky130_fd_sc_hd__nor2_1
*I *1296:A I *D sky130_fd_sc_hd__or3_2
*I *1378:A1 I *D sky130_fd_sc_hd__o31ai_1
*I *1426:Q O *D sky130_fd_sc_hd__dfxtp_1
*CAP
1 *1539:A 0.000104742
2 *1457:A 0
3 *1192:A1 7.30462e-06
4 *1193:A 6.82531e-06
5 *1296:A 0.000114948
6 *1378:A1 3.74002e-05
7 *1426:Q 0.000144534
8 *366:43 0.000388804
9 *366:28 0.000587639
10 *366:14 0.000361879
11 *366:10 0.000208971
12 *366:8 0.000386879
13 *1193:A *1296:B 5.4155e-06
14 *1193:A *367:32 1.31519e-05
15 *1296:A *1296:B 6.32842e-05
16 *1378:A1 *1296:B 0
17 *1378:A1 *1378:A2 6.7444e-05
18 *1378:A1 *367:32 4.82919e-05
19 *1539:A *1368:A2 0
20 *1539:A *1540:A 4.82919e-05
21 *366:10 *1368:A2 0
22 *366:14 *1192:A2 0.000118513
23 *366:28 *367:32 5.93588e-05
24 *366:43 *1296:B 2.26018e-05
25 *366:43 *367:32 0.00024009
26 sticky_illegal *1539:A 1.83847e-05
27 *1192:A3 *366:28 0.000612508
28 *1192:B1 *366:28 0.000316421
29 *1296:C *1193:A 0
30 *1296:C *1296:A 3.70488e-05
31 *1297:B1 *1296:A 1.16578e-05
32 *1378:B1 *1378:A1 1.552e-05
33 *1378:B1 *366:28 1.61831e-05
34 *1381:D *366:8 2.97674e-05
35 *1381:D *366:10 0.000116621
36 *1381:D *366:14 6.47516e-05
37 *1509:A *366:28 9.05377e-05
38 *294:125 *366:14 0
39 *294:129 *366:8 1.31502e-05
40 *294:138 *366:8 4.99619e-05
*RES
1 *1426:Q *366:8 5.43 
2 *366:8 *366:10 2.91 
3 *366:10 *366:14 3.89 
4 *366:14 *366:28 12.835 
5 *366:28 *1378:A1 2.755 
6 *366:28 *366:43 3.93 
7 *366:43 *1296:A 3.79 
8 *366:43 *1193:A 1.96 
9 *366:14 *1192:A1 1.7425 
10 *366:10 *1457:A 3.6 
11 *366:8 *1539:A 5.43 
*END

*D_NET *367 0.00492347
*CONN
*I *1540:A I *D sky130_fd_sc_hd__buf_2
*I *1460:A I *D sky130_fd_sc_hd__dlygate4sd3_1
*I *1193:B I *D sky130_fd_sc_hd__nor2_1
*I *1296:B I *D sky130_fd_sc_hd__or3_2
*I *1425:Q O *D sky130_fd_sc_hd__dfxtp_1
*CAP
1 *1540:A 0.000563384
2 *1460:A 3.58311e-05
3 *1193:B 0
4 *1296:B 0.000173897
5 *1425:Q 0.000259362
6 *367:32 0.000371486
7 *367:20 0.00052063
8 *367:12 0.00110996
9 *367:20 *1367:A1 0
10 *367:20 *1378:A2 4.39656e-05
11 *367:32 *1378:A2 6.52265e-05
12 group_error *1540:A 3.94592e-05
13 sticky_illegal *1540:A 2.66586e-05
14 sticky_tamper *1540:A 1.7386e-05
15 *1192:B1 *1460:A 8.57024e-05
16 *1192:B1 *367:20 1.16578e-05
17 *1193:A *1296:B 5.4155e-06
18 *1193:A *367:32 1.31519e-05
19 *1296:A *1296:B 6.32842e-05
20 *1296:C *1296:B 1.08758e-05
21 *1367:A2 *367:12 0
22 *1367:A2 *367:20 0
23 *1378:A1 *1296:B 0
24 *1378:A1 *367:32 4.82919e-05
25 *1378:B1 *367:32 0.000114492
26 *1426:D *367:20 0.000139933
27 *1433:A *367:12 0
28 *1470:A *367:12 0.00012657
29 *1480:A *1540:A 0.00012657
30 *1509:A *367:20 0.000121688
31 *1509:A *367:32 0.000141606
32 *1539:A *1540:A 4.82919e-05
33 *135:57 *367:20 3.09233e-05
34 *135:57 *367:32 0.000185411
35 *135:70 *367:20 0.000100308
36 *366:28 *367:32 5.93588e-05
37 *366:43 *1296:B 2.26018e-05
38 *366:43 *367:32 0.00024009
*RES
1 *1425:Q *367:12 9.59 
2 *367:12 *367:20 10.765 
3 *367:20 *367:32 10.315 
4 *367:32 *1296:B 4.75 
5 *367:32 *1193:B 1.6 
6 *367:20 *1460:A 2.395 
7 *367:12 *1540:A 10.345 
*END

*D_NET *368 0.000604662
*CONN
*I *1541:A I *D sky130_fd_sc_hd__buf_2
*I *1438:X O *D sky130_fd_sc_hd__clkbuf_1
*CAP
1 *1541:A 0.00024824
2 *1438:X 0.00024824
3 *1373:A *1541:A 5.30673e-05
4 *1408:CLK *1541:A 0
5 *1425:D *1541:A 5.51158e-05
6 *1433:A *1541:A 0
7 *1519:A *1541:A 0
*RES
1 *1438:X *1541:A 11.415 
*END

*D_NET *369 0.0184011
*CONN
*I *1333:A I *D sky130_fd_sc_hd__and3_1
*I *1358:B I *D sky130_fd_sc_hd__and3b_1
*I *1355:A I *D sky130_fd_sc_hd__and3_1
*I *1366:A I *D sky130_fd_sc_hd__and2_1
*I *1364:B I *D sky130_fd_sc_hd__and3b_1
*I *1361:B I *D sky130_fd_sc_hd__and3b_1
*I *1352:C I *D sky130_fd_sc_hd__and3b_1
*I *1336:C I *D sky130_fd_sc_hd__and3b_1
*I *1339:A I *D sky130_fd_sc_hd__and3_1
*I *1321:B I *D sky130_fd_sc_hd__and2b_1
*I *1447:X O *D sky130_fd_sc_hd__clkbuf_2
*CAP
1 *1333:A 0.000266371
2 *1358:B 0.000214891
3 *1355:A 0
4 *1366:A 0.000343103
5 *1364:B 0
6 *1361:B 0.000480277
7 *1352:C 0.000144816
8 *1336:C 5.90251e-05
9 *1339:A 0.000376025
10 *1321:B 0.000128059
11 *1447:X 0.000239717
12 *369:106 0.000769561
13 *369:96 0.000835849
14 *369:92 0.000229966
15 *369:90 0.00084731
16 *369:61 0.00100759
17 *369:33 0.000471838
18 *369:31 0.000449692
19 *369:25 0.0017533
20 *369:12 0.00169865
21 *1339:A *372:16 0.000918426
22 *369:31 *372:16 0.000309998
23 *369:33 *372:16 8.41307e-05
24 *1170:A *369:25 8.97564e-05
25 *1301:A *369:96 0
26 *1301:A *369:106 0.000131401
27 *1309:C1 *369:25 0
28 *1316:B *369:25 0
29 *1339:C *1339:A 0.000139994
30 *1353:A *369:90 0.000121306
31 *1353:B *369:90 2.68526e-05
32 *1354:B *369:92 3.09164e-05
33 *1354:B *369:96 0.000140912
34 *1355:B *369:90 4.77774e-05
35 *1356:A2 *1358:B 0.000349587
36 *1357:A *1358:B 6.52265e-05
37 *1357:B *369:96 0
38 *1357:C *369:90 0
39 *1358:A_N *1358:B 4.82863e-05
40 *1361:C *1361:B 8.67423e-05
41 *1362:B *1361:B 9.36617e-05
42 *1363:B *369:106 7.06865e-05
43 *1363:C *1361:B 0.000124747
44 *1363:C *369:106 1.47347e-05
45 *1409:D *1321:B 0.000161985
46 *1409:D *369:12 0.000139933
47 *1414:CLK *369:25 0
48 *1415:CLK *1339:A 3.2645e-05
49 *1415:D *1339:A 0.000163518
50 *1422:D *1361:B 2.65814e-06
51 *1439:A *1333:A 0.000535974
52 *1447:A *369:12 0.000432442
53 *1447:A *369:25 0
54 *1520:A *369:12 0
55 *1522:A *369:106 0.000316799
56 *1531:A *1336:C 0
57 *1531:A *369:61 0
58 *231:33 *369:25 0.000554869
59 *231:33 *369:31 0.000114492
60 *231:33 *369:61 0
61 *231:39 *369:61 0
62 *231:39 *369:90 0
63 *238:12 *369:25 0
64 *258:41 *369:25 0.000540888
65 *258:47 *369:25 0.000112783
66 *272:17 *369:90 0
67 *272:19 *369:90 0.000116853
68 *272:19 *369:92 2.07184e-05
69 *278:10 *1358:B 0.000538549
70 *292:105 *1321:B 4.82919e-05
71 *292:105 *369:25 0.000259934
72 *292:111 *369:25 2.92496e-05
73 *292:140 *369:25 0.000210839
74 *347:31 *369:96 0
75 *348:16 *1358:B 0.000111285
76 *348:31 *1358:B 2.75229e-05
77 *349:19 *369:106 0.000110683
78 *349:29 *1361:B 7.06865e-05
79 *358:10 *1339:A 0.000354725
80 *361:12 *1352:C 4.89295e-05
81 *362:10 *369:25 0.000106376
82 *362:23 *369:25 2.63122e-05
*RES
1 *1447:X *369:12 10.595 
2 *369:12 *1321:B 4.12 
3 *369:12 *369:25 29.87 
4 *369:25 *369:31 6.245 
5 *369:31 *369:33 0.795 
6 *369:33 *1339:A 13.225 
7 *369:33 *1336:C 6.725 
8 *369:31 *369:61 6.185 
9 *369:61 *1352:C 5.19 
10 *369:61 *369:90 13.87 
11 *369:90 *369:92 0.615 
12 *369:92 *369:96 5.675 
13 *369:96 *369:106 10.3 
14 *369:106 *1361:B 12.2 
15 *369:106 *1364:B 1.6 
16 *369:96 *1366:A 6.535 
17 *369:92 *1355:A 3.6 
18 *369:90 *1358:B 10.875 
19 *369:25 *1333:A 8.535 
*END

*D_NET *370 0.00817304
*CONN
*I *1330:C I *D sky130_fd_sc_hd__and3b_1
*I *1327:A I *D sky130_fd_sc_hd__and3_1
*I *1324:A I *D sky130_fd_sc_hd__and3_1
*I *1345:A I *D sky130_fd_sc_hd__and3_1
*I *1348:A I *D sky130_fd_sc_hd__and3_1
*I *1342:C I *D sky130_fd_sc_hd__and3b_1
*I *1448:X O *D sky130_fd_sc_hd__buf_1
*CAP
1 *1330:C 0.00012353
2 *1327:A 0
3 *1324:A 0.00059372
4 *1345:A 0.000189985
5 *1348:A 0.000182954
6 *1342:C 0.000474882
7 *1448:X 0.000316798
8 *370:20 0.000878021
9 *370:18 0.000865639
10 *370:16 0.00104919
11 *370:14 0.000181157
12 *370:12 0.000621484
13 *1298:B *370:20 7.06865e-05
14 *1298:C *370:20 0
15 *1306:B *1348:A 4.47209e-05
16 *1306:C *1348:A 0.000198939
17 *1324:B *1324:A 4.80285e-05
18 *1324:C *1324:A 9.16333e-06
19 *1341:A2 *1342:C 0
20 *1345:C *1345:A 5.45011e-05
21 *1410:D *1324:A 0.000118402
22 *1417:D *1345:A 4.99619e-05
23 *1434:A *370:18 9.83767e-05
24 *1434:A *370:20 9.28444e-05
25 *1510:A *1324:A 0.000225971
26 *1510:A *370:18 0.00023354
27 *1530:A *1348:A 0.000273878
28 *1533:A *1345:A 4.66108e-05
29 *1535:A *370:18 0
30 *239:12 *370:20 0
31 *258:10 *370:12 0.000129047
32 *258:16 *370:12 3.09233e-05
33 *262:73 *1342:C 0
34 *292:46 *1330:C 0.00010163
35 *292:46 *370:14 0.000375231
36 *300:10 *1345:A 0.000123225
37 *345:12 *370:12 1.73877e-05
38 *354:12 *370:12 3.31204e-05
39 *354:14 *370:12 4.80285e-05
40 *355:49 *370:12 8.38077e-05
41 *356:24 *1342:C 0
42 *359:12 *1342:C 5.42473e-05
43 *359:12 *370:20 1.0183e-05
44 *359:16 *1348:A 0.000123225
45 *359:22 *370:20 0
46 *362:36 *370:18 0
47 *362:36 *370:20 0
*RES
1 *1448:X *370:12 11.63 
2 *370:12 *370:14 3.555 
3 *370:14 *370:16 2 
4 *370:16 *370:18 9.54 
5 *370:18 *370:20 4.44 
6 *370:20 *1342:C 10.74 
7 *370:20 *1348:A 8.55 
8 *370:18 *1345:A 7.155 
9 *370:16 *1324:A 15.66 
10 *370:14 *1327:A 1.6 
11 *370:12 *1330:C 3.43 
*END

*D_NET *371 0.0175118
*CONN
*I *1279:A1 I *D sky130_fd_sc_hd__a21oi_1
*I *1276:A1 I *D sky130_fd_sc_hd__a21oi_1
*I *1260:A1 I *D sky130_fd_sc_hd__a21oi_1
*I *1257:A1 I *D sky130_fd_sc_hd__a21oi_1
*I *1255:A1 I *D sky130_fd_sc_hd__a21oi_1
*I *1266:A1 I *D sky130_fd_sc_hd__a21oi_1
*I *1261:A3 I *D sky130_fd_sc_hd__a31o_1
*I *1252:A1 I *D sky130_fd_sc_hd__a21oi_1
*I *1249:A1 I *D sky130_fd_sc_hd__a21oi_1
*I *1247:A2 I *D sky130_fd_sc_hd__a21oi_1
*I *1449:X O *D sky130_fd_sc_hd__buf_2
*CAP
1 *1279:A1 0
2 *1276:A1 0
3 *1260:A1 4.52672e-05
4 *1257:A1 0
5 *1255:A1 0
6 *1266:A1 0
7 *1261:A3 0.000540632
8 *1252:A1 2.08101e-05
9 *1249:A1 0.000332944
10 *1247:A2 0.000151175
11 *1449:X 0.000176685
12 *371:87 0.000986452
13 *371:76 0.000739606
14 *371:63 0.000939692
15 *371:44 0.000717616
16 *371:38 0.00037385
17 *371:32 0.000718559
18 *371:24 0.00250873
19 *371:14 0.00210505
20 *371:6 0.000395657
21 *1247:A2 *1247:A1 0.000465729
22 *1247:A2 *1247:B1 8.49205e-05
23 *1247:A2 *373:79 0.0003013
24 *1249:A1 *1252:B1 0.000113282
25 *1260:A1 *1260:B1 4.82919e-05
26 *1261:A3 *1261:B1 8.23457e-05
27 *1261:A3 *1262:A1 0.000118527
28 *1261:A3 *1266:B1 0.000415261
29 *1261:A3 *373:31 2.92496e-05
30 *371:32 *1260:B1 1.1561e-05
31 *371:32 *373:63 0.00047962
32 *371:32 *373:69 4.92062e-05
33 *371:38 *373:69 0.000356745
34 *371:44 *1247:A1 0.000228306
35 *371:44 *373:69 8.53113e-06
36 *371:44 *373:79 0.000426776
37 *371:63 *373:92 0
38 *371:76 *1252:B1 0.000173089
39 global_timeout_count[3] *371:87 1.61831e-05
40 global_timeout_count[5] *371:87 3.45679e-05
41 *1196:B *371:32 0
42 *1208:A *371:24 6.76966e-05
43 *1209:A1 *371:24 1.61831e-05
44 *1209:A3 *371:24 0.00011577
45 *1209:B1 *371:24 0.000198939
46 *1211:A3 *371:24 6.01884e-06
47 *1252:A2 *371:87 0.000124895
48 *1255:A2 *371:38 9.50342e-06
49 *1255:A2 *371:44 0.000117832
50 *1257:A2 *371:38 4.82919e-05
51 *1258:A2 *371:32 0
52 *1260:A2 *371:32 0.000139238
53 *1261:A1 *1261:A3 2.81759e-05
54 *1264:A3 *1261:A3 0
55 *1265:B *1261:A3 0
56 *1266:A2 *1261:A3 0.00031848
57 *1276:A2 *371:24 0.000142669
58 *1386:CLK *371:63 0
59 *1387:D *371:76 8.8266e-05
60 *1387:D *371:87 0.00022257
61 *1390:D *371:24 2.82072e-05
62 *1390:D *371:32 6.27993e-05
63 *1392:D *1261:A3 0.000139933
64 *1392:D *371:87 2.75229e-05
65 *1396:D *371:14 9.91316e-05
66 *1449:A *371:6 0.000162311
67 *1501:A *371:76 2.75145e-05
68 *1503:A *371:38 0.000135667
69 *1503:A *371:44 0.000160276
70 *1503:A *371:63 0
71 *1505:A *1261:A3 0
72 *1526:A *1249:A1 0.000161837
73 *193:24 *371:14 0
74 *293:134 *371:14 3.67779e-05
75 *315:10 *371:63 0.000175848
76 *316:72 *371:24 8.68535e-05
77 *326:60 *371:24 0.000353049
78 *327:43 *371:24 1.33285e-05
79 *329:12 *1261:A3 0
*RES
1 *1449:X *371:6 3.775 
2 *371:6 *371:14 7.045 
3 *371:14 *371:24 27.5375 
4 *371:24 *371:32 13.4375 
5 *371:32 *371:38 6.725 
6 *371:38 *371:44 9.455 
7 *371:44 *1247:A2 7.015 
8 *371:44 *371:63 9.97 
9 *371:63 *1249:A1 7.495 
10 *371:63 *371:76 5.295 
11 *371:76 *1252:A1 1.96 
12 *371:76 *371:87 8.745 
13 *371:87 *1261:A3 18.335 
14 *371:87 *1266:A1 1.6 
15 *371:38 *1255:A1 3.6 
16 *371:32 *1257:A1 1.6 
17 *371:24 *1260:A1 4.2825 
18 *371:14 *1276:A1 1.6 
19 *371:6 *1279:A1 1.6 
*END

*D_NET *372 0.0134434
*CONN
*I *1225:B I *D sky130_fd_sc_hd__or4_1
*I *398:DIODE I *D sky130_fd_sc_hd__diode_2
*I *1479:X O *D sky130_fd_sc_hd__buf_1
*CAP
1 *1225:B 0.000111252
2 *398:DIODE 0
3 *1479:X 0.00209836
4 *372:34 0.00225333
5 *372:16 0.00424044
6 *372:34 *391:60 0.00112767
7 *1203:C *1225:B 7.83602e-05
8 *1203:C *372:34 2.75229e-05
9 *1206:A2 *372:34 0.000278111
10 *1216:B *372:34 0
11 *1218:B1 *372:34 0
12 *1225:A *1225:B 1.65432e-05
13 *1288:A2 *372:34 1.83756e-05
14 *1291:A2 *372:34 7.12688e-05
15 *1291:B1 *372:34 7.22354e-05
16 *1339:A *372:16 0.000918426
17 *1339:B *372:16 0
18 *1339:C *372:16 8.53113e-06
19 *1342:B *372:16 4.78859e-05
20 *1376:A *372:34 0.000319178
21 *1416:D *372:16 8.67249e-05
22 *1536:A *372:16 0
23 *163:8 *372:34 0.000735161
24 *163:12 *372:34 0
25 *174:10 *372:34 8.53113e-06
26 *225:14 *372:34 0.000219354
27 *262:29 *372:16 6.28843e-05
28 *262:73 *372:16 0.000170315
29 *302:22 *372:34 7.88393e-05
30 *358:39 *372:16 0
31 *369:31 *372:16 0.000309998
32 *369:33 *372:16 8.41307e-05
*RES
1 *1479:X *372:16 33.545 
2 *372:16 *372:34 43.42 
3 *372:34 *398:DIODE 1.6 
4 *372:34 *1225:B 3.805 
*END

*D_NET *373 0.0190624
*CONN
*I *1279:B1 I *D sky130_fd_sc_hd__a21oi_1
*I *1260:B1 I *D sky130_fd_sc_hd__a21oi_1
*I *1257:B1 I *D sky130_fd_sc_hd__a21oi_1
*I *1255:B1 I *D sky130_fd_sc_hd__a21oi_1
*I *1252:B1 I *D sky130_fd_sc_hd__a21oi_1
*I *1249:B1 I *D sky130_fd_sc_hd__a21oi_1
*I *1247:B1 I *D sky130_fd_sc_hd__a21oi_1
*I *1261:B1 I *D sky130_fd_sc_hd__a31o_1
*I *1266:B1 I *D sky130_fd_sc_hd__a21oi_1
*I *1285:A I *D sky130_fd_sc_hd__nor2_1
*I *1450:X O *D sky130_fd_sc_hd__buf_2
*CAP
1 *1279:B1 0.000137167
2 *1260:B1 0.000169634
3 *1257:B1 2.08101e-05
4 *1255:B1 1.9369e-05
5 *1252:B1 0.000344839
6 *1249:B1 6.5646e-05
7 *1247:B1 4.58709e-05
8 *1261:B1 2.63573e-05
9 *1266:B1 0.000270513
10 *1285:A 0.000608246
11 *1450:X 0
12 *373:92 0.000755449
13 *373:79 0.000867579
14 *373:69 0.000645997
15 *373:63 0.000340933
16 *373:57 0.000550236
17 *373:31 0.00063982
18 *373:27 0.00152643
19 *373:10 0.00217251
20 *373:4 0.000728319
21 global_timeout_count[4] *1252:B1 8.65961e-05
22 group_timeout_count[15] *1249:B1 8.65961e-05
23 *1199:C *1285:A 4.39734e-05
24 *1201:A *373:27 5.83121e-06
25 *1201:B *1285:A 0.000147967
26 *1247:A2 *1247:B1 8.49205e-05
27 *1247:A2 *373:79 0.0003013
28 *1249:A1 *1252:B1 0.000113282
29 *1257:A2 *373:69 0.000117519
30 *1258:A2 *373:63 1.0183e-05
31 *1259:A *373:63 4.9253e-06
32 *1260:A1 *1260:B1 4.82919e-05
33 *1260:A2 *1260:B1 0.000130707
34 *1260:A2 *373:63 8.53113e-06
35 *1261:A1 *1261:B1 4.66826e-05
36 *1261:A3 *1261:B1 8.23457e-05
37 *1261:A3 *1266:B1 0.000415261
38 *1261:A3 *373:31 2.92496e-05
39 *1263:C *373:31 0
40 *1264:A3 *373:31 0
41 *1271:A *1285:A 0
42 *1272:A1 *373:27 1.4389e-05
43 *1272:A2 *373:27 0.000130453
44 *1272:B1 *373:27 7.8192e-05
45 *1273:B *373:27 0.000163204
46 *1274:A1 *1285:A 0
47 *1274:B1 *373:27 7.9205e-06
48 *1385:D *373:92 3.86529e-05
49 *1386:CLK *373:79 0
50 *1386:CLK *373:92 0.00038133
51 *1386:D *373:92 0
52 *1388:CLK *1255:B1 4.82863e-05
53 *1388:D *1255:B1 1.08758e-05
54 *1392:D *1266:B1 0.000141599
55 *1393:D *1285:A 0.000141599
56 *1395:D *1285:A 0
57 *1395:D *373:27 0.000211748
58 *1397:D *1279:B1 5.83121e-06
59 *1449:A *1279:B1 0.000121186
60 *1449:A *373:10 9.27255e-06
61 *1501:A *1252:B1 4.99619e-05
62 *1503:A *373:69 0
63 *1504:A *1266:B1 0.000895669
64 *1504:A *373:31 0.000193765
65 *1526:A *1249:B1 0.000201503
66 *1526:A *1252:B1 4.82919e-05
67 *1526:A *373:92 0
68 *161:14 *373:27 0.000204208
69 *193:24 *373:10 1.61831e-05
70 *193:30 *373:10 0.000111302
71 *196:18 *373:69 0.000196186
72 *196:18 *373:79 7.89767e-05
73 *196:22 *373:57 0.000123225
74 *196:22 *373:63 0.00085011
75 *196:22 *373:69 0.000198945
76 *196:43 *373:27 0.000353049
77 *196:43 *373:31 0
78 *196:43 *373:57 0.00014397
79 *196:45 *373:31 0
80 *198:22 *373:10 9.27495e-05
81 *198:35 *373:10 3.96653e-05
82 *291:76 *373:79 0
83 *293:67 *1285:A 9.58457e-05
84 *293:67 *373:10 2.46089e-05
85 *293:73 *1285:A 0.000171632
86 *315:10 *373:79 9.54469e-05
87 *326:34 *1260:B1 4.51861e-05
88 *326:60 *1260:B1 0
89 *327:10 *373:31 4.75576e-05
90 *327:12 *373:31 7.44375e-05
91 *371:32 *1260:B1 1.1561e-05
92 *371:32 *373:63 0.00047962
93 *371:32 *373:69 4.92062e-05
94 *371:38 *373:69 0.000356745
95 *371:44 *373:69 8.53113e-06
96 *371:44 *373:79 0.000426776
97 *371:63 *373:92 0
98 *371:76 *1252:B1 0.000173089
*RES
1 *1450:X *373:4 1.6 
2 *373:4 *373:10 9.53 
3 *373:10 *1285:A 16.71 
4 *373:10 *373:27 17.75 
5 *373:27 *373:31 8.735 
6 *373:31 *1266:B1 14.355 
7 *373:31 *1261:B1 4.395 
8 *373:27 *373:57 4.88 
9 *373:57 *373:63 10.31 
10 *373:63 *373:69 8.27 
11 *373:69 *373:79 11.825 
12 *373:79 *1247:B1 2.395 
13 *373:79 *373:92 10.99 
14 *373:92 *1249:B1 3.43 
15 *373:92 *1252:B1 8.605 
16 *373:69 *1255:B1 4.05 
17 *373:63 *1257:B1 1.96 
18 *373:57 *1260:B1 6.975 
19 *373:4 *1279:B1 4.405 
*END

*D_NET *374 0.0018788
*CONN
*I *1369:A3 I *D sky130_fd_sc_hd__a31o_1
*I *1317:B I *D sky130_fd_sc_hd__nand2b_1
*I *1542:X O *D sky130_fd_sc_hd__clkbuf_1
*CAP
1 *1369:A3 0.000263328
2 *1317:B 0.000186438
3 *1542:X 0.000364725
4 *374:8 0.000814491
5 *1313:A1 *1317:B 0
6 *1313:A1 *374:8 0
7 *1320:B *374:8 0
8 *1427:D *1369:A3 2.75145e-05
9 *1441:A *1317:B 0
10 *1441:A *1369:A3 4.66108e-05
11 *139:24 *374:8 0
12 *250:10 *1317:B 0
13 *250:10 *374:8 0
14 *292:147 *1317:B 0.000175695
*RES
1 *1542:X *374:8 9.315 
2 *374:8 *1317:B 7.0875 
3 *374:8 *1369:A3 7.5 
*END

*D_NET *375 0.0145732
*CONN
*I *1210:B I *D sky130_fd_sc_hd__or2_1
*I *1237:B I *D sky130_fd_sc_hd__nor2_1
*I *1234:C1 I *D sky130_fd_sc_hd__a221o_1
*I *1194:A I *D sky130_fd_sc_hd__or3b_1
*I *1286:B1 I *D sky130_fd_sc_hd__a21oi_1
*I *1164:A I *D sky130_fd_sc_hd__inv_2
*I *1370:A I *D sky130_fd_sc_hd__nor2_1
*I *1318:A I *D sky130_fd_sc_hd__nor2_1
*I *1372:A I *D sky130_fd_sc_hd__nor3_1
*I *1369:B1 I *D sky130_fd_sc_hd__a31o_1
*I *1451:X O *D sky130_fd_sc_hd__buf_2
*CAP
1 *1210:B 7.27526e-05
2 *1237:B 2.78682e-05
3 *1234:C1 7.77656e-05
4 *1194:A 0
5 *1286:B1 0.000256871
6 *1164:A 0
7 *1370:A 0.000610179
8 *1318:A 2.08101e-05
9 *1372:A 0
10 *1369:B1 5.24913e-05
11 *1451:X 0.00019892
12 *375:89 0.000310535
13 *375:54 0.00116108
14 *375:41 0.000662463
15 *375:30 0.000397118
16 *375:28 0.000515161
17 *375:26 0.000917663
18 *375:20 0.0011135
19 *375:14 0.000815296
20 *375:8 0.000584453
21 *375:14 *1210:A 0.000321294
22 *375:20 *1431:D 0
23 *375:26 *396:12 0
24 *1171:C *375:54 0
25 *1185:A *1370:A 0.000265565
26 *1192:A3 *375:20 0
27 *1192:A3 *375:26 0
28 *1194:B *375:89 0.000155928
29 *1234:A1 *375:26 0.000198273
30 *1234:A2 *1234:C1 0
31 *1234:B1 *375:26 9.54399e-05
32 *1234:B2 *1234:C1 1.12643e-05
33 *1234:B2 *375:26 0.000116853
34 *1286:A1 *1286:B1 4.66742e-05
35 *1295:D *375:54 0.000195686
36 *1315:B *1370:A 1.20789e-05
37 *1318:B *375:54 0.000201503
38 *1320:A *1370:A 4.99619e-05
39 *1320:C *1370:A 7.47838e-05
40 *1320:C *375:54 2.75229e-05
41 *1320:D *1370:A 0
42 *1369:A1 *1369:B1 0.000123225
43 *1369:A1 *375:28 0.000696005
44 *1369:A1 *375:30 0.000541118
45 *1373:B *1370:A 0
46 *1378:A3 *375:89 0.000155928
47 *1380:A2 *1286:B1 0
48 *1380:B1 *375:26 0.000161529
49 *1403:D *375:8 0.000141599
50 *1405:CLK *1237:B 3.26889e-05
51 *1405:CLK *375:14 0.000365089
52 *1405:CLK *375:20 0.000111302
53 *1407:D *375:14 4.99619e-05
54 *1407:D *375:20 1.16578e-05
55 *1429:CLK *375:41 0.000186635
56 *1429:CLK *375:54 1.89685e-05
57 *1430:CLK *1370:A 0.00038879
58 *1430:D *1370:A 0
59 *1431:CLK *375:20 0.000199833
60 *1432:D *375:26 0
61 *1443:A *375:28 0.000426206
62 *1458:A *375:8 0
63 *1482:A *375:8 0
64 *1488:A *375:14 0
65 *1512:A *1370:A 0.000123225
66 *1515:A *1370:A 0
67 *138:10 *375:54 6.65973e-05
68 *138:12 *375:41 5.13029e-05
69 *138:12 *375:54 0.000174702
70 *138:16 *375:41 8.26696e-05
71 *145:27 *1286:B1 0.000179322
72 *145:36 *1286:B1 0
73 *152:8 *375:26 0.000107424
74 *153:23 *375:28 0.000223016
75 *294:23 *375:26 0
76 *294:73 *375:26 0
77 *294:84 *375:20 0
78 *294:84 *375:26 0
79 *294:99 *375:20 0
80 *302:16 *375:26 0.000214839
81 *302:16 *375:28 0.000101022
82 *305:6 *375:20 1.17309e-05
83 *305:101 *1210:B 4.82919e-05
84 *305:101 *375:14 1.07797e-05
85 *335:10 *375:54 0
86 *336:12 *1370:A 0
87 *336:27 *375:54 0
88 *336:56 *1370:A 0
89 *338:10 *1370:A 0
*RES
1 *1451:X *375:8 7.275 
2 *375:8 *375:14 9.23 
3 *375:14 *375:20 10.685 
4 *375:20 *375:26 14.075 
5 *375:26 *375:28 9.42 
6 *375:28 *375:30 4.935 
7 *375:30 *1369:B1 2.74 
8 *375:30 *375:41 5.93 
9 *375:41 *1372:A 3.6 
10 *375:41 *375:54 13.295 
11 *375:54 *1318:A 1.96 
12 *375:54 *1370:A 18.005 
13 *375:28 *1164:A 1.6 
14 *375:26 *375:89 5.89 
15 *375:89 *1286:B1 6.325 
16 *375:89 *1194:A 1.6 
17 *375:20 *1234:C1 4.755 
18 *375:14 *1237:B 2.215 
19 *375:8 *1210:B 4.74 
*END

*D_NET *376 0.0010458
*CONN
*I *1297:A1 I *D sky130_fd_sc_hd__o21a_1
*I *1452:X O *D sky130_fd_sc_hd__dlygate4sd3_1
*CAP
1 *1297:A1 0.000402994
2 *1452:X 0.000402994
3 *1408:D *1297:A1 0
4 *135:21 *1297:A1 0
5 *135:40 *1297:A1 0.000239813
6 *302:104 *1297:A1 0
*RES
1 *1452:X *1297:A1 12.48 
*END

*D_NET *377 0.000733936
*CONN
*I *1192:A2 I *D sky130_fd_sc_hd__o31a_1
*I *1458:X O *D sky130_fd_sc_hd__dlygate4sd3_1
*CAP
1 *1192:A2 0.000307712
2 *1458:X 0.000307712
3 *366:14 *1192:A2 0.000118513
*RES
1 *1458:X *1192:A2 11.1 
*END

*D_NET *378 0.000793199
*CONN
*I *1161:A I *D sky130_fd_sc_hd__inv_2
*I *1459:X O *D sky130_fd_sc_hd__dlygate4sd3_1
*CAP
1 *1161:A 0.00032698
2 *1459:X 0.00032698
3 *1237:A *1161:A 0.000139238
4 *1407:D *1161:A 0
5 *1488:A *1161:A 0
6 *294:84 *1161:A 0
7 *294:99 *1161:A 0
8 *294:112 *1161:A 0
9 *294:125 *1161:A 0
*RES
1 *1459:X *1161:A 12.015 
*END

*D_NET *379 0.00170362
*CONN
*I *1378:A2 I *D sky130_fd_sc_hd__o31ai_1
*I *1367:A1 I *D sky130_fd_sc_hd__o21a_1
*I *1460:X O *D sky130_fd_sc_hd__dlygate4sd3_1
*CAP
1 *1378:A2 0.000308953
2 *1367:A1 0.000352323
3 *1460:X 0
4 *379:4 0.000661275
5 *1378:A1 *1378:A2 6.7444e-05
6 *1378:B1 *1378:A2 0.000126828
7 *135:21 *1378:A2 0
8 *135:57 *1378:A2 7.76068e-05
9 *367:20 *1367:A1 0
10 *367:20 *1378:A2 4.39656e-05
11 *367:32 *1378:A2 6.52265e-05
*RES
1 *1460:X *379:4 1.6 
2 *379:4 *1367:A1 9.845 
3 *379:4 *1378:A2 12.2075 
*END

*D_NET *380 0.000220279
*CONN
*I *1431:D I *D sky130_fd_sc_hd__dfxtp_2
*I *1461:X O *D sky130_fd_sc_hd__dlygate4sd3_1
*CAP
1 *1431:D 5.983e-05
2 *1461:X 5.983e-05
3 *1192:A3 *1431:D 9.71067e-05
4 *1431:CLK *1431:D 3.51254e-06
5 *375:20 *1431:D 0
*RES
1 *1461:X *1431:D 8.46375 
*END

*D_NET *381 0.00144456
*CONN
*I *1247:A1 I *D sky130_fd_sc_hd__a21oi_1
*I *1462:X O *D sky130_fd_sc_hd__dlygate4sd3_1
*CAP
1 *1247:A1 0.00030564
2 *1462:X 0.00030564
3 *1247:A2 *1247:A1 0.000465729
4 *315:10 *1247:A1 0.000139245
5 *371:44 *1247:A1 0.000228306
*RES
1 *1462:X *1247:A1 14.475 
*END

*D_NET *382 0.000572231
*CONN
*I *1281:A1 I *D sky130_fd_sc_hd__o211a_1
*I *1463:X O *D sky130_fd_sc_hd__dlygate4sd3_1
*CAP
1 *1281:A1 0.000196869
2 *1463:X 0.000196869
3 *1281:B1 *1281:A1 0.000162311
4 *1398:D *1281:A1 1.61831e-05
*RES
1 *1463:X *1281:A1 6.755 
*END

*D_NET *383 0.000717066
*CONN
*I *1368:A2 I *D sky130_fd_sc_hd__o21a_1
*I *1480:X O *D sky130_fd_sc_hd__clkbuf_1
*CAP
1 *1368:A2 0.000331796
2 *1480:X 0.000331796
3 *1368:A2 *1368:A1 5.34747e-05
4 *1509:A *1368:A2 0
5 *1539:A *1368:A2 0
6 *366:10 *1368:A2 0
*RES
1 *1480:X *1368:A2 11.94 
*END

*D_NET *384 0.0017123
*CONN
*I *1163:A I *D sky130_fd_sc_hd__inv_2
*I *1464:X O *D sky130_fd_sc_hd__dlygate4sd3_1
*CAP
1 *1163:A 0.000588474
2 *1464:X 0.000588474
3 *1207:B2 *1163:A 0
4 *1379:A *1163:A 0
5 *1383:CLK *1163:A 0.000124895
6 *133:23 *1163:A 0
7 *133:45 *1163:A 0
8 *143:10 *1163:A 7.06865e-05
9 *143:12 *1163:A 8.53113e-06
10 *148:10 *1163:A 3.69421e-05
11 *305:27 *1163:A 0.000294301
12 *309:40 *1163:A 0
13 *310:73 *1163:A 0
14 *312:12 *1163:A 0
*RES
1 *1464:X *1163:A 17.88 
*END

*D_NET *385 0.000937465
*CONN
*I *1291:B2 I *D sky130_fd_sc_hd__o221a_1
*I *1465:X O *D sky130_fd_sc_hd__dlygate4sd3_1
*CAP
1 *1291:B2 0.000231336
2 *1465:X 0.000231336
3 *1291:B2 *1465:A 0.000179235
4 *1291:B2 *392:10 0.000291372
5 *1291:C1 *1291:B2 4.18603e-06
6 *138:16 *1291:B2 0
7 *343:8 *1291:B2 0
*RES
1 *1465:X *1291:B2 12.66 
*END

*D_NET *386 0.000998391
*CONN
*I *1284:B1 I *D sky130_fd_sc_hd__a21oi_1
*I *1453:X O *D sky130_fd_sc_hd__dlygate4sd3_1
*CAP
1 *1284:B1 0.000298613
2 *1453:X 0.000298613
3 *1282:A_N *1284:B1 3.23663e-05
4 *1282:B *1284:B1 4.44198e-05
5 *1283:B1 *1284:B1 2.86265e-06
6 *1284:A2 *1284:B1 0.000112894
7 *1285:B *1284:B1 6.67195e-05
8 *1400:D *1284:B1 5.11504e-05
9 *200:25 *1284:B1 8.49205e-05
10 *322:12 *1284:B1 5.83121e-06
*RES
1 *1453:X *1284:B1 7.985 
*END

*D_NET *387 8.4422e-05
*CONN
*I *1162:A I *D sky130_fd_sc_hd__inv_2
*I *1454:X O *D sky130_fd_sc_hd__dlygate4sd3_1
*CAP
1 *1162:A 1.72301e-05
2 *1454:X 1.72301e-05
3 *1475:A *1162:A 4.99619e-05
*RES
1 *1454:X *1162:A 3.65 
*END

*D_NET *388 0.000872446
*CONN
*I *1210:A I *D sky130_fd_sc_hd__or2_1
*I *1455:X O *D sky130_fd_sc_hd__dlygate4sd3_1
*CAP
1 *1210:A 0.000127557
2 *1455:X 0.000127557
3 *1405:CLK *1210:A 2.30292e-05
4 *305:101 *1210:A 0.000273008
5 *375:14 *1210:A 0.000321294
*RES
1 *1455:X *1210:A 11.16 
*END

*D_NET *389 0.000519717
*CONN
*I *1262:A1 I *D sky130_fd_sc_hd__o21ba_1
*I *1456:X O *D sky130_fd_sc_hd__dlygate4sd3_1
*CAP
1 *1262:A1 0.000200595
2 *1456:X 0.000200595
3 *1261:A3 *1262:A1 0.000118527
4 *329:12 *1262:A1 0
*RES
1 *1456:X *1262:A1 10.41 
*END

*D_NET *390 0.000157352
*CONN
*I *1368:A1 I *D sky130_fd_sc_hd__o21a_1
*I *1457:X O *D sky130_fd_sc_hd__dlygate4sd3_1
*CAP
1 *1368:A1 5.19388e-05
2 *1457:X 5.19388e-05
3 *1368:A2 *1368:A1 5.34747e-05
*RES
1 *1457:X *1368:A1 4.34 
*END

*D_NET *391 0.00674484
*CONN
*I *1205:A1 I *D sky130_fd_sc_hd__o21ba_1
*I *1216:A I *D sky130_fd_sc_hd__or2_1
*I *1287:A2 I *D sky130_fd_sc_hd__a21boi_1
*I *1290:A1 I *D sky130_fd_sc_hd__o211a_1
*I *1289:B1 I *D sky130_fd_sc_hd__o21ai_1
*I *1288:B1 I *D sky130_fd_sc_hd__o21a_1
*I *1401:Q O *D sky130_fd_sc_hd__dfxtp_1
*CAP
1 *1205:A1 0.000441056
2 *1216:A 0
3 *1287:A2 0
4 *1290:A1 6.8137e-05
5 *1289:B1 0
6 *1288:B1 7.6739e-05
7 *1401:Q 0
8 *391:60 0.000902912
9 *391:30 8.89471e-05
10 *391:10 0.000155803
11 *391:8 0.000546489
12 *391:4 0.000908472
13 *1290:A1 *1203:A 7.4027e-05
14 *1290:A1 *392:10 4.21314e-05
15 *1207:B2 *1205:A1 0.000142662
16 *1207:C1 *1205:A1 0.00011379
17 *1216:B *1205:A1 0.000163199
18 *1218:B1 *391:60 6.61795e-05
19 *1227:A2 *391:60 3.29924e-05
20 *1227:A3 *391:60 4.66108e-05
21 *1227:B1 *1205:A1 0.000162596
22 *1227:B1 *391:60 0.000385338
23 *1287:B1_N *1290:A1 0.000162318
24 *1287:B1_N *391:10 8.49205e-05
25 *1290:B1 *1288:B1 4.40899e-05
26 *1291:C1 *1288:B1 2.75538e-05
27 *1401:CLK *391:8 0.000247672
28 *1401:D *1290:A1 0
29 *163:12 *1205:A1 0
30 *171:18 *1288:B1 3.00381e-05
31 *171:18 *1290:A1 8.40269e-05
32 *171:18 *391:8 9.27255e-06
33 *171:18 *391:10 5.10321e-05
34 *171:18 *391:60 8.39965e-05
35 *225:14 *391:60 0.000112751
36 *226:6 *1288:B1 2.75229e-05
37 *226:6 *391:10 9.52646e-05
38 *226:12 *1288:B1 9.37731e-05
39 *343:8 *1288:B1 1.43521e-05
40 *343:12 *1288:B1 3.04982e-05
41 *372:34 *391:60 0.00112767
*RES
1 *1401:Q *391:4 1.6 
2 *391:4 *391:8 6.24 
3 *391:8 *391:10 2.52 
4 *391:10 *1288:B1 8.195 
5 *391:10 *1289:B1 1.6 
6 *391:8 *391:30 0.36 
7 *391:30 *1290:A1 8.285 
8 *391:30 *1287:A2 1.6 
9 *391:4 *391:60 17.59 
10 *391:60 *1216:A 1.6 
11 *391:60 *1205:A1 13.94 
*END

*D_NET *392 0.00860627
*CONN
*I *1465:A I *D sky130_fd_sc_hd__dlygate4sd3_1
*I *1287:A1 I *D sky130_fd_sc_hd__a21boi_1
*I *1203:A I *D sky130_fd_sc_hd__or3_1
*I *1402:Q O *D sky130_fd_sc_hd__dfxtp_1
*CAP
1 *1465:A 0.000238901
2 *1287:A1 0
3 *1203:A 0.00234437
4 *1402:Q 8.10009e-05
5 *392:10 0.00269876
6 *392:8 0.000674296
7 *1203:B *1203:A 6.55328e-05
8 *1205:A2 *1203:A 0.000231211
9 *1222:C_N *1203:A 0.000165422
10 *1290:A1 *1203:A 7.4027e-05
11 *1290:A1 *392:10 4.21314e-05
12 *1290:B1 *392:10 0
13 *1291:A1 *392:10 8.97564e-05
14 *1291:B2 *1465:A 0.000179235
15 *1291:B2 *392:10 0.000291372
16 *1291:C1 *392:10 0
17 *1401:D *1203:A 0.000124895
18 *1401:D *392:10 0
19 *1402:D *1465:A 0
20 *1402:D *392:10 0
21 *1491:A *1203:A 3.59311e-05
22 *138:16 *1465:A 0
23 *163:14 *1203:A 0.000573677
24 *164:6 *1203:A 0.00015806
25 *170:8 *1203:A 8.49205e-05
26 *193:18 *1203:A 6.55328e-05
27 *306:14 *1203:A 8.57237e-05
28 *306:29 *1203:A 0.000286773
29 *339:14 *1203:A 1.47347e-05
*RES
1 *1402:Q *392:8 4.395 
2 *392:8 *392:10 6.225 
3 *392:10 *1203:A 39.175 
4 *392:10 *1287:A1 3.6 
5 *392:8 *1465:A 8.085 
*END

*D_NET *393 0.000336151
*CONN
*I *1230:B I *D sky130_fd_sc_hd__xor2_1
*I *1403:Q O *D sky130_fd_sc_hd__dfxtp_1
*CAP
1 *1230:B 0.000100998
2 *1403:Q 0.000100998
3 *1231:B1 *1230:B 0
4 *1485:A *1230:B 0.000134155
5 *297:21 *1230:B 0
*RES
1 *1403:Q *1230:B 9.03 
*END

*D_NET *394 0.000719947
*CONN
*I *1236:A2 I *D sky130_fd_sc_hd__o221a_1
*I *1235:A2_N I *D sky130_fd_sc_hd__o2bb2a_1
*I *1404:Q O *D sky130_fd_sc_hd__dfxtp_1
*CAP
1 *1236:A2 7.2412e-05
2 *1235:A2_N 8.86775e-05
3 *1404:Q 0
4 *394:4 0.000161089
5 *1235:A2_N *1236:B1 1.82476e-05
6 *1235:B1 *1235:A2_N 0
7 *1236:B2 *1236:A2 6.27438e-05
8 *1236:C1 *1235:A2_N 0.000117832
9 *1238:B *1236:A2 0.000198945
10 *136:10 *1235:A2_N 0
*RES
1 *1404:Q *394:4 1.6 
2 *394:4 *1235:A2_N 7.49 
3 *394:4 *1236:A2 3.79 
*END

*D_NET *395 0.00196454
*CONN
*I *1231:A2 I *D sky130_fd_sc_hd__a21o_1
*I *1236:B1 I *D sky130_fd_sc_hd__o221a_1
*I *1405:Q O *D sky130_fd_sc_hd__dfxtp_1
*CAP
1 *1231:A2 0
2 *1236:B1 0.000388271
3 *1405:Q 0.000272906
4 *395:12 0.000661177
5 *1231:B1 *395:12 4.61744e-05
6 *1235:A2_N *1236:B1 1.82476e-05
7 *1236:C1 *1236:B1 5.53249e-06
8 *1238:A *1236:B1 2.75145e-05
9 *1293:A *1236:B1 2.70346e-05
10 *1405:D *395:12 8.23457e-05
11 *1487:A *1236:B1 0
12 *133:62 *1236:B1 0.00031918
13 *136:10 *1236:B1 0
14 *297:21 *395:12 0.000106655
15 *297:31 *395:12 9.50342e-06
*RES
1 *1405:Q *395:12 9.5 
2 *395:12 *1236:B1 13.385 
3 *395:12 *1231:A2 1.6 
*END

*D_NET *396 0.00109946
*CONN
*I *1233:B I *D sky130_fd_sc_hd__or2_1
*I *1232:B I *D sky130_fd_sc_hd__nand2_1
*I *1406:Q O *D sky130_fd_sc_hd__dfxtp_1
*CAP
1 *1233:B 0
2 *1232:B 0.000109072
3 *1406:Q 0.00033207
4 *396:12 0.000441142
5 *1192:A3 *396:12 7.89689e-05
6 *309:23 *1232:B 5.05521e-05
7 *309:32 *1232:B 6.90876e-05
8 *309:38 *1232:B 1.85674e-05
9 *375:26 *396:12 0
*RES
1 *1406:Q *396:12 9.755 
2 *396:12 *1232:B 4.15 
3 *396:12 *1233:B 1.6 
*END

*D_NET *397 0.000281205
*CONN
*I *1165:A I *D sky130_fd_sc_hd__inv_2
*I *1407:Q O *D sky130_fd_sc_hd__dfxtp_1
*CAP
1 *1165:A 7.09798e-05
2 *1407:Q 7.09798e-05
3 *1487:A *1165:A 0
4 *305:101 *1165:A 0.000139245
*RES
1 *1407:Q *1165:A 8.835 
*END
