*SPEF "ieee 1481-1999"
*DESIGN "secure_boot_control_plane"
*DATE "06:45:04 Wednesday February 25, 2026"
*VENDOR "The OpenROAD Project"
*PROGRAM "OpenROAD"
*VERSION "edf00dff99f6c40d67a30c0e22a8191c5d2ed9d6"
*DESIGN_FLOW "NAME_SCOPE LOCAL" "PIN_CAP NONE"
*DIVIDER /
*DELIMITER :
*BUS_DELIMITER []
*T_UNIT 1 NS
*C_UNIT 1 PF
*R_UNIT 1 OHM
*L_UNIT 1 HENRY

*NAME_MAP
*1 clock_glitch
*2 cold_reset_req
*3 debug_enable
*4 file_denied
*5 fsm_error
*6 fw_fail
*7 fw_ok
*8 global_pin_ok
*9 group_autolock
*10 group_error
*11 group_suspended
*12 group_unlocked
*13 hdr_parse_fail
*14 illegal_in
*15 power_glitch
*16 safe_led
*17 security_breach
*18 size_mismatch
*19 tamper_in
*20 unlock_enable
*21 unlock_req
*22 user_irq
*25 warm_reset_req
*26 wb_ack_o
*27 wb_adr_i[0]
*28 wb_adr_i[10]
*29 wb_adr_i[11]
*30 wb_adr_i[12]
*31 wb_adr_i[13]
*32 wb_adr_i[14]
*33 wb_adr_i[15]
*34 wb_adr_i[16]
*35 wb_adr_i[17]
*36 wb_adr_i[18]
*37 wb_adr_i[19]
*38 wb_adr_i[1]
*39 wb_adr_i[20]
*40 wb_adr_i[21]
*41 wb_adr_i[22]
*42 wb_adr_i[23]
*43 wb_adr_i[24]
*44 wb_adr_i[25]
*45 wb_adr_i[26]
*46 wb_adr_i[27]
*47 wb_adr_i[28]
*48 wb_adr_i[29]
*49 wb_adr_i[2]
*50 wb_adr_i[30]
*51 wb_adr_i[31]
*52 wb_adr_i[3]
*53 wb_adr_i[4]
*54 wb_adr_i[5]
*55 wb_adr_i[6]
*56 wb_adr_i[7]
*57 wb_adr_i[8]
*58 wb_adr_i[9]
*59 wb_clk_i
*60 wb_cyc_i
*61 wb_dat_i[0]
*62 wb_dat_i[10]
*63 wb_dat_i[11]
*64 wb_dat_i[12]
*65 wb_dat_i[13]
*66 wb_dat_i[14]
*67 wb_dat_i[15]
*68 wb_dat_i[16]
*69 wb_dat_i[17]
*70 wb_dat_i[18]
*71 wb_dat_i[19]
*72 wb_dat_i[1]
*73 wb_dat_i[20]
*74 wb_dat_i[21]
*75 wb_dat_i[22]
*76 wb_dat_i[23]
*77 wb_dat_i[24]
*78 wb_dat_i[25]
*79 wb_dat_i[26]
*80 wb_dat_i[27]
*81 wb_dat_i[28]
*82 wb_dat_i[29]
*83 wb_dat_i[2]
*84 wb_dat_i[30]
*85 wb_dat_i[31]
*86 wb_dat_i[3]
*87 wb_dat_i[4]
*88 wb_dat_i[5]
*89 wb_dat_i[6]
*90 wb_dat_i[7]
*91 wb_dat_i[8]
*92 wb_dat_i[9]
*93 wb_dat_o[0]
*94 wb_dat_o[10]
*95 wb_dat_o[11]
*96 wb_dat_o[12]
*97 wb_dat_o[13]
*98 wb_dat_o[14]
*99 wb_dat_o[15]
*100 wb_dat_o[16]
*101 wb_dat_o[17]
*102 wb_dat_o[18]
*103 wb_dat_o[19]
*104 wb_dat_o[1]
*105 wb_dat_o[20]
*106 wb_dat_o[21]
*107 wb_dat_o[22]
*108 wb_dat_o[23]
*109 wb_dat_o[24]
*110 wb_dat_o[25]
*111 wb_dat_o[26]
*112 wb_dat_o[27]
*113 wb_dat_o[28]
*114 wb_dat_o[29]
*115 wb_dat_o[2]
*116 wb_dat_o[30]
*117 wb_dat_o[31]
*118 wb_dat_o[3]
*119 wb_dat_o[4]
*120 wb_dat_o[5]
*121 wb_dat_o[6]
*122 wb_dat_o[7]
*123 wb_dat_o[8]
*124 wb_dat_o[9]
*125 wb_rst_i
*126 wb_sel_i[0]
*127 wb_sel_i[1]
*128 wb_sel_i[2]
*129 wb_sel_i[3]
*130 wb_stb_i
*131 wb_we_i
*132 _000_
*133 _001_
*134 _002_
*135 _003_
*136 _004_
*137 _005_
*138 _006_
*139 _007_
*140 _008_
*141 _009_
*142 _010_
*143 _011_
*144 _012_
*145 _013_
*146 _014_
*147 _015_
*148 _016_
*149 _017_
*150 _018_
*151 _019_
*152 _020_
*153 _021_
*154 _022_
*155 _023_
*156 _024_
*157 _025_
*158 _026_
*159 _027_
*160 _028_
*161 _029_
*162 _030_
*163 _031_
*164 _032_
*165 _033_
*166 _034_
*167 _035_
*168 _036_
*169 _037_
*170 _038_
*171 _039_
*172 _040_
*173 _041_
*174 _042_
*175 _043_
*176 _044_
*177 _045_
*178 _046_
*179 _047_
*180 _048_
*181 _049_
*182 _050_
*183 _051_
*184 _052_
*185 _053_
*186 _054_
*187 _055_
*188 _056_
*189 _057_
*190 _058_
*191 _059_
*192 _060_
*193 _061_
*194 _062_
*195 _063_
*196 _064_
*197 _065_
*198 _066_
*199 _067_
*200 _068_
*201 _069_
*202 _070_
*203 _071_
*204 _072_
*205 _073_
*206 _074_
*207 _075_
*208 _076_
*209 _077_
*210 _078_
*211 _079_
*212 _080_
*213 _081_
*214 _082_
*215 _083_
*216 _084_
*217 _085_
*218 _086_
*219 _087_
*220 _088_
*221 _089_
*222 _090_
*223 _091_
*224 _092_
*225 _093_
*226 _094_
*227 _095_
*228 _096_
*229 _097_
*230 _098_
*231 _099_
*232 _100_
*233 _101_
*234 _102_
*235 _103_
*236 _104_
*237 _105_
*238 _106_
*239 _107_
*240 _108_
*241 _109_
*242 _110_
*243 _111_
*244 _112_
*245 _113_
*246 _114_
*247 _115_
*248 _116_
*249 _117_
*250 _118_
*251 _119_
*252 _120_
*253 _121_
*254 _122_
*255 _123_
*256 _124_
*257 _125_
*258 _126_
*259 _127_
*260 _128_
*261 _129_
*262 _130_
*263 _131_
*264 _132_
*265 _133_
*266 _134_
*267 _135_
*268 _136_
*269 _137_
*270 _138_
*271 _139_
*272 _140_
*273 _141_
*274 _142_
*275 _143_
*276 _144_
*277 _145_
*278 _146_
*279 _147_
*280 _148_
*281 _149_
*282 _150_
*283 _151_
*284 _152_
*285 _153_
*286 _154_
*287 _155_
*288 _156_
*289 _157_
*290 _158_
*291 _159_
*292 _160_
*293 _161_
*294 _162_
*295 _163_
*296 _164_
*297 _165_
*298 _166_
*299 _167_
*300 _168_
*301 _169_
*302 _170_
*303 _171_
*304 _172_
*305 _173_
*306 _174_
*307 _175_
*308 _176_
*309 _177_
*310 _178_
*311 _179_
*312 _180_
*313 _181_
*314 _182_
*315 _183_
*316 _184_
*317 _185_
*318 _186_
*319 _187_
*320 _188_
*321 _189_
*322 _190_
*323 _191_
*324 _192_
*325 _193_
*326 _194_
*327 _195_
*328 _196_
*329 _197_
*330 _198_
*331 _199_
*332 _200_
*333 _201_
*334 _202_
*335 _203_
*336 _204_
*337 _205_
*338 _206_
*339 _207_
*340 _208_
*341 _209_
*342 _210_
*343 _211_
*344 _212_
*345 _213_
*346 _214_
*347 _215_
*348 _216_
*349 _217_
*350 _218_
*351 _219_
*352 _220_
*353 _221_
*354 _222_
*355 _223_
*356 _224_
*357 _225_
*358 _226_
*359 _227_
*360 _228_
*361 _229_
*362 _230_
*363 _231_
*364 _232_
*365 _233_
*366 _234_
*367 _235_
*368 _236_
*369 _237_
*370 _238_
*371 _239_
*372 _240_
*373 _241_
*374 _242_
*375 _243_
*376 _244_
*377 _245_
*378 _246_
*379 _247_
*380 _248_
*381 _249_
*382 _250_
*383 _251_
*384 _252_
*385 _253_
*386 _254_
*387 _255_
*388 _256_
*389 _257_
*390 _258_
*391 _259_
*392 _260_
*393 _261_
*394 _262_
*395 _263_
*396 _264_
*397 _265_
*398 _266_
*399 _267_
*400 _268_
*401 _269_
*402 _270_
*403 _271_
*404 _272_
*405 _273_
*406 _274_
*407 _275_
*408 _276_
*409 _277_
*410 _278_
*411 _279_
*412 _280_
*413 _281_
*414 _282_
*415 _283_
*416 _284_
*417 _285_
*418 _286_
*419 _287_
*420 _288_
*421 _289_
*422 _290_
*423 _291_
*424 _292_
*425 _293_
*426 _294_
*427 _295_
*428 _296_
*429 _297_
*430 _298_
*431 _299_
*432 _300_
*433 _301_
*434 _302_
*435 _303_
*436 _304_
*437 _305_
*438 _306_
*439 _307_
*440 _308_
*441 _309_
*442 _310_
*443 _311_
*444 _312_
*445 _313_
*446 _314_
*447 _315_
*448 _316_
*449 _317_
*450 _318_
*451 _319_
*452 _320_
*453 _321_
*454 _322_
*455 _323_
*456 _324_
*457 _325_
*458 _326_
*459 _327_
*460 _328_
*461 _329_
*462 _330_
*463 _331_
*464 _332_
*465 clknet_0_wb_clk_i
*466 clknet_3_0__leaf_wb_clk_i
*467 clknet_3_1__leaf_wb_clk_i
*468 clknet_3_2__leaf_wb_clk_i
*469 clknet_3_3__leaf_wb_clk_i
*470 clknet_3_4__leaf_wb_clk_i
*471 clknet_3_5__leaf_wb_clk_i
*472 clknet_3_6__leaf_wb_clk_i
*473 clknet_3_7__leaf_wb_clk_i
*474 ctrl_clear_pulse\[0\]
*475 ctrl_clear_pulse\[1\]
*476 ctrl_clear_pulse\[2\]
*477 ctrl_clear_pulse\[3\]
*478 ctrl_clear_pulse\[4\]
*479 global_timeout_count\[0\]
*480 global_timeout_count\[10\]
*481 global_timeout_count\[11\]
*482 global_timeout_count\[12\]
*483 global_timeout_count\[13\]
*484 global_timeout_count\[14\]
*485 global_timeout_count\[15\]
*486 global_timeout_count\[1\]
*487 global_timeout_count\[2\]
*488 global_timeout_count\[3\]
*489 global_timeout_count\[4\]
*490 global_timeout_count\[5\]
*491 global_timeout_count\[6\]
*492 global_timeout_count\[7\]
*493 global_timeout_count\[8\]
*494 global_timeout_count\[9\]
*495 group_state_bits\[0\]
*496 group_state_bits\[1\]
*497 group_state_bits\[2\]
*498 group_state_bits\[3\]
*499 group_timeout_count\[0\]
*500 group_timeout_count\[10\]
*501 group_timeout_count\[11\]
*502 group_timeout_count\[12\]
*503 group_timeout_count\[13\]
*504 group_timeout_count\[14\]
*505 group_timeout_count\[15\]
*506 group_timeout_count\[1\]
*507 group_timeout_count\[2\]
*508 group_timeout_count\[3\]
*509 group_timeout_count\[4\]
*510 group_timeout_count\[5\]
*511 group_timeout_count\[6\]
*512 group_timeout_count\[7\]
*513 group_timeout_count\[8\]
*514 group_timeout_count\[9\]
*515 net1
*516 net10
*517 net100
*518 net101
*519 net102
*520 net103
*521 net104
*522 net105
*523 net106
*524 net107
*525 net108
*526 net109
*527 net11
*528 net110
*529 net111
*530 net112
*531 net113
*532 net114
*533 net115
*534 net116
*535 net117
*536 net118
*537 net119
*538 net12
*539 net13
*540 net14
*541 net15
*542 net16
*543 net17
*544 net18
*545 net19
*546 net2
*547 net20
*548 net21
*549 net22
*550 net23
*551 net24
*552 net25
*553 net26
*554 net27
*555 net28
*556 net29
*557 net3
*558 net30
*559 net31
*560 net32
*561 net33
*562 net34
*563 net35
*564 net36
*565 net37
*566 net38
*567 net39
*568 net4
*569 net40
*570 net41
*571 net42
*572 net43
*573 net44
*574 net45
*575 net46
*576 net47
*577 net48
*578 net49
*579 net5
*580 net50
*581 net51
*582 net52
*583 net53
*584 net54
*585 net55
*586 net56
*587 net57
*588 net58
*589 net59
*590 net6
*591 net60
*592 net61
*593 net62
*594 net63
*595 net64
*596 net65
*597 net66
*598 net67
*599 net68
*600 net69
*601 net7
*602 net70
*603 net71
*604 net72
*605 net73
*606 net74
*607 net75
*608 net76
*609 net77
*610 net78
*611 net79
*612 net8
*613 net80
*614 net81
*615 net82
*616 net83
*617 net84
*618 net85
*619 net86
*620 net87
*621 net88
*622 net89
*623 net9
*624 net90
*625 net91
*626 net92
*627 net93
*628 net94
*629 net95
*630 net96
*631 net97
*632 net98
*633 net99
*634 sticky_illegal_core
*635 sticky_tamper_core
*636 sw_sticky_breach
*637 sw_sticky_fsm_error
*638 sw_sticky_group_error
*639 sw_sticky_illegal
*640 sw_sticky_tamper
*641 u_system\.u_global\.denial_counter\[0\]
*642 u_system\.u_global\.denial_counter\[1\]
*643 u_system\.u_global\.prev_state\[0\]
*644 u_system\.u_global\.prev_state\[1\]
*645 u_system\.u_global\.prev_state\[2\]
*646 u_system\.u_global\.prev_state\[3\]
*647 u_system\.u_global\.prev_state\[4\]
*648 u_system\.u_global\.state\[0\]
*649 u_system\.u_global\.state\[1\]
*650 u_system\.u_global\.state\[2\]
*651 u_system\.u_global\.state\[3\]
*652 u_system\.u_global\.state\[4\]
*653 ANTENNA__336__Y
*654 ANTENNA__339__Y
*655 ANTENNA__353__X
*656 ANTENNA__354__A2
*657 ANTENNA__365__X
*658 ANTENNA__389__B1
*659 ANTENNA__392__B1
*660 ANTENNA__396__A2
*661 ANTENNA__405__A2
*662 ANTENNA__407__A2
*663 ANTENNA__411__C
*664 ANTENNA__412__C
*665 ANTENNA__447__B
*666 ANTENNA__478__A1
*667 ANTENNA__483__A1
*668 ANTENNA__489__B1
*669 ANTENNA__495__B1
*670 ANTENNA__497__B1
*671 ANTENNA__547__B1
*672 ANTENNA__548__B
*673 ANTENNA__549__B
*674 ANTENNA__550__B
*675 ANTENNA__551__B
*676 ANTENNA__552__B
*677 ANTENNA__554__B1
*678 ANTENNA__555__C1
*679 ANTENNA__572__D1
*680 ANTENNA__621__B1
*681 ANTENNA__627__B1
*682 ANTENNA__628__B1
*683 ANTENNA__632__A
*684 ANTENNA__637__A
*685 ANTENNA__638__A
*686 ANTENNA__639__A
*687 ANTENNA__640__A
*688 ANTENNA__641__A
*689 ANTENNA__642__A
*690 ANTENNA__643__A
*691 ANTENNA__644__A
*692 ANTENNA__646__A
*693 ANTENNA__647__A
*694 ANTENNA__650__A
*695 ANTENNA__651__A
*696 ANTENNA__653__A
*697 ANTENNA__671__RESET_B
*698 ANTENNA__766__A
*699 ANTENNA_clkbuf_0_wb_clk_i_A
*700 ANTENNA_clkbuf_0_wb_clk_i_X
*701 ANTENNA_clkbuf_3_0__f_wb_clk_i_A
*702 ANTENNA_clkbuf_3_1__f_wb_clk_i_A
*703 ANTENNA_clkbuf_3_2__f_wb_clk_i_A
*704 ANTENNA_clkbuf_3_3__f_wb_clk_i_A
*705 ANTENNA_clkbuf_3_4__f_wb_clk_i_A
*706 ANTENNA_clkbuf_3_5__f_wb_clk_i_A
*707 ANTENNA_clkbuf_3_6__f_wb_clk_i_A
*708 ANTENNA_clkbuf_3_7__f_wb_clk_i_A
*709 ANTENNA_fanout75_A
*710 ANTENNA_fanout76_A
*711 ANTENNA_fanout77_A
*712 ANTENNA_fanout79_A
*713 ANTENNA_fanout80_X
*714 ANTENNA_fanout82_A
*715 ANTENNA_fanout82_X
*716 ANTENNA_fanout84_A
*717 ANTENNA_fanout86_A
*718 ANTENNA_fanout87_A
*719 ANTENNA_fanout87_X
*720 ANTENNA_fanout88_A
*721 ANTENNA_fanout88_X
*722 ANTENNA_fanout89_X
*723 ANTENNA_input10_A
*724 ANTENNA_input11_A
*725 ANTENNA_input12_A
*726 ANTENNA_input13_A
*727 ANTENNA_input14_A
*728 ANTENNA_input15_A
*729 ANTENNA_input16_A
*730 ANTENNA_input17_A
*731 ANTENNA_input18_A
*732 ANTENNA_input19_A
*733 ANTENNA_input1_A
*734 ANTENNA_input20_A
*735 ANTENNA_input21_A
*736 ANTENNA_input22_A
*737 ANTENNA_input23_A
*738 ANTENNA_input24_A
*739 ANTENNA_input25_A
*740 ANTENNA_input26_A
*741 ANTENNA_input2_A
*742 ANTENNA_input3_A
*743 ANTENNA_input4_A
*744 ANTENNA_input5_A
*745 ANTENNA_input6_A
*746 ANTENNA_input7_A
*747 ANTENNA_input8_A
*748 ANTENNA_input9_A
*749 ANTENNA_output32_A
*750 FILLER_0_109
*751 FILLER_0_111
*752 FILLER_0_113
*753 FILLER_0_125
*754 FILLER_0_133
*755 FILLER_0_135
*756 FILLER_0_151
*757 FILLER_0_164
*758 FILLER_0_169
*759 FILLER_0_181
*760 FILLER_0_193
*761 FILLER_0_195
*762 FILLER_0_197
*763 FILLER_0_209
*764 FILLER_0_221
*765 FILLER_0_223
*766 FILLER_0_225
*767 FILLER_0_27
*768 FILLER_0_33
*769 FILLER_0_45
*770 FILLER_0_53
*771 FILLER_0_55
*772 FILLER_0_57
*773 FILLER_0_69
*774 FILLER_0_81
*775 FILLER_0_83
*776 FILLER_0_85
*777 FILLER_0_97
*778 FILLER_10_101
*779 FILLER_10_103
*780 FILLER_10_107
*781 FILLER_10_11
*782 FILLER_10_119
*783 FILLER_10_133
*784 FILLER_10_164
*785 FILLER_10_176
*786 FILLER_10_188
*787 FILLER_10_197
*788 FILLER_10_217
*789 FILLER_10_229
*790 FILLER_10_23
*791 FILLER_10_29
*792 FILLER_10_37
*793 FILLER_10_43
*794 FILLER_10_55
*795 FILLER_10_59
*796 FILLER_10_67
*797 FILLER_10_75
*798 FILLER_10_83
*799 FILLER_10_85
*800 FILLER_10_93
*801 FILLER_11_107
*802 FILLER_11_111
*803 FILLER_11_113
*804 FILLER_11_125
*805 FILLER_11_137
*806 FILLER_11_141
*807 FILLER_11_167
*808 FILLER_11_169
*809 FILLER_11_181
*810 FILLER_11_183
*811 FILLER_11_202
*812 FILLER_11_219
*813 FILLER_11_223
*814 FILLER_11_225
*815 FILLER_11_229
*816 FILLER_11_23
*817 FILLER_11_231
*818 FILLER_11_35
*819 FILLER_11_47
*820 FILLER_11_55
*821 FILLER_11_57
*822 FILLER_11_71
*823 FILLER_11_83
*824 FILLER_11_95
*825 FILLER_12_107
*826 FILLER_12_116
*827 FILLER_12_118
*828 FILLER_12_125
*829 FILLER_12_129
*830 FILLER_12_13
*831 FILLER_12_133
*832 FILLER_12_137
*833 FILLER_12_139
*834 FILLER_12_141
*835 FILLER_12_145
*836 FILLER_12_171
*837 FILLER_12_186
*838 FILLER_12_205
*839 FILLER_12_217
*840 FILLER_12_229
*841 FILLER_12_231
*842 FILLER_12_25
*843 FILLER_12_27
*844 FILLER_12_29
*845 FILLER_12_33
*846 FILLER_12_37
*847 FILLER_12_43
*848 FILLER_12_65
*849 FILLER_12_7
*850 FILLER_12_77
*851 FILLER_12_79
*852 FILLER_12_83
*853 FILLER_12_85
*854 FILLER_12_9
*855 FILLER_12_93
*856 FILLER_12_95
*857 FILLER_12_99
*858 FILLER_13_108
*859 FILLER_13_113
*860 FILLER_13_131
*861 FILLER_13_14
*862 FILLER_13_143
*863 FILLER_13_152
*864 FILLER_13_164
*865 FILLER_13_177
*866 FILLER_13_189
*867 FILLER_13_201
*868 FILLER_13_213
*869 FILLER_13_22
*870 FILLER_13_221
*871 FILLER_13_223
*872 FILLER_13_225
*873 FILLER_13_232
*874 FILLER_13_236
*875 FILLER_13_49
*876 FILLER_13_66
*877 FILLER_13_7
*878 FILLER_13_70
*879 FILLER_13_72
*880 FILLER_13_96
*881 FILLER_14_108
*882 FILLER_14_110
*883 FILLER_14_127
*884 FILLER_14_139
*885 FILLER_14_141
*886 FILLER_14_178
*887 FILLER_14_190
*888 FILLER_14_194
*889 FILLER_14_197
*890 FILLER_14_209
*891 FILLER_14_217
*892 FILLER_14_226
*893 FILLER_14_23
*894 FILLER_14_230
*895 FILLER_14_27
*896 FILLER_14_29
*897 FILLER_14_41
*898 FILLER_14_50
*899 FILLER_14_62
*900 FILLER_14_74
*901 FILLER_14_82
*902 FILLER_14_85
*903 FILLER_14_97
*904 FILLER_14_99
*905 FILLER_15_107
*906 FILLER_15_111
*907 FILLER_15_113
*908 FILLER_15_115
*909 FILLER_15_119
*910 FILLER_15_131
*911 FILLER_15_143
*912 FILLER_15_155
*913 FILLER_15_160
*914 FILLER_15_177
*915 FILLER_15_19
*916 FILLER_15_193
*917 FILLER_15_206
*918 FILLER_15_218
*919 FILLER_15_222
*920 FILLER_15_225
*921 FILLER_15_31
*922 FILLER_15_39
*923 FILLER_15_57
*924 FILLER_15_65
*925 FILLER_15_7
*926 FILLER_15_83
*927 FILLER_15_95
*928 FILLER_16_111
*929 FILLER_16_120
*930 FILLER_16_132
*931 FILLER_16_141
*932 FILLER_16_145
*933 FILLER_16_163
*934 FILLER_16_175
*935 FILLER_16_183
*936 FILLER_16_195
*937 FILLER_16_20
*938 FILLER_16_216
*939 FILLER_16_225
*940 FILLER_16_229
*941 FILLER_16_231
*942 FILLER_16_34
*943 FILLER_16_63
*944 FILLER_16_65
*945 FILLER_16_8
*946 FILLER_16_82
*947 FILLER_16_93
*948 FILLER_16_97
*949 FILLER_16_99
*950 FILLER_17_102
*951 FILLER_17_104
*952 FILLER_17_110
*953 FILLER_17_118
*954 FILLER_17_120
*955 FILLER_17_13
*956 FILLER_17_147
*957 FILLER_17_15
*958 FILLER_17_159
*959 FILLER_17_167
*960 FILLER_17_169
*961 FILLER_17_177
*962 FILLER_17_179
*963 FILLER_17_208
*964 FILLER_17_212
*965 FILLER_17_214
*966 FILLER_17_221
*967 FILLER_17_223
*968 FILLER_17_225
*969 FILLER_17_229
*970 FILLER_17_231
*971 FILLER_17_39
*972 FILLER_17_67
*973 FILLER_17_75
*974 FILLER_18_101
*975 FILLER_18_118
*976 FILLER_18_130
*977 FILLER_18_138
*978 FILLER_18_141
*979 FILLER_18_143
*980 FILLER_18_160
*981 FILLER_18_164
*982 FILLER_18_171
*983 FILLER_18_175
*984 FILLER_18_195
*985 FILLER_18_197
*986 FILLER_18_209
*987 FILLER_18_21
*988 FILLER_18_213
*989 FILLER_18_231
*990 FILLER_18_68
*991 FILLER_18_8
*992 FILLER_18_80
*993 FILLER_18_93
*994 FILLER_19_106
*995 FILLER_19_135
*996 FILLER_19_151
*997 FILLER_19_163
*998 FILLER_19_167
*999 FILLER_19_169
*1000 FILLER_19_177
*1001 FILLER_19_187
*1002 FILLER_19_199
*1003 FILLER_19_207
*1004 FILLER_19_222
*1005 FILLER_19_23
*1006 FILLER_19_27
*1007 FILLER_19_30
*1008 FILLER_19_42
*1009 FILLER_19_51
*1010 FILLER_19_55
*1011 FILLER_19_57
*1012 FILLER_19_69
*1013 FILLER_19_91
*1014 FILLER_19_99
*1015 FILLER_1_103
*1016 FILLER_1_11
*1017 FILLER_1_111
*1018 FILLER_1_113
*1019 FILLER_1_125
*1020 FILLER_1_127
*1021 FILLER_1_169
*1022 FILLER_1_196
*1023 FILLER_1_208
*1024 FILLER_1_220
*1025 FILLER_1_225
*1026 FILLER_1_36
*1027 FILLER_1_38
*1028 FILLER_1_52
*1029 FILLER_1_57
*1030 FILLER_1_61
*1031 FILLER_1_67
*1032 FILLER_1_73
*1033 FILLER_1_77
*1034 FILLER_20_104
*1035 FILLER_20_112
*1036 FILLER_20_114
*1037 FILLER_20_138
*1038 FILLER_20_144
*1039 FILLER_20_148
*1040 FILLER_20_158
*1041 FILLER_20_17
*1042 FILLER_20_175
*1043 FILLER_20_183
*1044 FILLER_20_185
*1045 FILLER_20_191
*1046 FILLER_20_195
*1047 FILLER_20_197
*1048 FILLER_20_209
*1049 FILLER_20_217
*1050 FILLER_20_25
*1051 FILLER_20_27
*1052 FILLER_20_29
*1053 FILLER_20_41
*1054 FILLER_20_53
*1055 FILLER_20_65
*1056 FILLER_20_79
*1057 FILLER_20_83
*1058 FILLER_20_92
*1059 FILLER_21_107
*1060 FILLER_21_111
*1061 FILLER_21_113
*1062 FILLER_21_125
*1063 FILLER_21_137
*1064 FILLER_21_149
*1065 FILLER_21_161
*1066 FILLER_21_165
*1067 FILLER_21_167
*1068 FILLER_21_172
*1069 FILLER_21_184
*1070 FILLER_21_186
*1071 FILLER_21_203
*1072 FILLER_21_205
*1073 FILLER_21_222
*1074 FILLER_21_225
*1075 FILLER_21_23
*1076 FILLER_21_27
*1077 FILLER_21_49
*1078 FILLER_21_53
*1079 FILLER_21_55
*1080 FILLER_21_60
*1081 FILLER_21_72
*1082 FILLER_21_76
*1083 FILLER_21_83
*1084 FILLER_21_95
*1085 FILLER_22_100
*1086 FILLER_22_118
*1087 FILLER_22_130
*1088 FILLER_22_134
*1089 FILLER_22_14
*1090 FILLER_22_141
*1091 FILLER_22_145
*1092 FILLER_22_147
*1093 FILLER_22_153
*1094 FILLER_22_157
*1095 FILLER_22_162
*1096 FILLER_22_169
*1097 FILLER_22_193
*1098 FILLER_22_195
*1099 FILLER_22_197
*1100 FILLER_22_209
*1101 FILLER_22_221
*1102 FILLER_22_229
*1103 FILLER_22_231
*1104 FILLER_22_26
*1105 FILLER_22_29
*1106 FILLER_22_44
*1107 FILLER_22_65
*1108 FILLER_22_7
*1109 FILLER_22_76
*1110 FILLER_22_96
*1111 FILLER_23_109
*1112 FILLER_23_111
*1113 FILLER_23_121
*1114 FILLER_23_125
*1115 FILLER_23_127
*1116 FILLER_23_151
*1117 FILLER_23_158
*1118 FILLER_23_182
*1119 FILLER_23_194
*1120 FILLER_23_206
*1121 FILLER_23_218
*1122 FILLER_23_222
*1123 FILLER_23_3
*1124 FILLER_23_31
*1125 FILLER_23_41
*1126 FILLER_23_45
*1127 FILLER_23_55
*1128 FILLER_23_77
*1129 FILLER_23_92
*1130 FILLER_24_113
*1131 FILLER_24_13
*1132 FILLER_24_131
*1133 FILLER_24_139
*1134 FILLER_24_141
*1135 FILLER_24_146
*1136 FILLER_24_167
*1137 FILLER_24_175
*1138 FILLER_24_183
*1139 FILLER_24_191
*1140 FILLER_24_195
*1141 FILLER_24_206
*1142 FILLER_24_208
*1143 FILLER_24_214
*1144 FILLER_24_216
*1145 FILLER_24_25
*1146 FILLER_24_27
*1147 FILLER_24_29
*1148 FILLER_24_34
*1149 FILLER_24_42
*1150 FILLER_24_44
*1151 FILLER_24_58
*1152 FILLER_24_7
*1153 FILLER_24_70
*1154 FILLER_24_78
*1155 FILLER_24_82
*1156 FILLER_24_85
*1157 FILLER_24_87
*1158 FILLER_24_90
*1159 FILLER_24_94
*1160 FILLER_25_103
*1161 FILLER_25_111
*1162 FILLER_25_113
*1163 FILLER_25_12
*1164 FILLER_25_137
*1165 FILLER_25_14
*1166 FILLER_25_149
*1167 FILLER_25_153
*1168 FILLER_25_160
*1169 FILLER_25_164
*1170 FILLER_25_189
*1171 FILLER_25_206
*1172 FILLER_25_218
*1173 FILLER_25_222
*1174 FILLER_25_230
*1175 FILLER_25_232
*1176 FILLER_25_37
*1177 FILLER_25_39
*1178 FILLER_25_48
*1179 FILLER_25_57
*1180 FILLER_25_69
*1181 FILLER_25_71
*1182 FILLER_25_79
*1183 FILLER_25_8
*1184 FILLER_25_91
*1185 FILLER_26_110
*1186 FILLER_26_122
*1187 FILLER_26_13
*1188 FILLER_26_139
*1189 FILLER_26_141
*1190 FILLER_26_153
*1191 FILLER_26_165
*1192 FILLER_26_173
*1193 FILLER_26_175
*1194 FILLER_26_181
*1195 FILLER_26_191
*1196 FILLER_26_195
*1197 FILLER_26_197
*1198 FILLER_26_20
*1199 FILLER_26_205
*1200 FILLER_26_207
*1201 FILLER_26_213
*1202 FILLER_26_235
*1203 FILLER_26_29
*1204 FILLER_26_60
*1205 FILLER_26_64
*1206 FILLER_26_66
*1207 FILLER_26_7
*1208 FILLER_26_73
*1209 FILLER_26_82
*1210 FILLER_26_90
*1211 FILLER_26_94
*1212 FILLER_26_98
*1213 FILLER_27_121
*1214 FILLER_27_129
*1215 FILLER_27_131
*1216 FILLER_27_137
*1217 FILLER_27_149
*1218 FILLER_27_160
*1219 FILLER_27_169
*1220 FILLER_27_195
*1221 FILLER_27_207
*1222 FILLER_27_219
*1223 FILLER_27_223
*1224 FILLER_27_225
*1225 FILLER_27_27
*1226 FILLER_27_31
*1227 FILLER_27_6
*1228 FILLER_27_62
*1229 FILLER_27_66
*1230 FILLER_27_83
*1231 FILLER_27_88
*1232 FILLER_28_101
*1233 FILLER_28_105
*1234 FILLER_28_120
*1235 FILLER_28_124
*1236 FILLER_28_138
*1237 FILLER_28_141
*1238 FILLER_28_17
*1239 FILLER_28_189
*1240 FILLER_28_193
*1241 FILLER_28_195
*1242 FILLER_28_197
*1243 FILLER_28_224
*1244 FILLER_28_236
*1245 FILLER_28_25
*1246 FILLER_28_27
*1247 FILLER_28_29
*1248 FILLER_28_37
*1249 FILLER_28_39
*1250 FILLER_28_5
*1251 FILLER_28_60
*1252 FILLER_28_72
*1253 FILLER_28_85
*1254 FILLER_29_111
*1255 FILLER_29_113
*1256 FILLER_29_125
*1257 FILLER_29_127
*1258 FILLER_29_13
*1259 FILLER_29_135
*1260 FILLER_29_147
*1261 FILLER_29_15
*1262 FILLER_29_151
*1263 FILLER_29_155
*1264 FILLER_29_167
*1265 FILLER_29_169
*1266 FILLER_29_181
*1267 FILLER_29_193
*1268 FILLER_29_205
*1269 FILLER_29_217
*1270 FILLER_29_221
*1271 FILLER_29_223
*1272 FILLER_29_225
*1273 FILLER_29_231
*1274 FILLER_29_39
*1275 FILLER_29_51
*1276 FILLER_29_55
*1277 FILLER_29_57
*1278 FILLER_29_69
*1279 FILLER_29_7
*1280 FILLER_29_75
*1281 FILLER_29_87
*1282 FILLER_29_99
*1283 FILLER_2_117
*1284 FILLER_2_14
*1285 FILLER_2_149
*1286 FILLER_2_151
*1287 FILLER_2_157
*1288 FILLER_2_174
*1289 FILLER_2_178
*1290 FILLER_2_180
*1291 FILLER_2_191
*1292 FILLER_2_195
*1293 FILLER_2_197
*1294 FILLER_2_209
*1295 FILLER_2_221
*1296 FILLER_2_233
*1297 FILLER_2_26
*1298 FILLER_2_29
*1299 FILLER_2_31
*1300 FILLER_2_53
*1301 FILLER_2_77
*1302 FILLER_2_81
*1303 FILLER_2_83
*1304 FILLER_2_90
*1305 FILLER_2_94
*1306 FILLER_30_101
*1307 FILLER_30_103
*1308 FILLER_30_120
*1309 FILLER_30_124
*1310 FILLER_30_126
*1311 FILLER_30_137
*1312 FILLER_30_139
*1313 FILLER_30_141
*1314 FILLER_30_15
*1315 FILLER_30_153
*1316 FILLER_30_165
*1317 FILLER_30_169
*1318 FILLER_30_184
*1319 FILLER_30_194
*1320 FILLER_30_197
*1321 FILLER_30_209
*1322 FILLER_30_213
*1323 FILLER_30_215
*1324 FILLER_30_236
*1325 FILLER_30_27
*1326 FILLER_30_29
*1327 FILLER_30_37
*1328 FILLER_30_39
*1329 FILLER_30_48
*1330 FILLER_30_85
*1331 FILLER_30_97
*1332 FILLER_31_102
*1333 FILLER_31_110
*1334 FILLER_31_113
*1335 FILLER_31_148
*1336 FILLER_31_185
*1337 FILLER_31_207
*1338 FILLER_31_219
*1339 FILLER_31_221
*1340 FILLER_31_228
*1341 FILLER_31_23
*1342 FILLER_31_35
*1343 FILLER_31_57
*1344 FILLER_31_61
*1345 FILLER_31_63
*1346 FILLER_31_79
*1347 FILLER_31_96
*1348 FILLER_32_100
*1349 FILLER_32_102
*1350 FILLER_32_117
*1351 FILLER_32_134
*1352 FILLER_32_138
*1353 FILLER_32_141
*1354 FILLER_32_169
*1355 FILLER_32_194
*1356 FILLER_32_214
*1357 FILLER_32_235
*1358 FILLER_32_32
*1359 FILLER_32_36
*1360 FILLER_32_38
*1361 FILLER_32_60
*1362 FILLER_32_68
*1363 FILLER_32_7
*1364 FILLER_32_72
*1365 FILLER_32_75
*1366 FILLER_32_83
*1367 FILLER_32_96
*1368 FILLER_33_107
*1369 FILLER_33_111
*1370 FILLER_33_113
*1371 FILLER_33_125
*1372 FILLER_33_137
*1373 FILLER_33_149
*1374 FILLER_33_15
*1375 FILLER_33_161
*1376 FILLER_33_165
*1377 FILLER_33_167
*1378 FILLER_33_169
*1379 FILLER_33_180
*1380 FILLER_33_203
*1381 FILLER_33_218
*1382 FILLER_33_222
*1383 FILLER_33_230
*1384 FILLER_33_232
*1385 FILLER_33_27
*1386 FILLER_33_3
*1387 FILLER_33_39
*1388 FILLER_33_47
*1389 FILLER_33_49
*1390 FILLER_33_54
*1391 FILLER_33_57
*1392 FILLER_33_64
*1393 FILLER_33_66
*1394 FILLER_33_71
*1395 FILLER_33_83
*1396 FILLER_33_95
*1397 FILLER_34_107
*1398 FILLER_34_115
*1399 FILLER_34_117
*1400 FILLER_34_125
*1401 FILLER_34_137
*1402 FILLER_34_139
*1403 FILLER_34_14
*1404 FILLER_34_141
*1405 FILLER_34_149
*1406 FILLER_34_161
*1407 FILLER_34_173
*1408 FILLER_34_185
*1409 FILLER_34_193
*1410 FILLER_34_195
*1411 FILLER_34_197
*1412 FILLER_34_209
*1413 FILLER_34_213
*1414 FILLER_34_235
*1415 FILLER_34_26
*1416 FILLER_34_29
*1417 FILLER_34_41
*1418 FILLER_34_53
*1419 FILLER_34_61
*1420 FILLER_34_8
*1421 FILLER_34_83
*1422 FILLER_34_85
*1423 FILLER_34_97
*1424 FILLER_35_107
*1425 FILLER_35_111
*1426 FILLER_35_113
*1427 FILLER_35_121
*1428 FILLER_35_14
*1429 FILLER_35_145
*1430 FILLER_35_163
*1431 FILLER_35_167
*1432 FILLER_35_169
*1433 FILLER_35_181
*1434 FILLER_35_185
*1435 FILLER_35_187
*1436 FILLER_35_193
*1437 FILLER_35_205
*1438 FILLER_35_209
*1439 FILLER_35_211
*1440 FILLER_35_220
*1441 FILLER_35_225
*1442 FILLER_35_41
*1443 FILLER_35_53
*1444 FILLER_35_55
*1445 FILLER_35_57
*1446 FILLER_35_6
*1447 FILLER_35_69
*1448 FILLER_35_77
*1449 FILLER_35_79
*1450 FILLER_36_114
*1451 FILLER_36_122
*1452 FILLER_36_128
*1453 FILLER_36_141
*1454 FILLER_36_153
*1455 FILLER_36_165
*1456 FILLER_36_171
*1457 FILLER_36_175
*1458 FILLER_36_195
*1459 FILLER_36_221
*1460 FILLER_36_23
*1461 FILLER_36_233
*1462 FILLER_36_27
*1463 FILLER_36_29
*1464 FILLER_36_41
*1465 FILLER_36_58
*1466 FILLER_36_70
*1467 FILLER_36_82
*1468 FILLER_36_85
*1469 FILLER_36_93
*1470 FILLER_37_103
*1471 FILLER_37_111
*1472 FILLER_37_113
*1473 FILLER_37_118
*1474 FILLER_37_12
*1475 FILLER_37_130
*1476 FILLER_37_146
*1477 FILLER_37_158
*1478 FILLER_37_160
*1479 FILLER_37_185
*1480 FILLER_37_189
*1481 FILLER_37_214
*1482 FILLER_37_222
*1483 FILLER_37_225
*1484 FILLER_37_26
*1485 FILLER_37_38
*1486 FILLER_37_6
*1487 FILLER_37_69
*1488 FILLER_37_80
*1489 FILLER_37_82
*1490 FILLER_38_169
*1491 FILLER_38_181
*1492 FILLER_38_193
*1493 FILLER_38_195
*1494 FILLER_38_205
*1495 FILLER_38_217
*1496 FILLER_38_229
*1497 FILLER_38_32
*1498 FILLER_38_44
*1499 FILLER_38_56
*1500 FILLER_38_90
*1501 FILLER_38_97
*1502 FILLER_38_99
*1503 FILLER_39_100
*1504 FILLER_39_105
*1505 FILLER_39_109
*1506 FILLER_39_111
*1507 FILLER_39_113
*1508 FILLER_39_121
*1509 FILLER_39_126
*1510 FILLER_39_128
*1511 FILLER_39_135
*1512 FILLER_39_151
*1513 FILLER_39_163
*1514 FILLER_39_169
*1515 FILLER_39_18
*1516 FILLER_39_181
*1517 FILLER_39_193
*1518 FILLER_39_195
*1519 FILLER_39_197
*1520 FILLER_39_209
*1521 FILLER_39_221
*1522 FILLER_39_223
*1523 FILLER_39_225
*1524 FILLER_39_27
*1525 FILLER_39_35
*1526 FILLER_39_47
*1527 FILLER_39_55
*1528 FILLER_39_57
*1529 FILLER_39_69
*1530 FILLER_39_83
*1531 FILLER_39_91
*1532 FILLER_39_98
*1533 FILLER_3_107
*1534 FILLER_3_111
*1535 FILLER_3_113
*1536 FILLER_3_129
*1537 FILLER_3_151
*1538 FILLER_3_163
*1539 FILLER_3_167
*1540 FILLER_3_185
*1541 FILLER_3_19
*1542 FILLER_3_202
*1543 FILLER_3_214
*1544 FILLER_3_222
*1545 FILLER_3_225
*1546 FILLER_3_31
*1547 FILLER_3_35
*1548 FILLER_3_44
*1549 FILLER_3_57
*1550 FILLER_3_61
*1551 FILLER_3_67
*1552 FILLER_3_7
*1553 FILLER_3_74
*1554 FILLER_3_86
*1555 FILLER_4_112
*1556 FILLER_4_123
*1557 FILLER_4_135
*1558 FILLER_4_139
*1559 FILLER_4_141
*1560 FILLER_4_143
*1561 FILLER_4_155
*1562 FILLER_4_181
*1563 FILLER_4_188
*1564 FILLER_4_197
*1565 FILLER_4_209
*1566 FILLER_4_221
*1567 FILLER_4_233
*1568 FILLER_4_27
*1569 FILLER_4_29
*1570 FILLER_4_3
*1571 FILLER_4_41
*1572 FILLER_4_47
*1573 FILLER_4_59
*1574 FILLER_4_63
*1575 FILLER_4_85
*1576 FILLER_4_89
*1577 FILLER_5_109
*1578 FILLER_5_111
*1579 FILLER_5_113
*1580 FILLER_5_125
*1581 FILLER_5_137
*1582 FILLER_5_141
*1583 FILLER_5_164
*1584 FILLER_5_176
*1585 FILLER_5_188
*1586 FILLER_5_19
*1587 FILLER_5_200
*1588 FILLER_5_212
*1589 FILLER_5_225
*1590 FILLER_5_31
*1591 FILLER_5_33
*1592 FILLER_5_55
*1593 FILLER_5_57
*1594 FILLER_5_7
*1595 FILLER_5_74
*1596 FILLER_5_86
*1597 FILLER_5_90
*1598 FILLER_5_92
*1599 FILLER_5_97
*1600 FILLER_6_109
*1601 FILLER_6_123
*1602 FILLER_6_136
*1603 FILLER_6_14
*1604 FILLER_6_141
*1605 FILLER_6_145
*1606 FILLER_6_147
*1607 FILLER_6_167
*1608 FILLER_6_171
*1609 FILLER_6_190
*1610 FILLER_6_194
*1611 FILLER_6_197
*1612 FILLER_6_209
*1613 FILLER_6_221
*1614 FILLER_6_233
*1615 FILLER_6_26
*1616 FILLER_6_29
*1617 FILLER_6_72
*1618 FILLER_6_85
*1619 FILLER_6_97
*1620 FILLER_7_105
*1621 FILLER_7_109
*1622 FILLER_7_111
*1623 FILLER_7_118
*1624 FILLER_7_122
*1625 FILLER_7_131
*1626 FILLER_7_143
*1627 FILLER_7_155
*1628 FILLER_7_167
*1629 FILLER_7_169
*1630 FILLER_7_173
*1631 FILLER_7_214
*1632 FILLER_7_222
*1633 FILLER_7_225
*1634 FILLER_7_23
*1635 FILLER_7_57
*1636 FILLER_7_69
*1637 FILLER_7_81
*1638 FILLER_7_93
*1639 FILLER_8_101
*1640 FILLER_8_103
*1641 FILLER_8_119
*1642 FILLER_8_123
*1643 FILLER_8_125
*1644 FILLER_8_131
*1645 FILLER_8_139
*1646 FILLER_8_141
*1647 FILLER_8_145
*1648 FILLER_8_147
*1649 FILLER_8_166
*1650 FILLER_8_178
*1651 FILLER_8_190
*1652 FILLER_8_194
*1653 FILLER_8_197
*1654 FILLER_8_209
*1655 FILLER_8_221
*1656 FILLER_8_233
*1657 FILLER_8_3
*1658 FILLER_8_32
*1659 FILLER_8_67
*1660 FILLER_8_7
*1661 FILLER_8_71
*1662 FILLER_8_73
*1663 FILLER_9_104
*1664 FILLER_9_11
*1665 FILLER_9_113
*1666 FILLER_9_120
*1667 FILLER_9_122
*1668 FILLER_9_13
*1669 FILLER_9_139
*1670 FILLER_9_146
*1671 FILLER_9_151
*1672 FILLER_9_172
*1673 FILLER_9_184
*1674 FILLER_9_196
*1675 FILLER_9_208
*1676 FILLER_9_220
*1677 FILLER_9_225
*1678 FILLER_9_34
*1679 FILLER_9_42
*1680 FILLER_9_57
*1681 FILLER_9_7
*1682 FILLER_9_79
*1683 PHY_EDGE_ROW_0_Left_40
*1684 PHY_EDGE_ROW_0_Right_0
*1685 PHY_EDGE_ROW_10_Left_50
*1686 PHY_EDGE_ROW_10_Right_10
*1687 PHY_EDGE_ROW_11_Left_51
*1688 PHY_EDGE_ROW_11_Right_11
*1689 PHY_EDGE_ROW_12_Left_52
*1690 PHY_EDGE_ROW_12_Right_12
*1691 PHY_EDGE_ROW_13_Left_53
*1692 PHY_EDGE_ROW_13_Right_13
*1693 PHY_EDGE_ROW_14_Left_54
*1694 PHY_EDGE_ROW_14_Right_14
*1695 PHY_EDGE_ROW_15_Left_55
*1696 PHY_EDGE_ROW_15_Right_15
*1697 PHY_EDGE_ROW_16_Left_56
*1698 PHY_EDGE_ROW_16_Right_16
*1699 PHY_EDGE_ROW_17_Left_57
*1700 PHY_EDGE_ROW_17_Right_17
*1701 PHY_EDGE_ROW_18_Left_58
*1702 PHY_EDGE_ROW_18_Right_18
*1703 PHY_EDGE_ROW_19_Left_59
*1704 PHY_EDGE_ROW_19_Right_19
*1705 PHY_EDGE_ROW_1_Left_41
*1706 PHY_EDGE_ROW_1_Right_1
*1707 PHY_EDGE_ROW_20_Left_60
*1708 PHY_EDGE_ROW_20_Right_20
*1709 PHY_EDGE_ROW_21_Left_61
*1710 PHY_EDGE_ROW_21_Right_21
*1711 PHY_EDGE_ROW_22_Left_62
*1712 PHY_EDGE_ROW_22_Right_22
*1713 PHY_EDGE_ROW_23_Left_63
*1714 PHY_EDGE_ROW_23_Right_23
*1715 PHY_EDGE_ROW_24_Left_64
*1716 PHY_EDGE_ROW_24_Right_24
*1717 PHY_EDGE_ROW_25_Left_65
*1718 PHY_EDGE_ROW_25_Right_25
*1719 PHY_EDGE_ROW_26_Left_66
*1720 PHY_EDGE_ROW_26_Right_26
*1721 PHY_EDGE_ROW_27_Left_67
*1722 PHY_EDGE_ROW_27_Right_27
*1723 PHY_EDGE_ROW_28_Left_68
*1724 PHY_EDGE_ROW_28_Right_28
*1725 PHY_EDGE_ROW_29_Left_69
*1726 PHY_EDGE_ROW_29_Right_29
*1727 PHY_EDGE_ROW_2_Left_42
*1728 PHY_EDGE_ROW_2_Right_2
*1729 PHY_EDGE_ROW_30_Left_70
*1730 PHY_EDGE_ROW_30_Right_30
*1731 PHY_EDGE_ROW_31_Left_71
*1732 PHY_EDGE_ROW_31_Right_31
*1733 PHY_EDGE_ROW_32_Left_72
*1734 PHY_EDGE_ROW_32_Right_32
*1735 PHY_EDGE_ROW_33_Left_73
*1736 PHY_EDGE_ROW_33_Right_33
*1737 PHY_EDGE_ROW_34_Left_74
*1738 PHY_EDGE_ROW_34_Right_34
*1739 PHY_EDGE_ROW_35_Left_75
*1740 PHY_EDGE_ROW_35_Right_35
*1741 PHY_EDGE_ROW_36_Left_76
*1742 PHY_EDGE_ROW_36_Right_36
*1743 PHY_EDGE_ROW_37_Left_77
*1744 PHY_EDGE_ROW_37_Right_37
*1745 PHY_EDGE_ROW_38_Left_78
*1746 PHY_EDGE_ROW_38_Right_38
*1747 PHY_EDGE_ROW_39_Left_79
*1748 PHY_EDGE_ROW_39_Right_39
*1749 PHY_EDGE_ROW_3_Left_43
*1750 PHY_EDGE_ROW_3_Right_3
*1751 PHY_EDGE_ROW_4_Left_44
*1752 PHY_EDGE_ROW_4_Right_4
*1753 PHY_EDGE_ROW_5_Left_45
*1754 PHY_EDGE_ROW_5_Right_5
*1755 PHY_EDGE_ROW_6_Left_46
*1756 PHY_EDGE_ROW_6_Right_6
*1757 PHY_EDGE_ROW_7_Left_47
*1758 PHY_EDGE_ROW_7_Right_7
*1759 PHY_EDGE_ROW_8_Left_48
*1760 PHY_EDGE_ROW_8_Right_8
*1761 PHY_EDGE_ROW_9_Left_49
*1762 PHY_EDGE_ROW_9_Right_9
*1763 TAP_TAPCELL_ROW_0_80
*1764 TAP_TAPCELL_ROW_0_81
*1765 TAP_TAPCELL_ROW_0_82
*1766 TAP_TAPCELL_ROW_0_83
*1767 TAP_TAPCELL_ROW_0_84
*1768 TAP_TAPCELL_ROW_0_85
*1769 TAP_TAPCELL_ROW_0_86
*1770 TAP_TAPCELL_ROW_0_87
*1771 TAP_TAPCELL_ROW_10_124
*1772 TAP_TAPCELL_ROW_10_125
*1773 TAP_TAPCELL_ROW_10_126
*1774 TAP_TAPCELL_ROW_10_127
*1775 TAP_TAPCELL_ROW_11_128
*1776 TAP_TAPCELL_ROW_11_129
*1777 TAP_TAPCELL_ROW_11_130
*1778 TAP_TAPCELL_ROW_11_131
*1779 TAP_TAPCELL_ROW_12_132
*1780 TAP_TAPCELL_ROW_12_133
*1781 TAP_TAPCELL_ROW_12_134
*1782 TAP_TAPCELL_ROW_12_135
*1783 TAP_TAPCELL_ROW_13_136
*1784 TAP_TAPCELL_ROW_13_137
*1785 TAP_TAPCELL_ROW_13_138
*1786 TAP_TAPCELL_ROW_13_139
*1787 TAP_TAPCELL_ROW_14_140
*1788 TAP_TAPCELL_ROW_14_141
*1789 TAP_TAPCELL_ROW_14_142
*1790 TAP_TAPCELL_ROW_14_143
*1791 TAP_TAPCELL_ROW_15_144
*1792 TAP_TAPCELL_ROW_15_145
*1793 TAP_TAPCELL_ROW_15_146
*1794 TAP_TAPCELL_ROW_15_147
*1795 TAP_TAPCELL_ROW_16_148
*1796 TAP_TAPCELL_ROW_16_149
*1797 TAP_TAPCELL_ROW_16_150
*1798 TAP_TAPCELL_ROW_16_151
*1799 TAP_TAPCELL_ROW_17_152
*1800 TAP_TAPCELL_ROW_17_153
*1801 TAP_TAPCELL_ROW_17_154
*1802 TAP_TAPCELL_ROW_17_155
*1803 TAP_TAPCELL_ROW_18_156
*1804 TAP_TAPCELL_ROW_18_157
*1805 TAP_TAPCELL_ROW_18_158
*1806 TAP_TAPCELL_ROW_18_159
*1807 TAP_TAPCELL_ROW_19_160
*1808 TAP_TAPCELL_ROW_19_161
*1809 TAP_TAPCELL_ROW_19_162
*1810 TAP_TAPCELL_ROW_19_163
*1811 TAP_TAPCELL_ROW_1_88
*1812 TAP_TAPCELL_ROW_1_89
*1813 TAP_TAPCELL_ROW_1_90
*1814 TAP_TAPCELL_ROW_1_91
*1815 TAP_TAPCELL_ROW_20_164
*1816 TAP_TAPCELL_ROW_20_165
*1817 TAP_TAPCELL_ROW_20_166
*1818 TAP_TAPCELL_ROW_20_167
*1819 TAP_TAPCELL_ROW_21_168
*1820 TAP_TAPCELL_ROW_21_169
*1821 TAP_TAPCELL_ROW_21_170
*1822 TAP_TAPCELL_ROW_21_171
*1823 TAP_TAPCELL_ROW_22_172
*1824 TAP_TAPCELL_ROW_22_173
*1825 TAP_TAPCELL_ROW_22_174
*1826 TAP_TAPCELL_ROW_22_175
*1827 TAP_TAPCELL_ROW_23_176
*1828 TAP_TAPCELL_ROW_23_177
*1829 TAP_TAPCELL_ROW_23_178
*1830 TAP_TAPCELL_ROW_23_179
*1831 TAP_TAPCELL_ROW_24_180
*1832 TAP_TAPCELL_ROW_24_181
*1833 TAP_TAPCELL_ROW_24_182
*1834 TAP_TAPCELL_ROW_24_183
*1835 TAP_TAPCELL_ROW_25_184
*1836 TAP_TAPCELL_ROW_25_185
*1837 TAP_TAPCELL_ROW_25_186
*1838 TAP_TAPCELL_ROW_25_187
*1839 TAP_TAPCELL_ROW_26_188
*1840 TAP_TAPCELL_ROW_26_189
*1841 TAP_TAPCELL_ROW_26_190
*1842 TAP_TAPCELL_ROW_26_191
*1843 TAP_TAPCELL_ROW_27_192
*1844 TAP_TAPCELL_ROW_27_193
*1845 TAP_TAPCELL_ROW_27_194
*1846 TAP_TAPCELL_ROW_27_195
*1847 TAP_TAPCELL_ROW_28_196
*1848 TAP_TAPCELL_ROW_28_197
*1849 TAP_TAPCELL_ROW_28_198
*1850 TAP_TAPCELL_ROW_28_199
*1851 TAP_TAPCELL_ROW_29_200
*1852 TAP_TAPCELL_ROW_29_201
*1853 TAP_TAPCELL_ROW_29_202
*1854 TAP_TAPCELL_ROW_29_203
*1855 TAP_TAPCELL_ROW_2_92
*1856 TAP_TAPCELL_ROW_2_93
*1857 TAP_TAPCELL_ROW_2_94
*1858 TAP_TAPCELL_ROW_2_95
*1859 TAP_TAPCELL_ROW_30_204
*1860 TAP_TAPCELL_ROW_30_205
*1861 TAP_TAPCELL_ROW_30_206
*1862 TAP_TAPCELL_ROW_30_207
*1863 TAP_TAPCELL_ROW_31_208
*1864 TAP_TAPCELL_ROW_31_209
*1865 TAP_TAPCELL_ROW_31_210
*1866 TAP_TAPCELL_ROW_31_211
*1867 TAP_TAPCELL_ROW_32_212
*1868 TAP_TAPCELL_ROW_32_213
*1869 TAP_TAPCELL_ROW_32_214
*1870 TAP_TAPCELL_ROW_32_215
*1871 TAP_TAPCELL_ROW_33_216
*1872 TAP_TAPCELL_ROW_33_217
*1873 TAP_TAPCELL_ROW_33_218
*1874 TAP_TAPCELL_ROW_33_219
*1875 TAP_TAPCELL_ROW_34_220
*1876 TAP_TAPCELL_ROW_34_221
*1877 TAP_TAPCELL_ROW_34_222
*1878 TAP_TAPCELL_ROW_34_223
*1879 TAP_TAPCELL_ROW_35_224
*1880 TAP_TAPCELL_ROW_35_225
*1881 TAP_TAPCELL_ROW_35_226
*1882 TAP_TAPCELL_ROW_35_227
*1883 TAP_TAPCELL_ROW_36_228
*1884 TAP_TAPCELL_ROW_36_229
*1885 TAP_TAPCELL_ROW_36_230
*1886 TAP_TAPCELL_ROW_36_231
*1887 TAP_TAPCELL_ROW_37_232
*1888 TAP_TAPCELL_ROW_37_233
*1889 TAP_TAPCELL_ROW_37_234
*1890 TAP_TAPCELL_ROW_37_235
*1891 TAP_TAPCELL_ROW_38_236
*1892 TAP_TAPCELL_ROW_38_237
*1893 TAP_TAPCELL_ROW_38_238
*1894 TAP_TAPCELL_ROW_38_239
*1895 TAP_TAPCELL_ROW_39_240
*1896 TAP_TAPCELL_ROW_39_241
*1897 TAP_TAPCELL_ROW_39_242
*1898 TAP_TAPCELL_ROW_39_243
*1899 TAP_TAPCELL_ROW_39_244
*1900 TAP_TAPCELL_ROW_39_245
*1901 TAP_TAPCELL_ROW_39_246
*1902 TAP_TAPCELL_ROW_39_247
*1903 TAP_TAPCELL_ROW_3_96
*1904 TAP_TAPCELL_ROW_3_97
*1905 TAP_TAPCELL_ROW_3_98
*1906 TAP_TAPCELL_ROW_3_99
*1907 TAP_TAPCELL_ROW_4_100
*1908 TAP_TAPCELL_ROW_4_101
*1909 TAP_TAPCELL_ROW_4_102
*1910 TAP_TAPCELL_ROW_4_103
*1911 TAP_TAPCELL_ROW_5_104
*1912 TAP_TAPCELL_ROW_5_105
*1913 TAP_TAPCELL_ROW_5_106
*1914 TAP_TAPCELL_ROW_5_107
*1915 TAP_TAPCELL_ROW_6_108
*1916 TAP_TAPCELL_ROW_6_109
*1917 TAP_TAPCELL_ROW_6_110
*1918 TAP_TAPCELL_ROW_6_111
*1919 TAP_TAPCELL_ROW_7_112
*1920 TAP_TAPCELL_ROW_7_113
*1921 TAP_TAPCELL_ROW_7_114
*1922 TAP_TAPCELL_ROW_7_115
*1923 TAP_TAPCELL_ROW_8_116
*1924 TAP_TAPCELL_ROW_8_117
*1925 TAP_TAPCELL_ROW_8_118
*1926 TAP_TAPCELL_ROW_8_119
*1927 TAP_TAPCELL_ROW_9_120
*1928 TAP_TAPCELL_ROW_9_121
*1929 TAP_TAPCELL_ROW_9_122
*1930 TAP_TAPCELL_ROW_9_123
*1931 _333_
*1932 _334_
*1933 _335_
*1934 _336_
*1935 _337_
*1936 _338_
*1937 _339_
*1938 _340_
*1939 _341_
*1940 _342_
*1941 _343_
*1942 _344_
*1943 _345_
*1944 _346_
*1945 _347_
*1946 _348_
*1947 _349_
*1948 _350_
*1949 _351_
*1950 _352_
*1951 _353_
*1952 _354_
*1953 _355_
*1954 _356_
*1955 _357_
*1956 _358_
*1957 _359_
*1958 _360_
*1959 _361_
*1960 _362_
*1961 _363_
*1962 _364_
*1963 _365_
*1964 _366_
*1965 _367_
*1966 _368_
*1967 _369_
*1968 _370_
*1969 _371_
*1970 _372_
*1971 _373_
*1972 _374_
*1973 _375_
*1974 _376_
*1975 _377_
*1976 _378_
*1977 _379_
*1978 _380_
*1979 _381_
*1980 _382_
*1981 _383_
*1982 _384_
*1983 _385_
*1984 _386_
*1985 _387_
*1986 _388_
*1987 _389_
*1988 _390_
*1989 _391_
*1990 _392_
*1991 _393_
*1992 _394_
*1993 _395_
*1994 _396_
*1995 _397_
*1996 _398_
*1997 _399_
*1998 _400_
*1999 _401_
*2000 _402_
*2001 _403_
*2002 _404_
*2003 _405_
*2004 _406_
*2005 _407_
*2006 _408_
*2007 _409_
*2008 _410_
*2009 _411_
*2010 _412_
*2011 _413_
*2012 _414_
*2013 _415_
*2014 _416_
*2015 _417_
*2016 _418_
*2017 _419_
*2018 _420_
*2019 _421_
*2020 _422_
*2021 _423_
*2022 _424_
*2023 _425_
*2024 _426_
*2025 _427_
*2026 _428_
*2027 _429_
*2028 _430_
*2029 _431_
*2030 _432_
*2031 _433_
*2032 _434_
*2033 _435_
*2034 _436_
*2035 _437_
*2036 _438_
*2037 _439_
*2038 _440_
*2039 _441_
*2040 _442_
*2041 _443_
*2042 _444_
*2043 _445_
*2044 _446_
*2045 _447_
*2046 _448_
*2047 _449_
*2048 _450_
*2049 _451_
*2050 _452_
*2051 _453_
*2052 _454_
*2053 _455_
*2054 _456_
*2055 _457_
*2056 _458_
*2057 _459_
*2058 _460_
*2059 _461_
*2060 _462_
*2061 _463_
*2062 _464_
*2063 _465_
*2064 _466_
*2065 _467_
*2066 _468_
*2067 _469_
*2068 _470_
*2069 _471_
*2070 _472_
*2071 _473_
*2072 _474_
*2073 _475_
*2074 _476_
*2075 _477_
*2076 _478_
*2077 _479_
*2078 _480_
*2079 _481_
*2080 _482_
*2081 _483_
*2082 _484_
*2083 _485_
*2084 _486_
*2085 _487_
*2086 _488_
*2087 _489_
*2088 _490_
*2089 _491_
*2090 _492_
*2091 _493_
*2092 _494_
*2093 _495_
*2094 _496_
*2095 _497_
*2096 _498_
*2097 _499_
*2098 _500_
*2099 _501_
*2100 _502_
*2101 _503_
*2102 _504_
*2103 _505_
*2104 _506_
*2105 _507_
*2106 _508_
*2107 _509_
*2108 _510_
*2109 _511_
*2110 _512_
*2111 _513_
*2112 _514_
*2113 _515_
*2114 _516_
*2115 _517_
*2116 _518_
*2117 _519_
*2118 _520_
*2119 _521_
*2120 _522_
*2121 _523_
*2122 _524_
*2123 _525_
*2124 _526_
*2125 _527_
*2126 _528_
*2127 _529_
*2128 _530_
*2129 _531_
*2130 _532_
*2131 _533_
*2132 _534_
*2133 _535_
*2134 _536_
*2135 _537_
*2136 _538_
*2137 _539_
*2138 _540_
*2139 _541_
*2140 _542_
*2141 _543_
*2142 _544_
*2143 _545_
*2144 _546_
*2145 _547_
*2146 _548_
*2147 _549_
*2148 _550_
*2149 _551_
*2150 _552_
*2151 _553_
*2152 _554_
*2153 _555_
*2154 _556_
*2155 _557_
*2156 _558_
*2157 _559_
*2158 _560_
*2159 _561_
*2160 _562_
*2161 _563_
*2162 _564_
*2163 _565_
*2164 _566_
*2165 _567_
*2166 _568_
*2167 _569_
*2168 _570_
*2169 _571_
*2170 _572_
*2171 _573_
*2172 _574_
*2173 _575_
*2174 _576_
*2175 _577_
*2176 _578_
*2177 _579_
*2178 _580_
*2179 _581_
*2180 _582_
*2181 _583_
*2182 _584_
*2183 _585_
*2184 _586_
*2185 _587_
*2186 _588_
*2187 _589_
*2188 _590_
*2189 _591_
*2190 _592_
*2191 _593_
*2192 _594_
*2193 _595_
*2194 _596_
*2195 _597_
*2196 _598_
*2197 _599_
*2198 _600_
*2199 _601_
*2200 _602_
*2201 _603_
*2202 _604_
*2203 _605_
*2204 _606_
*2205 _607_
*2206 _608_
*2207 _609_
*2208 _610_
*2209 _611_
*2210 _612_
*2211 _613_
*2212 _614_
*2213 _615_
*2214 _616_
*2215 _617_
*2216 _618_
*2217 _619_
*2218 _620_
*2219 _621_
*2220 _622_
*2221 _623_
*2222 _624_
*2223 _625_
*2224 _626_
*2225 _627_
*2226 _628_
*2227 _629_
*2228 _630_
*2229 _631_
*2230 _632_
*2231 _633_
*2232 _634_
*2233 _635_
*2234 _636_
*2235 _637_
*2236 _638_
*2237 _639_
*2238 _640_
*2239 _641_
*2240 _642_
*2241 _643_
*2242 _644_
*2243 _645_
*2244 _646_
*2245 _647_
*2246 _648_
*2247 _649_
*2248 _650_
*2249 _651_
*2250 _652_
*2251 _653_
*2252 _654_
*2253 _655_
*2254 _656_
*2255 _657_
*2256 _658_
*2257 _659_
*2258 _660_
*2259 _661_
*2260 _662_
*2261 _663_
*2262 _664_
*2263 _665_
*2264 _666_
*2265 _667_
*2266 _668_
*2267 _669_
*2268 _670_
*2269 _671_
*2270 _672_
*2271 _673_
*2272 _674_
*2273 _675_
*2274 _676_
*2275 _677_
*2276 _678_
*2277 _679_
*2278 _680_
*2279 _681_
*2280 _682_
*2281 _683_
*2282 _684_
*2283 _685_
*2284 _686_
*2285 _687_
*2286 _688_
*2287 _689_
*2288 _690_
*2289 _691_
*2290 _692_
*2291 _693_
*2292 _694_
*2293 _695_
*2294 _696_
*2295 _697_
*2296 _698_
*2297 _699_
*2298 _700_
*2299 _701_
*2300 _702_
*2301 _703_
*2302 _704_
*2303 _705_
*2304 _706_
*2305 _707_
*2306 _708_
*2307 _709_
*2308 _710_
*2309 _711_
*2310 _712_
*2311 _713_
*2312 _714_
*2313 _715_
*2314 _716_
*2315 _717_
*2316 _718_
*2317 _719_
*2318 _720_
*2319 _721_
*2320 _722_
*2321 _723_
*2322 _724_
*2323 _725_
*2324 _726_
*2325 _727_
*2326 _728_
*2327 _729_
*2328 _730_
*2329 _731_
*2330 _732_
*2331 _733_
*2332 _734_
*2333 _735_
*2334 _736_
*2335 _737_
*2336 _738_
*2337 _739_
*2338 _740_
*2339 _741_
*2340 _742_
*2341 _743_
*2342 _744_
*2343 _745_
*2344 _746_
*2345 _747_
*2346 _748_
*2347 _749_
*2348 _750_
*2349 _751_
*2350 _752_
*2351 _753_
*2352 _754_
*2353 _755_
*2354 _756_
*2355 _757_
*2356 _758_
*2357 _759_
*2358 _760_
*2359 _761_
*2360 _762_
*2361 _763_
*2362 _764_
*2363 _765_
*2364 _766_
*2365 _767_
*2366 clkbuf_0_wb_clk_i
*2367 clkbuf_3_0__f_wb_clk_i
*2368 clkbuf_3_1__f_wb_clk_i
*2369 clkbuf_3_2__f_wb_clk_i
*2370 clkbuf_3_3__f_wb_clk_i
*2371 clkbuf_3_4__f_wb_clk_i
*2372 clkbuf_3_5__f_wb_clk_i
*2373 clkbuf_3_6__f_wb_clk_i
*2374 clkbuf_3_7__f_wb_clk_i
*2375 clkload0
*2376 clkload1
*2377 clkload2
*2378 clkload3
*2379 clkload4
*2380 clkload5
*2381 clkload6
*2382 fanout69
*2383 fanout70
*2384 fanout71
*2385 fanout72
*2386 fanout73
*2387 fanout74
*2388 fanout75
*2389 fanout76
*2390 fanout77
*2391 fanout78
*2392 fanout79
*2393 fanout80
*2394 fanout81
*2395 fanout82
*2396 fanout83
*2397 fanout84
*2398 fanout85
*2399 fanout86
*2400 fanout87
*2401 fanout88
*2402 fanout89
*2403 hold1
*2404 hold10
*2405 hold11
*2406 hold12
*2407 hold13
*2408 hold14
*2409 hold15
*2410 hold16
*2411 hold17
*2412 hold18
*2413 hold19
*2414 hold2
*2415 hold20
*2416 hold21
*2417 hold22
*2418 hold23
*2419 hold24
*2420 hold25
*2421 hold26
*2422 hold27
*2423 hold28
*2424 hold29
*2425 hold3
*2426 hold30
*2427 hold4
*2428 hold5
*2429 hold6
*2430 hold7
*2431 hold8
*2432 hold9
*2433 input1
*2434 input10
*2435 input11
*2436 input12
*2437 input13
*2438 input14
*2439 input15
*2440 input16
*2441 input17
*2442 input18
*2443 input19
*2444 input2
*2445 input20
*2446 input21
*2447 input22
*2448 input23
*2449 input24
*2450 input25
*2451 input26
*2452 input3
*2453 input4
*2454 input5
*2455 input6
*2456 input7
*2457 input8
*2458 input9
*2459 output27
*2460 output28
*2461 output29
*2462 output30
*2463 output31
*2464 output32
*2465 output33
*2466 output34
*2467 output35
*2468 output36
*2469 output37
*2470 output38
*2471 output39
*2472 output40
*2473 output41
*2474 output42
*2475 output43
*2476 output44
*2477 output45
*2478 output46
*2479 output47
*2480 output48
*2481 output49
*2482 output50
*2483 output51
*2484 output52
*2485 output53
*2486 output54
*2487 output55
*2488 output56
*2489 output57
*2490 output58
*2491 output59
*2492 output60
*2493 output61
*2494 output62
*2495 output63
*2496 output64
*2497 output65
*2498 output66
*2499 output67
*2500 output68

*PORTS
clock_glitch I
cold_reset_req I
debug_enable O
file_denied I
fsm_error O
fw_fail I
fw_ok I
global_pin_ok I
group_autolock I
group_error O
group_suspended O
group_unlocked O
hdr_parse_fail I
illegal_in I
power_glitch I
safe_led O
security_breach O
size_mismatch I
tamper_in I
unlock_enable O
unlock_req I
user_irq O
warm_reset_req I
wb_ack_o O
wb_adr_i[0] I
wb_adr_i[10] I
wb_adr_i[11] I
wb_adr_i[12] I
wb_adr_i[13] I
wb_adr_i[14] I
wb_adr_i[15] I
wb_adr_i[16] I
wb_adr_i[17] I
wb_adr_i[18] I
wb_adr_i[19] I
wb_adr_i[1] I
wb_adr_i[20] I
wb_adr_i[21] I
wb_adr_i[22] I
wb_adr_i[23] I
wb_adr_i[24] I
wb_adr_i[25] I
wb_adr_i[26] I
wb_adr_i[27] I
wb_adr_i[28] I
wb_adr_i[29] I
wb_adr_i[2] I
wb_adr_i[30] I
wb_adr_i[31] I
wb_adr_i[3] I
wb_adr_i[4] I
wb_adr_i[5] I
wb_adr_i[6] I
wb_adr_i[7] I
wb_adr_i[8] I
wb_adr_i[9] I
wb_clk_i I
wb_cyc_i I
wb_dat_i[0] I
wb_dat_i[10] I
wb_dat_i[11] I
wb_dat_i[12] I
wb_dat_i[13] I
wb_dat_i[14] I
wb_dat_i[15] I
wb_dat_i[16] I
wb_dat_i[17] I
wb_dat_i[18] I
wb_dat_i[19] I
wb_dat_i[1] I
wb_dat_i[20] I
wb_dat_i[21] I
wb_dat_i[22] I
wb_dat_i[23] I
wb_dat_i[24] I
wb_dat_i[25] I
wb_dat_i[26] I
wb_dat_i[27] I
wb_dat_i[28] I
wb_dat_i[29] I
wb_dat_i[2] I
wb_dat_i[30] I
wb_dat_i[31] I
wb_dat_i[3] I
wb_dat_i[4] I
wb_dat_i[5] I
wb_dat_i[6] I
wb_dat_i[7] I
wb_dat_i[8] I
wb_dat_i[9] I
wb_dat_o[0] O
wb_dat_o[10] O
wb_dat_o[11] O
wb_dat_o[12] O
wb_dat_o[13] O
wb_dat_o[14] O
wb_dat_o[15] O
wb_dat_o[16] O
wb_dat_o[17] O
wb_dat_o[18] O
wb_dat_o[19] O
wb_dat_o[1] O
wb_dat_o[20] O
wb_dat_o[21] O
wb_dat_o[22] O
wb_dat_o[23] O
wb_dat_o[24] O
wb_dat_o[25] O
wb_dat_o[26] O
wb_dat_o[27] O
wb_dat_o[28] O
wb_dat_o[29] O
wb_dat_o[2] O
wb_dat_o[30] O
wb_dat_o[31] O
wb_dat_o[3] O
wb_dat_o[4] O
wb_dat_o[5] O
wb_dat_o[6] O
wb_dat_o[7] O
wb_dat_o[8] O
wb_dat_o[9] O
wb_rst_i I
wb_sel_i[0] I
wb_sel_i[1] I
wb_sel_i[2] I
wb_sel_i[3] I
wb_stb_i I
wb_we_i I

*D_NET *1 0.000778416
*CONN
*P clock_glitch I
*I *2433:A I *D sky130_fd_sc_hd__clkbuf_1
*I *733:DIODE I *D sky130_fd_sc_hd__diode_2
*CAP
1 clock_glitch 0.000260693
2 *2433:A 0
3 *733:DIODE 7.64297e-05
4 *1:11 0.000337122
5 *733:DIODE *515:10 3.22879e-05
6 *1:11 *8:11 7.18837e-05
*RES
1 clock_glitch *1:11 25.1354 
2 *1:11 *733:DIODE 24.5743 
3 *1:11 *2433:A 23 
*END

*D_NET *2 0.00112182
*CONN
*P cold_reset_req I
*I *2444:A I *D sky130_fd_sc_hd__buf_1
*I *741:DIODE I *D sky130_fd_sc_hd__diode_2
*CAP
1 cold_reset_req 0.000217487
2 *2444:A 0
3 *741:DIODE 7.79347e-05
4 *2:11 0.000295422
5 *741:DIODE *727:DIODE 2.98648e-05
6 *741:DIODE *546:23 0.000141954
7 *741:DIODE *601:12 0.000141954
8 *2:11 *9:7 8.06147e-05
9 *2:11 *25:7 8.06147e-05
10 *2:11 *601:8 5.59729e-05
*RES
1 cold_reset_req *2:11 25.4875 
2 *2:11 *741:DIODE 25.5271 
3 *2:11 *2444:A 23 
*END

*D_NET *3 0.000538874
*CONN
*P debug_enable O
*I *2459:X O *D sky130_fd_sc_hd__buf_2
*CAP
1 debug_enable 0.000185441
2 *2459:X 0.000185441
3 debug_enable unlock_enable 8.97484e-05
4 debug_enable *7:11 7.82427e-05
5 debug_enable *180:8 0
*RES
1 *2459:X debug_enable 47.5169 
*END

*D_NET *4 0.00138028
*CONN
*P file_denied I
*I *742:DIODE I *D sky130_fd_sc_hd__diode_2
*I *2452:A I *D sky130_fd_sc_hd__buf_1
*CAP
1 file_denied 0.000461004
2 *742:DIODE 6.13278e-05
3 *2452:A 2.1727e-05
4 *4:9 0.000544059
5 *742:DIODE *2245:A 5.70419e-05
6 *742:DIODE *621:66 2.4754e-05
7 *2452:A *2245:A 4.00259e-06
8 *4:9 group_unlocked 0
9 *4:9 *2245:A 8.1796e-05
10 *4:9 *557:8 9.84851e-05
11 *4:9 *557:10 1.19796e-05
12 *4:9 *582:12 1.41077e-05
*RES
1 file_denied *4:9 25.3986 
2 *4:9 *2452:A 23.4971 
3 *4:9 *742:DIODE 24.5743 
*END

*D_NET *5 0.000677222
*CONN
*P fsm_error O
*I *2460:X O *D sky130_fd_sc_hd__buf_2
*CAP
1 fsm_error 7.67726e-05
2 *2460:X 0.00023726
3 *5:14 0.000314032
4 fsm_error user_irq 1.5289e-05
5 fsm_error wb_dat_o[7] 2.12457e-05
6 *5:14 user_irq 1.26232e-05
7 *5:14 wb_dat_o[7] 0
8 *5:14 *59:17 0
*RES
1 *2460:X *5:14 49.9 
2 *5:14 fsm_error 0.382667 
*END

*D_NET *6 0.000691948
*CONN
*P fw_fail I
*I *2453:A I *D sky130_fd_sc_hd__clkbuf_1
*I *743:DIODE I *D sky130_fd_sc_hd__diode_2
*CAP
1 fw_fail 0.000179918
2 *2453:A 0
3 *743:DIODE 7.94781e-05
4 *6:11 0.000259396
5 *743:DIODE *568:10 2.30292e-05
6 *6:11 *2155:A2 0
7 *6:11 *9:7 7.82427e-05
8 *6:11 *13:11 7.18837e-05
*RES
1 fw_fail *6:11 24.4311 
2 *6:11 *743:DIODE 24.5743 
3 *6:11 *2453:A 23 
*END

*D_NET *7 0.000703871
*CONN
*P fw_ok I
*I *2454:A I *D sky130_fd_sc_hd__buf_1
*I *744:DIODE I *D sky130_fd_sc_hd__diode_2
*CAP
1 fw_ok 0.00017374
2 *2454:A 0
3 *744:DIODE 7.5092e-05
4 *7:11 0.000248832
5 *744:DIODE *579:16 5.67058e-05
6 *7:11 *25:7 7.12589e-05
7 debug_enable *7:11 7.82427e-05
*RES
1 fw_ok *7:11 24.0789 
2 *7:11 *744:DIODE 24.5743 
3 *7:11 *2454:A 23 
*END

*D_NET *8 0.00066654
*CONN
*P global_pin_ok I
*I *2455:A I *D sky130_fd_sc_hd__clkbuf_1
*I *745:DIODE I *D sky130_fd_sc_hd__diode_2
*CAP
1 global_pin_ok 0.000163442
2 *2455:A 0
3 *745:DIODE 7.86207e-05
4 *8:11 0.000242063
5 *745:DIODE *590:10 3.22879e-05
6 *8:11 *15:11 7.82427e-05
7 *8:11 *515:10 0
8 *1:11 *8:11 7.18837e-05
*RES
1 global_pin_ok *8:11 24.0789 
2 *8:11 *745:DIODE 24.5743 
3 *8:11 *2455:A 23 
*END

*D_NET *9 0.000716445
*CONN
*P group_autolock I
*I *746:DIODE I *D sky130_fd_sc_hd__diode_2
*I *2456:A I *D sky130_fd_sc_hd__buf_1
*CAP
1 group_autolock 0.0001282
2 *746:DIODE 0
3 *2456:A 0.000148485
4 *9:7 0.000276686
5 *2456:A *540:21 0
6 *2456:A *540:27 0
7 *2456:A *546:12 4.21594e-06
8 *2:11 *9:7 8.06147e-05
9 *6:11 *9:7 7.82427e-05
*RES
1 group_autolock *9:7 8.75787 
2 *9:7 *2456:A 40.7861 
3 *9:7 *746:DIODE 38 
*END

*D_NET *10 0.000666084
*CONN
*P group_error O
*I *2461:X O *D sky130_fd_sc_hd__buf_2
*CAP
1 group_error 0.000242063
2 *2461:X 0.000242063
3 group_error *86:13 7.1481e-05
4 group_error *87:9 7.1481e-05
5 group_error *470:125 3.89972e-05
*RES
1 *2461:X group_error 48.5734 
*END

*D_NET *11 0.000788624
*CONN
*P group_suspended O
*I *2462:X O *D sky130_fd_sc_hd__buf_2
*CAP
1 group_suspended 0.000330303
2 *2462:X 0.000330303
3 group_suspended security_breach 0
4 group_suspended *2468:A 3.89972e-05
5 group_suspended *59:15 1.61237e-05
6 group_suspended *72:11 7.2898e-05
7 group_suspended *125:9 0
*RES
1 *2462:X group_suspended 48.5734 
*END

*D_NET *12 0.000992473
*CONN
*P group_unlocked O
*I *2463:X O *D sky130_fd_sc_hd__buf_2
*CAP
1 group_unlocked 0.000446994
2 *2463:X 0.000446994
3 group_unlocked *581:14 9.84851e-05
4 *4:9 group_unlocked 0
*RES
1 *2463:X group_unlocked 47.0936 
*END

*D_NET *13 0.000727052
*CONN
*P hdr_parse_fail I
*I *2457:A I *D sky130_fd_sc_hd__clkbuf_1
*I *747:DIODE I *D sky130_fd_sc_hd__diode_2
*CAP
1 hdr_parse_fail 0.000194408
2 *2457:A 0
3 *747:DIODE 7.67253e-05
4 *13:11 0.000271133
5 *747:DIODE *612:10 3.22879e-05
6 *13:11 *18:11 8.06147e-05
7 *13:11 *568:10 0
8 *6:11 *13:11 7.18837e-05
*RES
1 hdr_parse_fail *13:11 24.7832 
2 *13:11 *747:DIODE 24.5743 
3 *13:11 *2457:A 23 
*END

*D_NET *14 0.000715127
*CONN
*P illegal_in I
*I *748:DIODE I *D sky130_fd_sc_hd__diode_2
*I *2458:A I *D sky130_fd_sc_hd__clkbuf_1
*CAP
1 illegal_in 0.000214979
2 *748:DIODE 6.98496e-05
3 *2458:A 0
4 *14:13 0.000284828
5 *748:DIODE *623:6 3.22879e-05
6 *14:13 wb_dat_o[6] 4.40799e-05
7 *14:13 wb_dat_o[7] 0
8 *14:13 *61:13 6.91028e-05
9 *14:13 *324:28 0
*RES
1 illegal_in *14:13 24.9666 
2 *14:13 *2458:A 23 
3 *14:13 *748:DIODE 24.5743 
*END

*D_NET *15 0.000929163
*CONN
*P power_glitch I
*I *2434:A I *D sky130_fd_sc_hd__clkbuf_1
*I *723:DIODE I *D sky130_fd_sc_hd__diode_2
*CAP
1 power_glitch 0.000258121
2 *2434:A 0
3 *723:DIODE 0.000100403
4 *15:11 0.000358523
5 *15:11 *18:11 7.82427e-05
6 *15:11 *516:8 5.56306e-05
7 *8:11 *15:11 7.82427e-05
*RES
1 power_glitch *15:11 26.1918 
2 *15:11 *723:DIODE 24.5743 
3 *15:11 *2434:A 23 
*END

*D_NET *16 0.00102929
*CONN
*P safe_led O
*I *2464:X O *D sky130_fd_sc_hd__buf_2
*CAP
1 safe_led 0.000514643
2 *2464:X 0.000514643
3 safe_led wb_dat_o[4] 0
4 safe_led wb_dat_o[8] 0
*RES
1 *2464:X safe_led 49.2064 
*END

*D_NET *17 0.00153187
*CONN
*P security_breach O
*I *2465:X O *D sky130_fd_sc_hd__buf_2
*CAP
1 security_breach 0.000186146
2 *2465:X 0.000319331
3 *17:10 0.000505477
4 security_breach wb_ack_o 5.70902e-05
5 security_breach *59:15 1.61237e-05
6 *17:10 wb_ack_o 0.000294346
7 *17:10 *26:8 5.31757e-05
8 *17:10 *131:11 0
9 *17:10 *558:24 0.00010018
10 group_suspended security_breach 0
*RES
1 *2465:X *17:10 44.8461 
2 *17:10 security_breach 8.672 
*END

*D_NET *18 0.000902187
*CONN
*P size_mismatch I
*I *2435:A I *D sky130_fd_sc_hd__clkbuf_1
*I *724:DIODE I *D sky130_fd_sc_hd__diode_2
*CAP
1 size_mismatch 0.000261973
2 *2435:A 0
3 *724:DIODE 8.1339e-05
4 *18:11 0.000343312
5 *724:DIODE *527:14 5.67058e-05
6 *18:11 *568:10 0
7 *18:11 *612:10 0
8 *13:11 *18:11 8.06147e-05
9 *15:11 *18:11 7.82427e-05
*RES
1 size_mismatch *18:11 25.8397 
2 *18:11 *724:DIODE 24.5743 
3 *18:11 *2435:A 23 
*END

*D_NET *19 0.000748744
*CONN
*P tamper_in I
*I *725:DIODE I *D sky130_fd_sc_hd__diode_2
*I *2436:A I *D sky130_fd_sc_hd__clkbuf_1
*CAP
1 tamper_in 0.000231385
2 *725:DIODE 7.86052e-05
3 *2436:A 0
4 *19:11 0.00030999
5 *725:DIODE *538:6 3.22879e-05
6 *19:11 wb_dat_o[26] 3.12475e-05
7 *19:11 *61:13 6.52282e-05
*RES
1 tamper_in *19:11 24.7832 
2 *19:11 *2436:A 23 
3 *19:11 *725:DIODE 24.5743 
*END

*D_NET *20 0.000637173
*CONN
*P unlock_enable O
*I *2466:X O *D sky130_fd_sc_hd__buf_2
*CAP
1 unlock_enable 0.000194267
2 *2466:X 0.000194267
3 unlock_enable wb_dat_o[10] 8.68758e-05
4 unlock_enable *562:8 0
5 unlock_enable *566:8 7.20154e-05
6 debug_enable unlock_enable 8.97484e-05
*RES
1 *2466:X unlock_enable 47.8691 
*END

*D_NET *21 0.00313062
*CONN
*P unlock_req I
*I *726:DIODE I *D sky130_fd_sc_hd__diode_2
*I *2437:A I *D sky130_fd_sc_hd__clkbuf_1
*CAP
1 unlock_req 0.000239454
2 *726:DIODE 0
3 *2437:A 0
4 *21:28 0.000888787
5 *21:11 0.00112824
6 *21:11 *730:DIODE 4.75766e-05
7 *21:11 *1962:A_N 0
8 *21:11 *59:15 5.31857e-05
9 *21:11 *60:9 4.78571e-05
10 *21:11 *72:11 6.37771e-05
11 *21:11 *130:11 0
12 *21:11 *539:8 9.86551e-06
13 *21:28 *730:DIODE 6.42586e-05
14 *21:28 *1963:A_N 5.12254e-05
15 *21:28 *1963:B 0.000177724
16 *21:28 *2030:A 2.18506e-05
17 *21:28 *2301:D 1.58805e-05
18 *21:28 *72:26 0.000310647
19 *21:28 *291:17 1.02949e-05
20 *21:28 *618:24 0
*RES
1 unlock_req *21:11 24.7832 
2 *21:11 *2437:A 23 
3 *21:11 *21:28 43.05 
4 *21:28 *726:DIODE 23 
*END

*D_NET *22 0.000685252
*CONN
*P user_irq O
*I *2467:X O *D sky130_fd_sc_hd__buf_2
*CAP
1 user_irq 0.00029293
2 *2467:X 0.00029293
3 user_irq wb_dat_o[7] 0
4 user_irq *83:13 7.1481e-05
5 user_irq *324:28 0
6 fsm_error user_irq 1.5289e-05
7 *5:14 user_irq 1.26232e-05
*RES
1 *2467:X user_irq 48.5734 
*END

*D_NET *25 0.000957904
*CONN
*P warm_reset_req I
*I *2438:A I *D sky130_fd_sc_hd__dlymetal6s2s_1
*I *727:DIODE I *D sky130_fd_sc_hd__diode_2
*CAP
1 warm_reset_req 0.000138929
2 *2438:A 4.96628e-05
3 *727:DIODE 0.000184804
4 *25:7 0.000373395
5 *727:DIODE *540:10 0
6 *727:DIODE *601:12 2.93747e-05
7 *2438:A *540:10 0
8 *741:DIODE *727:DIODE 2.98648e-05
9 *2:11 *25:7 8.06147e-05
10 *7:11 *25:7 7.12589e-05
*RES
1 warm_reset_req *25:7 8.75787 
2 *25:7 *727:DIODE 40.5996 
3 *25:7 *2438:A 39.0254 
*END

*D_NET *26 0.0026768
*CONN
*P wb_ack_o O
*I *2468:X O *D sky130_fd_sc_hd__buf_2
*CAP
1 wb_ack_o 0.000344779
2 *2468:X 0.000292551
3 *26:8 0.000637329
4 wb_ack_o *2468:A 0
5 wb_ack_o *125:9 0.000729949
6 wb_ack_o *561:10 0
7 *26:8 *2468:A 0.000182832
8 *26:8 *131:11 5.67058e-05
9 *26:8 *558:24 2.80394e-05
10 security_breach wb_ack_o 5.70902e-05
11 *17:10 wb_ack_o 0.000294346
12 *17:10 *26:8 5.31757e-05
*RES
1 *2468:X *26:8 43.8621 
2 *26:8 wb_ack_o 17.3586 
*END

*D_NET *49 0.00124744
*CONN
*P wb_adr_i[2] I
*I *2439:A I *D sky130_fd_sc_hd__clkbuf_2
*I *728:DIODE I *D sky130_fd_sc_hd__diode_2
*CAP
1 wb_adr_i[2] 0.000499013
2 *2439:A 6.31998e-05
3 *728:DIODE 4.11656e-05
4 *49:9 0.000603378
5 *728:DIODE *541:10 2.30292e-05
6 *2439:A *541:10 1.76557e-05
7 *49:9 wb_dat_o[3] 0
8 *49:9 wb_dat_o[5] 0
*RES
1 wb_adr_i[2] *49:9 25.73 
2 *49:9 *728:DIODE 23.6214 
3 *49:9 *2439:A 24.1186 
*END

*D_NET *52 0.00130246
*CONN
*P wb_adr_i[3] I
*I *729:DIODE I *D sky130_fd_sc_hd__diode_2
*I *2440:A I *D sky130_fd_sc_hd__buf_2
*CAP
1 wb_adr_i[3] 0.000499179
2 *729:DIODE 0
3 *2440:A 7.57558e-05
4 *52:9 0.000574935
5 *2440:A *558:20 9.75779e-05
6 *2440:A *619:51 5.50106e-05
7 *52:9 *126:9 0
*RES
1 wb_adr_i[3] *52:9 25.73 
2 *52:9 *2440:A 24.9471 
3 *52:9 *729:DIODE 23 
*END

*D_NET *59 0.0158109
*CONN
*P wb_clk_i I
*I *2366:A I *D sky130_fd_sc_hd__clkbuf_16
*I *699:DIODE I *D sky130_fd_sc_hd__diode_2
*CAP
1 wb_clk_i 0.000987452
2 *2366:A 0.000120204
3 *699:DIODE 0
4 *59:21 0.00437793
5 *59:19 0.00425773
6 *59:17 0.0019716
7 *59:15 0.00295905
8 *2366:A *635:60 3.98818e-05
9 *59:15 *60:9 4.10238e-05
10 *59:17 *104:14 0
11 *59:17 *121:10 0
12 *59:21 *1986:B 6.98147e-05
13 *59:21 *2275:RESET_B 0.000217077
14 *59:21 *2425:A 8.37178e-05
15 *59:21 *121:10 0
16 *59:21 *295:49 6.84456e-05
17 *59:21 *308:10 9.67842e-05
18 *59:21 *310:10 5.50049e-05
19 *59:21 *334:8 3.71251e-05
20 *59:21 *467:108 0.000116397
21 *59:21 *596:10 1.94693e-05
22 *59:21 *634:48 2.18409e-05
23 *59:21 *634:63 0.000139352
24 *59:21 *635:60 4.55171e-05
25 group_suspended *59:15 1.61237e-05
26 security_breach *59:15 1.61237e-05
27 *5:14 *59:17 0
28 *21:11 *59:15 5.31857e-05
*RES
1 wb_clk_i *59:15 27.1136 
2 *59:15 *59:17 44.6911 
3 *59:17 *59:19 15 
4 *59:19 *59:21 57.7929 
5 *59:21 *699:DIODE 23 
6 *59:21 *2366:A 25.0714 
*END

*D_NET *60 0.00136384
*CONN
*P wb_cyc_i I
*I *730:DIODE I *D sky130_fd_sc_hd__diode_2
*I *2441:A I *D sky130_fd_sc_hd__clkbuf_1
*CAP
1 wb_cyc_i 0.000213276
2 *730:DIODE 0.000232411
3 *2441:A 4.24211e-05
4 *60:9 0.000488109
5 *730:DIODE *2030:A 3.22879e-05
6 *730:DIODE *539:8 3.53303e-05
7 *60:9 *130:11 7.1481e-05
8 *60:9 *539:8 4.78096e-05
9 *21:11 *730:DIODE 4.75766e-05
10 *21:11 *60:9 4.78571e-05
11 *21:28 *730:DIODE 6.42586e-05
12 *59:15 *60:9 4.10238e-05
*RES
1 wb_cyc_i *60:9 10.7538 
2 *60:9 *2441:A 38.6214 
3 *60:9 *730:DIODE 42.3086 
*END

*D_NET *61 0.000717893
*CONN
*P wb_dat_i[0] I
*I *731:DIODE I *D sky130_fd_sc_hd__diode_2
*I *2442:A I *D sky130_fd_sc_hd__clkbuf_1
*CAP
1 wb_dat_i[0] 0.000205345
2 *731:DIODE 7.02918e-05
3 *2442:A 0
4 *61:13 0.000275637
5 *731:DIODE *2029:A 3.22879e-05
6 *14:13 *61:13 6.91028e-05
7 *19:11 *61:13 6.52282e-05
*RES
1 wb_dat_i[0] *61:13 24.9666 
2 *61:13 *2442:A 23 
3 *61:13 *731:DIODE 24.5743 
*END

*D_NET *72 0.00194163
*CONN
*P wb_dat_i[1] I
*I *732:DIODE I *D sky130_fd_sc_hd__diode_2
*I *2443:A I *D sky130_fd_sc_hd__clkbuf_1
*CAP
1 wb_dat_i[1] 0.000212498
2 *732:DIODE 0
3 *2443:A 0
4 *72:26 0.00026312
5 *72:11 0.000475618
6 *72:26 *1962:A_N 0.000192077
7 *72:26 *2030:A 9.75779e-05
8 *72:26 *125:27 0.000140259
9 *72:26 *545:8 0.000113153
10 group_suspended *72:11 7.2898e-05
11 *21:11 *72:11 6.37771e-05
12 *21:28 *72:26 0.000310647
*RES
1 wb_dat_i[1] *72:11 24.4311 
2 *72:11 *2443:A 23 
3 *72:11 *72:26 37.6643 
4 *72:26 *732:DIODE 23 
*END

*D_NET *83 0.000872296
*CONN
*P wb_dat_i[2] I
*I *734:DIODE I *D sky130_fd_sc_hd__diode_2
*I *2445:A I *D sky130_fd_sc_hd__clkbuf_1
*CAP
1 wb_dat_i[2] 0.000265892
2 *734:DIODE 8.52185e-05
3 *2445:A 0
4 *83:13 0.000351111
5 *734:DIODE *565:10 7.53384e-06
6 *83:13 wb_dat_o[0] 7.1481e-05
7 *83:13 *324:24 0
8 *83:13 *547:8 1.95789e-05
9 user_irq *83:13 7.1481e-05
*RES
1 wb_dat_i[2] *83:13 26.3752 
2 *83:13 *2445:A 23 
3 *83:13 *734:DIODE 24.5743 
*END

*D_NET *86 0.00135624
*CONN
*P wb_dat_i[3] I
*I *735:DIODE I *D sky130_fd_sc_hd__diode_2
*I *2446:A I *D sky130_fd_sc_hd__clkbuf_1
*CAP
1 wb_dat_i[3] 0.00034572
2 *735:DIODE 0.000190855
3 *2446:A 2.34823e-05
4 *86:13 0.000560058
5 *735:DIODE *2228:A 5.50106e-05
6 *86:13 wb_dat_o[2] 0.000109634
7 *86:13 *324:16 0
8 *86:13 *548:8 0
9 group_error *86:13 7.1481e-05
*RES
1 wb_dat_i[3] *86:13 27.5766 
2 *86:13 *2446:A 23.4971 
3 *86:13 *735:DIODE 26.0036 
*END

*D_NET *87 0.000886357
*CONN
*P wb_dat_i[4] I
*I *736:DIODE I *D sky130_fd_sc_hd__diode_2
*I *2447:A I *D sky130_fd_sc_hd__clkbuf_1
*CAP
1 wb_dat_i[4] 0.000164865
2 *736:DIODE 0.000172483
3 *2447:A 3.77894e-05
4 *87:9 0.000375137
5 *736:DIODE *470:125 0
6 *87:9 wb_dat_o[0] 6.46017e-05
7 *87:9 *324:22 0
8 group_error *87:9 7.1481e-05
*RES
1 wb_dat_i[4] *87:9 9.34521 
2 *87:9 *2447:A 38.6214 
3 *87:9 *736:DIODE 40.5271 
*END

*D_NET *93 0.000613309
*CONN
*P wb_dat_o[0] O
*I *2469:X O *D sky130_fd_sc_hd__buf_2
*CAP
1 wb_dat_o[0] 0.000238613
2 *2469:X 0.000238613
3 *83:13 wb_dat_o[0] 7.1481e-05
4 *87:9 wb_dat_o[0] 6.46017e-05
*RES
1 *2469:X wb_dat_o[0] 48.0909 
*END

*D_NET *94 0.00096504
*CONN
*P wb_dat_o[10] O
*I *2470:X O *D sky130_fd_sc_hd__buf_2
*CAP
1 wb_dat_o[10] 0.000199777
2 *2470:X 0.000118361
3 *94:10 0.000318138
4 wb_dat_o[10] wb_dat_o[11] 8.45433e-05
5 *94:10 *181:8 0
6 *94:10 *373:10 0
7 *94:10 *566:8 0.000116481
8 *94:10 *567:10 4.08641e-05
9 unlock_enable wb_dat_o[10] 8.68758e-05
*RES
1 *2470:X *94:10 49.1382 
2 *94:10 wb_dat_o[10] 0.9296 
*END

*D_NET *95 0.000872782
*CONN
*P wb_dat_o[11] O
*I *2471:X O *D sky130_fd_sc_hd__buf_2
*CAP
1 wb_dat_o[11] 0.000345399
2 *2471:X 0.000345399
3 wb_dat_o[11] wb_dat_o[15] 8.68758e-05
4 wb_dat_o[11] *567:10 1.05658e-05
5 wb_dat_o[11] *620:84 0
6 wb_dat_o[10] wb_dat_o[11] 8.45433e-05
*RES
1 *2471:X wb_dat_o[11] 47.5941 
*END

*D_NET *96 0.00129942
*CONN
*P wb_dat_o[12] O
*I *2472:X O *D sky130_fd_sc_hd__buf_2
*CAP
1 wb_dat_o[12] 0.000141927
2 *2472:X 0.000222815
3 *96:8 0.000364742
4 wb_dat_o[12] wb_dat_o[13] 8.73764e-05
5 wb_dat_o[12] wb_dat_o[15] 8.97484e-05
6 *96:8 *2472:A 0.000364323
7 *96:8 *572:10 2.84912e-05
*RES
1 *2472:X *96:8 43.6032 
2 *96:8 wb_dat_o[12] 8.84373 
*END

*D_NET *97 0.00106299
*CONN
*P wb_dat_o[13] O
*I *2473:X O *D sky130_fd_sc_hd__buf_2
*CAP
1 wb_dat_o[13] 0.000411823
2 *2473:X 0.000411823
3 wb_dat_o[13] wb_dat_o[14] 7.82776e-05
4 wb_dat_o[13] *185:8 0
5 wb_dat_o[13] *570:10 5.32119e-05
6 wb_dat_o[13] *572:10 2.04774e-05
7 wb_dat_o[13] *620:122 0
8 wb_dat_o[12] wb_dat_o[13] 8.73764e-05
*RES
1 *2473:X wb_dat_o[13] 49.3549 
*END

*D_NET *98 0.000742339
*CONN
*P wb_dat_o[14] O
*I *2474:X O *D sky130_fd_sc_hd__buf_2
*CAP
1 wb_dat_o[14] 0.000332031
2 *2474:X 0.000332031
3 wb_dat_o[13] wb_dat_o[14] 7.82776e-05
*RES
1 *2474:X wb_dat_o[14] 49.2777 
*END

*D_NET *99 0.00073437
*CONN
*P wb_dat_o[15] O
*I *2475:X O *D sky130_fd_sc_hd__buf_2
*CAP
1 wb_dat_o[15] 0.000213767
2 *2475:X 0.000213767
3 wb_dat_o[15] *2472:A 0.000130212
4 wb_dat_o[11] wb_dat_o[15] 8.68758e-05
5 wb_dat_o[12] wb_dat_o[15] 8.97484e-05
*RES
1 *2475:X wb_dat_o[15] 48.5734 
*END

*D_NET *100 0.000652007
*CONN
*P wb_dat_o[16] O
*I *2476:X O *D sky130_fd_sc_hd__buf_2
*CAP
1 wb_dat_o[16] 0.000298078
2 *2476:X 0.000298078
3 wb_dat_o[16] wb_dat_o[18] 1.5289e-05
4 wb_dat_o[16] wb_dat_o[25] 2.12457e-05
5 wb_dat_o[16] wb_dat_o[30] 0
6 wb_dat_o[16] *102:14 1.93155e-05
7 wb_dat_o[16] *110:14 0
8 wb_dat_o[16] *117:20 0
*RES
1 *2476:X wb_dat_o[16] 49.9669 
*END

*D_NET *101 0.00110776
*CONN
*P wb_dat_o[17] O
*I *2477:X O *D sky130_fd_sc_hd__buf_2
*CAP
1 wb_dat_o[17] 0.000256848
2 *2477:X 0.000175915
3 *101:10 0.000432763
4 wb_dat_o[17] wb_dat_o[19] 9.8882e-05
5 wb_dat_o[17] wb_dat_o[23] 0
6 wb_dat_o[17] wb_dat_o[31] 2.12457e-05
7 wb_dat_o[17] *117:20 1.86978e-05
8 *101:10 *103:10 9.19611e-05
9 *101:10 *201:8 0
10 *101:10 *575:14 1.14452e-05
*RES
1 *2477:X *101:10 49.8425 
2 *101:10 wb_dat_o[17] 1.1872 
*END

*D_NET *102 0.000678535
*CONN
*P wb_dat_o[18] O
*I *2478:X O *D sky130_fd_sc_hd__buf_2
*CAP
1 wb_dat_o[18] 7.61615e-05
2 *2478:X 0.000234468
3 *102:14 0.00031063
4 wb_dat_o[18] wb_dat_o[31] 1.5289e-05
5 wb_dat_o[18] *117:20 7.3821e-06
6 *102:14 *117:20 0
7 wb_dat_o[16] wb_dat_o[18] 1.5289e-05
8 wb_dat_o[16] *102:14 1.93155e-05
*RES
1 *2478:X *102:14 49.9 
2 *102:14 wb_dat_o[18] 0.382667 
*END

*D_NET *103 0.00188928
*CONN
*P wb_dat_o[19] O
*I *2479:X O *D sky130_fd_sc_hd__buf_2
*CAP
1 wb_dat_o[19] 0.000148607
2 *2479:X 0.000580597
3 *103:10 0.000729204
4 wb_dat_o[19] wb_dat_o[23] 9.8882e-05
5 *103:10 *2478:A 5.70419e-05
6 *103:10 *575:14 0
7 *103:10 *592:8 8.41012e-05
8 wb_dat_o[17] wb_dat_o[19] 9.8882e-05
9 *101:10 *103:10 9.19611e-05
*RES
1 *2479:X *103:10 49.7554 
2 *103:10 wb_dat_o[19] 8.9296 
*END

*D_NET *104 0.000666175
*CONN
*P wb_dat_o[1] O
*I *2480:X O *D sky130_fd_sc_hd__buf_2
*CAP
1 wb_dat_o[1] 7.67726e-05
2 *2480:X 0.000230068
3 *104:14 0.000306841
4 wb_dat_o[1] wb_dat_o[2] 2.12457e-05
5 wb_dat_o[1] *130:11 1.5289e-05
6 *104:14 wb_dat_o[2] 0
7 *104:14 *130:11 1.59585e-05
8 *59:17 *104:14 0
*RES
1 *2480:X *104:14 49.9 
2 *104:14 wb_dat_o[1] 0.382667 
*END

*D_NET *105 0.000924614
*CONN
*P wb_dat_o[20] O
*I *2481:X O *D sky130_fd_sc_hd__buf_2
*CAP
1 wb_dat_o[20] 0.000328796
2 *2481:X 0.000328796
3 wb_dat_o[20] wb_dat_o[24] 0
4 wb_dat_o[20] wb_dat_o[28] 2.12457e-05
5 wb_dat_o[20] wb_dat_o[29] 3.49463e-05
6 wb_dat_o[20] *113:14 0
7 wb_dat_o[20] *114:10 0.000141052
8 wb_dat_o[20] *578:8 6.97776e-05
*RES
1 *2481:X wb_dat_o[20] 49.2716 
*END

*D_NET *106 0.000887123
*CONN
*P wb_dat_o[21] O
*I *2482:X O *D sky130_fd_sc_hd__buf_2
*CAP
1 wb_dat_o[21] 0.000107122
2 *2482:X 0.000256918
3 *106:12 0.00036404
4 wb_dat_o[21] wb_dat_o[24] 5.99691e-05
5 wb_dat_o[21] wb_dat_o[30] 5.82094e-05
6 *106:12 *580:8 4.08641e-05
*RES
1 *2482:X *106:12 49.7804 
2 *106:12 wb_dat_o[21] 0.586133 
*END

*D_NET *107 0.00282564
*CONN
*P wb_dat_o[22] O
*I *2483:X O *D sky130_fd_sc_hd__buf_2
*CAP
1 wb_dat_o[22] 0.000551435
2 *2483:X 0.000412414
3 *107:8 0.000963849
4 wb_dat_o[22] wb_dat_o[23] 0.000270044
5 *107:8 *108:10 0.000627899
*RES
1 *2483:X *107:8 49.5896 
2 *107:8 wb_dat_o[22] 10.5611 
*END

*D_NET *108 0.00306402
*CONN
*P wb_dat_o[23] O
*I *2484:X O *D sky130_fd_sc_hd__buf_2
*CAP
1 wb_dat_o[23] 0.000529486
2 *2484:X 0.0004056
3 *108:10 0.000935085
4 *108:10 *2300:CLK 9.8971e-06
5 *108:10 *581:14 0.000187129
6 wb_dat_o[17] wb_dat_o[23] 0
7 wb_dat_o[19] wb_dat_o[23] 9.8882e-05
8 wb_dat_o[22] wb_dat_o[23] 0.000270044
9 *107:8 *108:10 0.000627899
*RES
1 *2484:X *108:10 48.5954 
2 *108:10 wb_dat_o[23] 10.6469 
*END

*D_NET *109 0.000687818
*CONN
*P wb_dat_o[24] O
*I *2485:X O *D sky130_fd_sc_hd__buf_2
*CAP
1 wb_dat_o[24] 0.000296451
2 *2485:X 0.000296451
3 wb_dat_o[24] wb_dat_o[29] 3.49463e-05
4 wb_dat_o[24] *583:8 0
5 wb_dat_o[20] wb_dat_o[24] 0
6 wb_dat_o[21] wb_dat_o[24] 5.99691e-05
*RES
1 *2485:X wb_dat_o[24] 48.5734 
*END

*D_NET *110 0.000762474
*CONN
*P wb_dat_o[25] O
*I *2486:X O *D sky130_fd_sc_hd__buf_2
*CAP
1 wb_dat_o[25] 7.67726e-05
2 *2486:X 0.000279886
3 *110:14 0.000356658
4 wb_dat_o[25] wb_dat_o[30] 1.5289e-05
5 *110:14 wb_dat_o[30] 1.26232e-05
6 wb_dat_o[16] wb_dat_o[25] 2.12457e-05
7 wb_dat_o[16] *110:14 0
*RES
1 *2486:X *110:14 49.9 
2 *110:14 wb_dat_o[25] 0.382667 
*END

*D_NET *111 0.000854815
*CONN
*P wb_dat_o[26] O
*I *2487:X O *D sky130_fd_sc_hd__buf_2
*CAP
1 wb_dat_o[26] 9.22305e-05
2 *2487:X 0.000308931
3 *111:10 0.000401161
4 wb_dat_o[26] wb_dat_o[27] 2.12457e-05
5 *19:11 wb_dat_o[26] 3.12475e-05
*RES
1 *2487:X *111:10 42.2775 
2 *111:10 wb_dat_o[26] 8.4816 
*END

*D_NET *112 0.00069294
*CONN
*P wb_dat_o[27] O
*I *2488:X O *D sky130_fd_sc_hd__buf_2
*CAP
1 wb_dat_o[27] 7.65184e-05
2 *2488:X 0.000235419
3 *112:14 0.000311938
4 wb_dat_o[27] wb_dat_o[28] 1.5289e-05
5 *112:14 *113:14 3.25302e-05
6 wb_dat_o[26] wb_dat_o[27] 2.12457e-05
*RES
1 *2488:X *112:14 49.9 
2 *112:14 wb_dat_o[27] 0.382667 
*END

*D_NET *113 0.000681815
*CONN
*P wb_dat_o[28] O
*I *2489:X O *D sky130_fd_sc_hd__buf_2
*CAP
1 wb_dat_o[28] 7.67726e-05
2 *2489:X 0.000229603
3 *113:14 0.000306375
4 wb_dat_o[20] wb_dat_o[28] 2.12457e-05
5 wb_dat_o[20] *113:14 0
6 wb_dat_o[27] wb_dat_o[28] 1.5289e-05
7 *112:14 *113:14 3.25302e-05
*RES
1 *2489:X *113:14 49.9 
2 *113:14 wb_dat_o[28] 0.382667 
*END

*D_NET *114 0.00105269
*CONN
*P wb_dat_o[29] O
*I *2490:X O *D sky130_fd_sc_hd__buf_2
*CAP
1 wb_dat_o[29] 5.25196e-05
2 *2490:X 0.000368352
3 *114:10 0.000420872
4 *114:10 *578:8 0
5 wb_dat_o[20] wb_dat_o[29] 3.49463e-05
6 wb_dat_o[20] *114:10 0.000141052
7 wb_dat_o[24] wb_dat_o[29] 3.49463e-05
*RES
1 *2490:X *114:10 45.3432 
2 *114:10 wb_dat_o[29] 8.32853 
*END

*D_NET *115 0.000846718
*CONN
*P wb_dat_o[2] O
*I *2491:X O *D sky130_fd_sc_hd__buf_2
*CAP
1 wb_dat_o[2] 0.00032303
2 *2491:X 0.00032303
3 wb_dat_o[2] *130:11 0
4 wb_dat_o[2] *589:8 6.97776e-05
5 wb_dat_o[1] wb_dat_o[2] 2.12457e-05
6 *86:13 wb_dat_o[2] 0.000109634
7 *104:14 wb_dat_o[2] 0
*RES
1 *2491:X wb_dat_o[2] 49.2716 
*END

*D_NET *116 0.000876163
*CONN
*P wb_dat_o[30] O
*I *2492:X O *D sky130_fd_sc_hd__buf_2
*CAP
1 wb_dat_o[30] 0.000390088
2 *2492:X 0.000390088
3 wb_dat_o[30] *591:10 9.86551e-06
4 wb_dat_o[16] wb_dat_o[30] 0
5 wb_dat_o[21] wb_dat_o[30] 5.82094e-05
6 wb_dat_o[25] wb_dat_o[30] 1.5289e-05
7 *110:14 wb_dat_o[30] 1.26232e-05
*RES
1 *2492:X wb_dat_o[30] 47.5941 
*END

*D_NET *117 0.000820226
*CONN
*P wb_dat_o[31] O
*I *2493:X O *D sky130_fd_sc_hd__buf_2
*CAP
1 wb_dat_o[31] 2.74534e-05
2 *2493:X 0.000351352
3 *117:20 0.000378806
4 wb_dat_o[16] *117:20 0
5 wb_dat_o[17] wb_dat_o[31] 2.12457e-05
6 wb_dat_o[17] *117:20 1.86978e-05
7 wb_dat_o[18] wb_dat_o[31] 1.5289e-05
8 wb_dat_o[18] *117:20 7.3821e-06
9 *102:14 *117:20 0
*RES
1 *2493:X *117:20 49.8268 
2 *117:20 wb_dat_o[31] 0.199733 
*END

*D_NET *118 0.00107102
*CONN
*P wb_dat_o[3] O
*I *2494:X O *D sky130_fd_sc_hd__buf_2
*CAP
1 wb_dat_o[3] 0.000535512
2 *2494:X 0.000535512
3 wb_dat_o[3] *126:9 0
4 *49:9 wb_dat_o[3] 0
*RES
1 *2494:X wb_dat_o[3] 49.6829 
*END

*D_NET *119 0.00102215
*CONN
*P wb_dat_o[4] O
*I *2495:X O *D sky130_fd_sc_hd__buf_2
*CAP
1 wb_dat_o[4] 0.000511075
2 *2495:X 0.000511075
3 safe_led wb_dat_o[4] 0
*RES
1 *2495:X wb_dat_o[4] 49.2064 
*END

*D_NET *120 0.00102929
*CONN
*P wb_dat_o[5] O
*I *2496:X O *D sky130_fd_sc_hd__buf_2
*CAP
1 wb_dat_o[5] 0.000514643
2 *2496:X 0.000514643
3 *49:9 wb_dat_o[5] 0
*RES
1 *2496:X wb_dat_o[5] 49.2064 
*END

*D_NET *121 0.00118195
*CONN
*P wb_dat_o[6] O
*I *2497:X O *D sky130_fd_sc_hd__buf_2
*CAP
1 wb_dat_o[6] 9.04155e-05
2 *2497:X 0.000346509
3 *121:10 0.000436924
4 wb_dat_o[6] wb_dat_o[7] 4.40799e-05
5 *121:10 wb_dat_o[7] 0.000141052
6 *121:10 *2497:A 7.88926e-05
7 *121:10 *596:10 0
8 *121:10 *597:8 0
9 *14:13 wb_dat_o[6] 4.40799e-05
10 *59:17 *121:10 0
11 *59:21 *121:10 0
*RES
1 *2497:X *121:10 45.3432 
2 *121:10 wb_dat_o[6] 8.4144 
*END

*D_NET *122 0.000930294
*CONN
*P wb_dat_o[7] O
*I *2498:X O *D sky130_fd_sc_hd__buf_2
*CAP
1 wb_dat_o[7] 0.000327069
2 *2498:X 0.000327069
3 wb_dat_o[7] *597:8 6.97776e-05
4 fsm_error wb_dat_o[7] 2.12457e-05
5 user_irq wb_dat_o[7] 0
6 wb_dat_o[6] wb_dat_o[7] 4.40799e-05
7 *5:14 wb_dat_o[7] 0
8 *14:13 wb_dat_o[7] 0
9 *121:10 wb_dat_o[7] 0.000141052
*RES
1 *2498:X wb_dat_o[7] 49.2716 
*END

*D_NET *123 0.00117158
*CONN
*P wb_dat_o[8] O
*I *2499:X O *D sky130_fd_sc_hd__buf_2
*CAP
1 wb_dat_o[8] 0.000568728
2 *2499:X 0.000568728
3 wb_dat_o[8] *2499:A 7.53384e-06
4 wb_dat_o[8] *622:121 2.65879e-05
5 safe_led wb_dat_o[8] 0
*RES
1 *2499:X wb_dat_o[8] 49.8279 
*END

*D_NET *124 0.00106389
*CONN
*P wb_dat_o[9] O
*I *2500:X O *D sky130_fd_sc_hd__buf_2
*CAP
1 wb_dat_o[9] 0.000531944
2 *2500:X 0.000531944
*RES
1 *2500:X wb_dat_o[9] 49.6829 
*END

*D_NET *125 0.0050858
*CONN
*P wb_rst_i I
*I *2448:A I *D sky130_fd_sc_hd__clkbuf_1
*I *737:DIODE I *D sky130_fd_sc_hd__diode_2
*CAP
1 wb_rst_i 0.00070766
2 *2448:A 9.37145e-05
3 *737:DIODE 0
4 *125:27 0.000760778
5 *125:9 0.00156215
6 *125:9 *2468:A 0
7 *125:27 *698:DIODE 0.000143655
8 *125:27 *1962:A_N 0
9 *125:27 *2468:A 0
10 *125:27 *323:24 0.000343764
11 *125:27 *560:76 0.000517529
12 *125:27 *561:10 5.67058e-05
13 *125:27 *618:24 0
14 *125:27 *619:12 2.96369e-05
15 group_suspended *125:9 0
16 wb_ack_o *125:9 0.000729949
17 *72:26 *125:27 0.000140259
*RES
1 wb_rst_i *125:9 23.2592 
2 *125:9 *125:27 47.6279 
3 *125:27 *737:DIODE 38 
4 *125:9 *2448:A 39.5743 
*END

*D_NET *126 0.00157701
*CONN
*P wb_sel_i[0] I
*I *738:DIODE I *D sky130_fd_sc_hd__diode_2
*I *2449:A I *D sky130_fd_sc_hd__clkbuf_1
*CAP
1 wb_sel_i[0] 0.000544843
2 *738:DIODE 5.24089e-05
3 *2449:A 0
4 *126:9 0.000597252
5 *738:DIODE *2494:A 9.67842e-05
6 *738:DIODE *551:10 2.32004e-05
7 *738:DIODE *619:64 0.000227208
8 *738:DIODE *622:119 3.53115e-05
9 wb_dat_o[3] *126:9 0
10 *52:9 *126:9 0
*RES
1 wb_sel_i[0] *126:9 26.4343 
2 *126:9 *2449:A 23 
3 *126:9 *738:DIODE 25.5271 
*END

*D_NET *130 0.000924753
*CONN
*P wb_stb_i I
*I *739:DIODE I *D sky130_fd_sc_hd__diode_2
*I *2450:A I *D sky130_fd_sc_hd__clkbuf_1
*CAP
1 wb_stb_i 0.00030135
2 *739:DIODE 8.1309e-05
3 *2450:A 0
4 *130:11 0.000382659
5 *739:DIODE *1934:A 5.67058e-05
6 *130:11 *324:16 0
7 wb_dat_o[1] *130:11 1.5289e-05
8 wb_dat_o[2] *130:11 0
9 *21:11 *130:11 0
10 *60:9 *130:11 7.1481e-05
11 *104:14 *130:11 1.59585e-05
*RES
1 wb_stb_i *130:11 26.1918 
2 *130:11 *2450:A 23 
3 *130:11 *739:DIODE 24.5743 
*END

*D_NET *131 0.00270915
*CONN
*P wb_we_i I
*I *740:DIODE I *D sky130_fd_sc_hd__diode_2
*I *2451:A I *D sky130_fd_sc_hd__clkbuf_1
*CAP
1 wb_we_i 0.00067797
2 *740:DIODE 0.00013846
3 *2451:A 2.34823e-05
4 *131:11 0.000839913
5 *740:DIODE *2402:A 0.00014196
6 *740:DIODE *558:24 0.000216766
7 *740:DIODE *619:6 9.84794e-05
8 *740:DIODE *619:19 0.000272383
9 *740:DIODE *622:8 4.21378e-05
10 *2451:A *2468:A 0
11 *131:11 *2399:A 0
12 *131:11 *553:10 5.41288e-05
13 *131:11 *558:24 0.000128401
14 *131:11 *561:10 1.83667e-05
15 *17:10 *131:11 0
16 *26:8 *131:11 5.67058e-05
*RES
1 wb_we_i *131:11 30.2664 
2 *131:11 *2451:A 23.4971 
3 *131:11 *740:DIODE 28.8621 
*END

*D_NET *132 0.000486451
*CONN
*I *2302:D I *D sky130_fd_sc_hd__dfrtp_1
*I *2029:X O *D sky130_fd_sc_hd__and2_1
*CAP
1 *2302:D 0.000153343
2 *2029:X 0.000153343
3 *2302:D *2302:CLK 3.87132e-05
4 *2302:D *617:16 0.000141052
*RES
1 *2029:X *2302:D 49.48 
*END

*D_NET *133 0.000838639
*CONN
*I *2303:D I *D sky130_fd_sc_hd__dfrtp_1
*I *2030:X O *D sky130_fd_sc_hd__and2_1
*CAP
1 *2303:D 0.000226448
2 *2030:X 5.91087e-05
3 *133:8 0.000285557
4 *2303:D *137:10 0.00010018
5 *2303:D *471:63 7.59794e-05
6 *133:8 *137:10 2.79004e-05
7 *133:8 *324:16 5.20202e-05
8 *133:8 *471:71 0
9 *133:8 *552:10 1.14452e-05
*RES
1 *2030:X *133:8 39.5536 
2 *133:8 *2303:D 42.4329 
*END

*D_NET *134 0.000482669
*CONN
*I *2304:D I *D sky130_fd_sc_hd__dfrtp_1
*I *2031:X O *D sky130_fd_sc_hd__and2_1
*CAP
1 *2304:D 0
2 *2031:X 0.000168129
3 *134:10 0.000168129
4 *134:10 *273:10 4.96264e-05
5 *134:10 *563:14 9.67842e-05
6 *134:10 *622:14 0
*RES
1 *2031:X *134:10 40.6514 
2 *134:10 *2304:D 38 
*END

*D_NET *135 0.000472882
*CONN
*I *2305:D I *D sky130_fd_sc_hd__dfrtp_1
*I *2032:X O *D sky130_fd_sc_hd__and2_1
*CAP
1 *2305:D 0.00018198
2 *2032:X 0.00018198
3 *2305:D *2461:A 3.64736e-05
4 *2305:D *470:125 7.24484e-05
*RES
1 *2032:X *2305:D 49.48 
*END

*D_NET *136 0.000523129
*CONN
*I *2306:D I *D sky130_fd_sc_hd__dfrtp_1
*I *2033:X O *D sky130_fd_sc_hd__and2_1
*CAP
1 *2306:D 0
2 *2033:X 0.000170198
3 *136:10 0.000170198
4 *136:10 *324:22 0.000141879
5 *136:10 *549:10 4.08537e-05
*RES
1 *2033:X *136:10 41.0036 
2 *136:10 *2306:D 38 
*END

*D_NET *137 0.00279641
*CONN
*I *2301:D I *D sky130_fd_sc_hd__dfrtp_1
*I *1963:B I *D sky130_fd_sc_hd__and2b_1
*I *2028:B I *D sky130_fd_sc_hd__and3_1
*I *1962:X O *D sky130_fd_sc_hd__and3b_1
*CAP
1 *2301:D 0.000184992
2 *1963:B 0.000126607
3 *2028:B 0
4 *1962:X 0.000258602
5 *137:21 0.000574419
6 *137:12 0.00026282
7 *137:10 0.000258602
8 *1963:B *291:6 2.54193e-05
9 *1963:B *291:17 4.04598e-06
10 *1963:B *622:14 0.000108681
11 *2301:D *619:12 0.000158646
12 *2301:D *622:14 0.000228747
13 *137:10 *1963:A_N 6.4393e-05
14 *137:10 *324:10 0
15 *137:10 *324:16 0
16 *137:10 *471:71 5.08795e-05
17 *137:21 *560:76 0.000167868
18 *2303:D *137:10 0.00010018
19 *21:28 *1963:B 0.000177724
20 *21:28 *2301:D 1.58805e-05
21 *133:8 *137:10 2.79004e-05
*RES
1 *1962:X *137:10 43.1164 
2 *137:10 *137:12 15 
3 *137:12 *2028:B 23 
4 *137:12 *137:21 18.48 
5 *137:21 *1963:B 41.1279 
6 *137:21 *2301:D 41.3143 
*END

*D_NET *138 0.00371372
*CONN
*I *2269:D I *D sky130_fd_sc_hd__dfrtp_1
*I *1970:X O *D sky130_fd_sc_hd__o21a_1
*CAP
1 *2269:D 0
2 *1970:X 0.00114367
3 *138:14 0.000205485
4 *138:6 0.00134916
5 *138:6 *1970:B1 1.94812e-05
6 *138:6 *618:122 0.000539515
7 *138:6 *618:139 2.64616e-05
8 *138:6 *638:36 4.37283e-05
9 *138:14 *697:DIODE 0.000140302
10 *138:14 *2269:CLK 4.84129e-06
11 *138:14 *470:18 9.49263e-06
12 *138:14 *470:22 4.22774e-05
13 *138:14 *618:66 0.000189309
*RES
1 *1970:X *138:6 38.8671 
2 *138:6 *138:14 34.8886 
3 *138:14 *2269:D 23 
*END

*D_NET *139 0.000436573
*CONN
*I *2279:D I *D sky130_fd_sc_hd__dfrtp_1
*I *2004:X O *D sky130_fd_sc_hd__and2_1
*CAP
1 *2279:D 0.000192283
2 *2004:X 0.000192283
3 *2279:D *2279:CLK 2.65879e-05
4 *2279:D *472:114 2.54193e-05
*RES
1 *2004:X *2279:D 49.48 
*END

*D_NET *140 0.000397945
*CONN
*I *2280:D I *D sky130_fd_sc_hd__dfrtp_1
*I *2006:X O *D sky130_fd_sc_hd__and2_1
*CAP
1 *2280:D 0.000123172
2 *2006:X 0.000123172
3 *2280:D *373:6 0.000151601
*RES
1 *2006:X *2280:D 49.0036 
*END

*D_NET *141 0.00222836
*CONN
*I *2281:D I *D sky130_fd_sc_hd__dfrtp_1
*I *2007:X O *D sky130_fd_sc_hd__o221a_1
*CAP
1 *2281:D 0
2 *2007:X 0.000544169
3 *141:10 0.000544169
4 *141:10 *2071:A 0.000533224
5 *141:10 *2079:A1 9.45591e-05
6 *141:10 *142:6 0.000221638
7 *141:10 *357:10 5.50049e-05
8 *141:10 *359:18 5.67058e-05
9 *141:10 *365:10 4.03919e-05
10 *141:10 *473:129 8.1796e-05
11 *141:10 *483:33 5.67058e-05
*RES
1 *2007:X *141:10 37.0029 
2 *141:10 *2281:D 23 
*END

*D_NET *142 0.00517129
*CONN
*I *2282:D I *D sky130_fd_sc_hd__dfrtp_1
*I *2008:X O *D sky130_fd_sc_hd__o221a_1
*CAP
1 *2282:D 0
2 *2008:X 0.00166252
3 *142:12 0.000181361
4 *142:6 0.00184388
5 *142:6 *2071:A 0.000213682
6 *142:6 *2281:RESET_B 5.31757e-05
7 *142:6 *473:129 0.000387304
8 *142:6 *483:33 0.000441065
9 *142:12 *473:129 0
10 *142:12 *620:100 8.51329e-05
11 *142:12 *620:122 8.15327e-05
12 *141:10 *142:6 0.000221638
*RES
1 *2008:X *142:6 48.3957 
2 *142:6 *142:12 34.3707 
3 *142:12 *2282:D 23 
*END

*D_NET *143 0.000484032
*CONN
*I *2283:D I *D sky130_fd_sc_hd__dfrtp_1
*I *2009:X O *D sky130_fd_sc_hd__and3_1
*CAP
1 *2283:D 0
2 *2009:X 0.000196684
3 *143:10 0.000196684
4 *143:10 *663:DIODE 5.50106e-05
5 *143:10 *2283:CLK 3.56537e-05
6 *143:10 *184:8 0
*RES
1 *2009:X *143:10 41.1279 
2 *143:10 *2283:D 38 
*END

*D_NET *144 0.000856536
*CONN
*I *2284:D I *D sky130_fd_sc_hd__dfrtp_1
*I *2010:X O *D sky130_fd_sc_hd__and3_1
*CAP
1 *2284:D 0.000158925
2 *2010:X 9.31502e-05
3 *144:8 0.000252075
4 *2284:D *473:119 0.000228903
5 *2284:D *480:10 5.41385e-05
6 *144:8 *2283:CLK 0
7 *144:8 *609:53 6.93449e-05
*RES
1 *2010:X *144:8 39.9057 
2 *144:8 *2284:D 41.9564 
*END

*D_NET *145 0.000830553
*CONN
*I *2285:D I *D sky130_fd_sc_hd__dfrtp_1
*I *2011:X O *D sky130_fd_sc_hd__and3_1
*CAP
1 *2285:D 0.000113205
2 *2011:X 6.59992e-05
3 *145:8 0.000179204
4 *2285:D *2013:B 4.95081e-05
5 *2285:D *606:31 0.000119477
6 *2285:D *610:34 0.0001126
7 *145:8 *2012:A 0.000140949
8 *145:8 *384:8 1.14452e-05
9 *145:8 *600:44 3.81658e-05
*RES
1 *2011:X *145:8 39.9057 
2 *145:8 *2285:D 41.48 
*END

*D_NET *146 0.00296576
*CONN
*I *2286:D I *D sky130_fd_sc_hd__dfrtp_1
*I *2012:X O *D sky130_fd_sc_hd__and3_1
*CAP
1 *2286:D 0
2 *2012:X 0.000264754
3 *146:10 0.000264754
4 *146:10 *2144:B 0.000101764
5 *146:10 *2243:A 0.000102389
6 *146:10 *2286:RESET_B 9.4537e-05
7 *146:10 *524:10 0.000109914
8 *146:10 *575:14 0.00119888
9 *146:10 *576:18 0.000143655
10 *146:10 *600:44 0.000685109
*RES
1 *2012:X *146:10 39.5093 
2 *146:10 *2286:D 23 
*END

*D_NET *147 0.000672578
*CONN
*I *2287:D I *D sky130_fd_sc_hd__dfrtp_1
*I *2013:X O *D sky130_fd_sc_hd__and3_1
*CAP
1 *2287:D 0
2 *2013:X 0.000256032
3 *147:10 0.000256032
4 *147:10 *2013:A 0.000128391
5 *147:10 *2287:CLK 3.21223e-05
*RES
1 *2013:X *147:10 42.0807 
2 *147:10 *2287:D 38 
*END

*D_NET *148 0.000969801
*CONN
*I *2288:D I *D sky130_fd_sc_hd__dfrtp_1
*I *2014:X O *D sky130_fd_sc_hd__and3_1
*CAP
1 *2288:D 0.00037956
2 *2014:X 8.51925e-05
3 *148:8 0.000464752
4 *2288:D *2288:CLK 4.00259e-06
5 *2288:D *468:33 9.72057e-06
6 *2288:D *581:10 2.65727e-05
7 *148:8 *557:10 0
*RES
1 *2014:X *148:8 39.2014 
2 *148:8 *2288:D 42.93 
*END

*D_NET *149 0.0038717
*CONN
*I *2270:D I *D sky130_fd_sc_hd__dfrtp_1
*I *1973:X O *D sky130_fd_sc_hd__o21a_1
*CAP
1 *2270:D 0
2 *1973:X 0.000366675
3 *149:18 0.000788869
4 *149:10 0.00115554
5 *149:10 *2186:A1 0.000484545
6 *149:10 *475:12 0
7 *149:10 *560:64 0.000161121
8 *149:18 *2270:CLK 0.000265903
9 *149:18 *2270:RESET_B 0.000274078
10 *149:18 *2345:CLK 5.3304e-05
11 *149:18 *2345:D 0.000272796
12 *149:18 *291:63 4.26859e-05
13 *149:18 *487:25 6.17437e-06
*RES
1 *1973:X *149:10 45.6436 
2 *149:10 *149:18 29.6036 
3 *149:18 *2270:D 23 
*END

*D_NET *150 0.00718182
*CONN
*I *2289:D I *D sky130_fd_sc_hd__dfrtp_1
*I *2015:X O *D sky130_fd_sc_hd__and3_1
*CAP
1 *2289:D 0.00110335
2 *2015:X 0.000257643
3 *150:14 0.00206733
4 *150:8 0.00122163
5 *2289:D *518:10 0.000199587
6 *2289:D *610:107 0.00012239
7 *150:8 *2040:B 0
8 *150:8 *328:8 0
9 *150:8 *337:8 0
10 *150:8 *340:10 2.68708e-05
11 *150:8 *500:70 0.000111852
12 *150:14 *2022:A 3.34247e-05
13 *150:14 *2022:B 0.000139346
14 *150:14 *2406:A 0.000354116
15 *150:14 *2418:A 0.000269769
16 *150:14 *501:25 0.00117323
17 *150:14 *610:95 8.90115e-05
18 *150:14 *610:107 1.22822e-05
*RES
1 *2015:X *150:8 42.3707 
2 *150:8 *150:14 39.94 
3 *150:14 *2289:D 44.5843 
*END

*D_NET *151 0.00853157
*CONN
*I *2290:D I *D sky130_fd_sc_hd__dfrtp_1
*I *2016:X O *D sky130_fd_sc_hd__and3_1
*CAP
1 *2290:D 0
2 *2016:X 2.34823e-05
3 *151:8 0.000982586
4 *151:6 0.00100607
5 *151:6 *2048:A1 0
6 *151:8 *2140:B 0.000269775
7 *151:8 *2290:CLK 0.000791046
8 *151:8 *329:16 0.000511135
9 *151:8 *408:12 0.000100069
10 *151:8 *408:21 0.000531783
11 *151:8 *410:10 1.56762e-05
12 *151:8 *466:44 0.0002466
13 *151:8 *466:46 4.78593e-05
14 *151:8 *504:36 5.3304e-05
15 *151:8 *504:49 8.60475e-05
16 *151:8 *610:18 0.000175474
17 *151:8 *610:22 0.000921898
18 *151:8 *611:18 0.00276876
*RES
1 *2016:X *151:6 23.4971 
2 *151:6 *151:8 44.9293 
3 *151:8 *2290:D 23 
*END

*D_NET *152 0.00129704
*CONN
*I *2291:D I *D sky130_fd_sc_hd__dfrtp_1
*I *2017:X O *D sky130_fd_sc_hd__and3_1
*CAP
1 *2291:D 0
2 *2017:X 0.000301103
3 *152:10 0.000301103
4 *152:10 *2017:A 0
5 *152:10 *2018:B 0.000430442
6 *152:10 *2018:C 0.000135889
7 *152:10 *153:10 0
8 *152:10 *520:8 0
9 *152:10 *607:70 0.00010018
10 *152:10 *611:83 2.83219e-05
*RES
1 *2017:X *152:10 46.8243 
2 *152:10 *2291:D 38 
*END

*D_NET *153 0.000310066
*CONN
*I *2292:D I *D sky130_fd_sc_hd__dfrtp_1
*I *2018:X O *D sky130_fd_sc_hd__and3_1
*CAP
1 *2292:D 0
2 *2018:X 0.000155033
3 *153:10 0.000155033
4 *152:10 *153:10 0
*RES
1 *2018:X *153:10 40.175 
2 *153:10 *2292:D 38 
*END

*D_NET *154 0.00687346
*CONN
*I *2293:D I *D sky130_fd_sc_hd__dfrtp_1
*I *2019:X O *D sky130_fd_sc_hd__and3_1
*CAP
1 *2293:D 0
2 *2019:X 0.000780525
3 *154:14 0.00164094
4 *154:8 0.00242147
5 *154:8 *2392:A 3.06338e-05
6 *154:8 *233:16 9.58668e-05
7 *154:8 *468:87 7.05498e-05
8 *154:8 *500:12 7.82647e-05
9 *154:8 *501:12 4.39488e-05
10 *154:8 *613:57 5.31757e-05
11 *154:14 *2039:C 9.67842e-05
12 *154:14 *2039:D 0.000453226
13 *154:14 *2137:B 2.7573e-05
14 *154:14 *2250:A 3.49064e-05
15 *154:14 *2293:CLK 0.000275054
16 *154:14 *2330:D 1.61168e-05
17 *154:14 *402:16 5.67058e-05
18 *154:14 *406:10 6.30728e-05
19 *154:14 *466:128 1.40958e-05
20 *154:14 *500:12 0.000228909
21 *154:14 *501:12 8.0995e-05
22 *154:14 *502:12 0.000310641
*RES
1 *2019:X *154:8 35.0764 
2 *154:8 *154:14 28.3268 
3 *154:14 *2293:D 23 
*END

*D_NET *155 0.00220562
*CONN
*I *2294:D I *D sky130_fd_sc_hd__dfrtp_1
*I *2020:X O *D sky130_fd_sc_hd__and3_1
*CAP
1 *2294:D 0.00036496
2 *2020:X 0.000380812
3 *155:8 0.000745772
4 *2294:D *195:8 0
5 *2294:D *465:135 0
6 *2294:D *468:10 9.98788e-05
7 *2294:D *468:12 9.88678e-05
8 *2294:D *509:36 4.6318e-06
9 *2294:D *559:19 0
10 *2294:D *621:52 0
11 *2294:D *621:54 0
12 *2294:D *621:56 0
13 *2294:D *621:64 0
14 *155:8 *2020:A 9.84851e-05
15 *155:8 *2038:C1 1.72202e-05
16 *155:8 *2047:D 0.000394988
*RES
1 *2020:X *155:8 43.8621 
2 *155:8 *2294:D 45.8921 
*END

*D_NET *156 0.00269044
*CONN
*I *2295:D I *D sky130_fd_sc_hd__dfrtp_1
*I *2021:X O *D sky130_fd_sc_hd__and3_1
*CAP
1 *2295:D 0
2 *2021:X 0.000100618
3 *156:12 0.0010372
4 *156:8 0.00113781
5 *156:8 *465:33 0
6 *156:12 *2226:B1 0.000229583
7 *156:12 *538:14 0.00018523
*RES
1 *2021:X *156:8 39.5536 
2 *156:8 *156:12 33.2493 
3 *156:12 *2295:D 23 
*END

*D_NET *157 0.000684905
*CONN
*I *2296:D I *D sky130_fd_sc_hd__dfrtp_1
*I *2022:X O *D sky130_fd_sc_hd__and3_1
*CAP
1 *2296:D 8.27276e-05
2 *2022:X 9.41435e-05
3 *157:8 0.000176871
4 *2296:D *467:25 7.44354e-05
5 *2296:D *617:54 0.000224605
6 *157:8 *465:33 3.21223e-05
7 *157:8 *622:32 0
*RES
1 *2022:X *157:8 39.5536 
2 *157:8 *2296:D 40.5271 
*END

*D_NET *158 0.000407589
*CONN
*I *2297:D I *D sky130_fd_sc_hd__dfrtp_1
*I *2023:X O *D sky130_fd_sc_hd__and3_1
*CAP
1 *2297:D 4.23984e-05
2 *2023:X 7.94148e-05
3 *158:8 0.000121813
4 *2297:D *2253:A 6.17437e-06
5 *2297:D *467:36 1.59094e-05
6 *158:8 *617:33 5.33597e-05
7 *158:8 *617:37 8.85189e-05
*RES
1 *2023:X *158:8 39.9057 
2 *158:8 *2297:D 38.6214 
*END

*D_NET *159 0.00080674
*CONN
*I *2298:D I *D sky130_fd_sc_hd__dfrtp_1
*I *2024:X O *D sky130_fd_sc_hd__and3_1
*CAP
1 *2298:D 0
2 *2024:X 0.00040337
3 *159:10 0.00040337
4 *159:10 *199:10 0
*RES
1 *2024:X *159:10 43.51 
2 *159:10 *2298:D 38 
*END

*D_NET *160 0.00529004
*CONN
*I *2271:D I *D sky130_fd_sc_hd__dfrtp_1
*I *1976:X O *D sky130_fd_sc_hd__o21a_1
*CAP
1 *2271:D 0
2 *1976:X 0.00172789
3 *160:12 6.16966e-05
4 *160:6 0.00178959
5 *160:6 *2228:A 3.7122e-06
6 *160:6 *2428:A 4.40271e-05
7 *160:6 *470:6 0.000788866
8 *160:6 *470:10 0.000486727
9 *160:6 *487:40 6.40973e-05
10 *160:6 *618:30 0.000204688
11 *160:12 *470:115 4.83778e-05
12 *160:12 *622:14 7.03766e-05
*RES
1 *1976:X *160:6 48.8721 
2 *160:6 *160:12 31.9057 
3 *160:12 *2271:D 23 
*END

*D_NET *161 0.0014442
*CONN
*I *2299:D I *D sky130_fd_sc_hd__dfrtp_1
*I *2025:X O *D sky130_fd_sc_hd__and3_1
*CAP
1 *2299:D 0
2 *2025:X 0.000565928
3 *161:10 0.000565928
4 *161:10 *2025:B 5.74491e-05
5 *161:10 *2486:A 0.000209016
6 *161:10 *616:45 4.5882e-05
*RES
1 *2025:X *161:10 46.7207 
2 *161:10 *2299:D 38 
*END

*D_NET *162 0.00165206
*CONN
*I *2300:D I *D sky130_fd_sc_hd__dfrtp_1
*I *2026:X O *D sky130_fd_sc_hd__and3_1
*CAP
1 *2300:D 0
2 *2026:X 0.000672016
3 *162:10 0.000672016
4 *162:10 *2026:C 5.50049e-05
5 *162:10 *2243:A 2.54046e-05
6 *162:10 *2257:A 7.59794e-05
7 *162:10 *201:8 0
8 *162:10 *576:28 0.000151641
*RES
1 *2026:X *162:10 49.0614 
2 *162:10 *2300:D 38 
*END

*D_NET *163 0.00565305
*CONN
*I *2272:D I *D sky130_fd_sc_hd__dfrtp_1
*I *1979:X O *D sky130_fd_sc_hd__o21a_1
*CAP
1 *2272:D 0
2 *1979:X 2.12065e-05
3 *163:18 0.00120721
4 *163:8 0.00122841
5 *163:8 *1966:B 0.000143655
6 *163:8 *608:65 0.00014196
7 *163:18 *1964:B 0
8 *163:18 *1971:C 0
9 *163:18 *2181:A2 0.000169526
10 *163:18 *2389:A 0
11 *163:18 *252:8 5.09885e-05
12 *163:18 *291:89 0
13 *163:18 *299:12 0.000887669
14 *163:18 *323:16 5.3304e-05
15 *163:18 *432:10 4.38808e-05
16 *163:18 *443:10 0.000135547
17 *163:18 *479:40 0.000188926
18 *163:18 *479:44 0.000148691
19 *163:18 *603:83 0.000140994
20 *163:18 *603:89 2.14048e-05
21 *163:18 *603:96 0.0001045
22 *163:18 *604:67 0.000543034
23 *163:18 *604:78 0.000263098
24 *163:18 *604:99 0.000159045
25 *163:18 *614:50 0
26 *163:18 *614:79 0
*RES
1 *1979:X *163:8 39.5743 
2 *163:8 *163:18 47.1693 
3 *163:18 *2272:D 23 
*END

*D_NET *164 0.00473397
*CONN
*I *2273:D I *D sky130_fd_sc_hd__dfrtp_1
*I *1982:X O *D sky130_fd_sc_hd__o211a_1
*CAP
1 *2273:D 4.50142e-05
2 *1982:X 0
3 *164:12 0.00198091
4 *164:6 0.0019359
5 *164:12 *2350:CLK 0
6 *164:12 *256:8 0
7 *164:12 *257:8 7.20622e-05
8 *164:12 *280:51 0
9 *164:12 *312:8 0
10 *164:12 *438:59 7.23733e-05
11 *164:12 *451:8 0.000354769
12 *164:12 *453:10 0.000134552
13 *164:12 *471:123 0
14 *164:12 *471:125 0
15 *164:12 *493:23 0
16 *164:12 *493:25 0
17 *164:12 *493:33 0
18 *164:12 *494:20 0
19 *164:12 *498:81 0
20 *164:12 *556:33 0
21 *164:12 *560:20 0
22 *164:12 *560:100 0
23 *164:12 *604:12 8.92944e-05
24 *164:12 *608:26 4.90994e-05
25 *164:12 *620:16 0
*RES
1 *1982:X *164:6 38 
2 *164:6 *164:12 35.0693 
3 *164:12 *2273:D 38.6214 
*END

*D_NET *165 0.00429432
*CONN
*I *2274:D I *D sky130_fd_sc_hd__dfrtp_1
*I *1985:X O *D sky130_fd_sc_hd__o21a_1
*CAP
1 *2274:D 0
2 *1985:X 0
3 *165:10 0.000718456
4 *165:6 0.000718456
5 *165:10 *491:12 0.000138727
6 *165:10 *541:12 0.0008593
7 *165:10 *542:12 0.00133494
8 *165:10 *542:14 8.62876e-05
9 *165:10 *542:16 0.000438156
*RES
1 *1985:X *165:6 38 
2 *165:6 *165:10 39.4429 
3 *165:10 *2274:D 23 
*END

*D_NET *166 0.00485545
*CONN
*I *2275:D I *D sky130_fd_sc_hd__dfrtp_1
*I *1988:X O *D sky130_fd_sc_hd__o21a_1
*CAP
1 *2275:D 0
2 *1988:X 0.00191858
3 *166:14 0.000125891
4 *166:6 0.00204447
5 *166:6 *616:10 9.67842e-05
6 *166:6 *625:10 5.10891e-06
7 *166:6 *635:40 0.000449981
8 *166:14 *2275:RESET_B 2.64616e-05
9 *166:14 *2396:A 8.05936e-05
10 *166:14 *176:8 6.25829e-05
11 *166:14 *616:10 4.49946e-05
*RES
1 *1988:X *166:6 49.3486 
2 *166:6 *166:14 32.8793 
3 *166:14 *2275:D 23 
*END

*D_NET *167 0.00428562
*CONN
*I *2276:D I *D sky130_fd_sc_hd__dfrtp_1
*I *1991:X O *D sky130_fd_sc_hd__o21a_1
*CAP
1 *2276:D 0.00102917
2 *1991:X 0.000727846
3 *167:8 0.00175701
4 *2276:D *2265:A 1.76557e-05
5 *2276:D *2313:CLK 0.000173452
6 *2276:D *637:14 3.71544e-05
7 *167:8 *1991:B1 4.79641e-05
8 *167:8 *2265:A 0.000255074
9 *167:8 *209:10 1.73399e-05
10 *167:8 *608:71 0.00022295
*RES
1 *1991:X *167:8 37.935 
2 *167:8 *2276:D 36.3918 
*END

*D_NET *168 0.00382857
*CONN
*I *2277:D I *D sky130_fd_sc_hd__dfrtp_1
*I *1994:X O *D sky130_fd_sc_hd__o21a_1
*CAP
1 *2277:D 0
2 *1994:X 0
3 *168:12 0.00127043
4 *168:6 0.00127043
5 *168:12 *2197:A 0.000105165
6 *168:12 *2201:B 0.000187331
7 *168:12 *178:10 0
8 *168:12 *281:27 1.14452e-05
9 *168:12 *445:10 7.70038e-05
10 *168:12 *446:10 0
11 *168:12 *448:8 3.97502e-05
12 *168:12 *448:18 0.000215178
13 *168:12 *465:79 0
14 *168:12 *471:115 7.44257e-05
15 *168:12 *489:29 0.000101075
16 *168:12 *490:10 4.16661e-05
17 *168:12 *490:14 2.03256e-05
18 *168:12 *490:51 5.02657e-05
19 *168:12 *492:8 5.56306e-05
20 *168:12 *492:14 9.98891e-05
21 *168:12 *492:45 0.000155417
22 *168:12 *595:10 5.31444e-05
23 *168:12 *603:39 0
*RES
1 *1994:X *168:6 38 
2 *168:6 *168:12 43.4821 
3 *168:12 *2277:D 23 
*END

*D_NET *169 0.00539644
*CONN
*I *2278:D I *D sky130_fd_sc_hd__dfrtp_1
*I *2000:X O *D sky130_fd_sc_hd__o211a_1
*CAP
1 *2278:D 0
2 *2000:X 4.42049e-05
3 *169:12 0.000789325
4 *169:8 0.000833529
5 *169:8 *280:85 0.000228001
6 *169:8 *281:33 0.0002263
7 *169:12 *2190:B 0
8 *169:12 *2278:CLK 4.59027e-05
9 *169:12 *430:10 2.79167e-05
10 *169:12 *444:10 4.85126e-05
11 *169:12 *473:44 0.000141645
12 *169:12 *489:14 0
13 *169:12 *490:55 0.000724706
14 *169:12 *490:63 0.000460587
15 *169:12 *621:34 0.00182581
*RES
1 *2000:X *169:8 40.5271 
2 *169:8 *169:12 42.26 
3 *169:12 *2278:D 23 
*END

*D_NET *170 0.0173542
*CONN
*I *714:DIODE I *D sky130_fd_sc_hd__diode_2
*I *2153:C1 I *D sky130_fd_sc_hd__o211a_1
*I *678:DIODE I *D sky130_fd_sc_hd__diode_2
*I *2219:B1 I *D sky130_fd_sc_hd__o21a_1
*I *680:DIODE I *D sky130_fd_sc_hd__diode_2
*I *2395:A I *D sky130_fd_sc_hd__clkbuf_4
*I *654:DIODE I *D sky130_fd_sc_hd__diode_2
*I *1937:Y O *D sky130_fd_sc_hd__inv_2
*CAP
1 *714:DIODE 0
2 *2153:C1 4.63685e-05
3 *678:DIODE 0
4 *2219:B1 0.000199078
5 *680:DIODE 0
6 *2395:A 5.85758e-05
7 *654:DIODE 3.02067e-05
8 *1937:Y 2.30556e-05
9 *170:70 0.00103968
10 *170:48 0.00117003
11 *170:42 0.00487375
12 *170:32 0.00299956
13 *170:21 0.000651184
14 *170:6 0.000555809
15 *654:DIODE *1937:A 5.67058e-05
16 *654:DIODE *538:6 9.84794e-05
17 *2153:C1 *2153:A2 0
18 *2153:C1 *379:10 5.10353e-05
19 *2219:B1 *2219:A2 9.5877e-05
20 *2219:B1 *554:59 4.95081e-05
21 *2395:A *617:142 0.000123924
22 *2395:A *640:14 0.000226295
23 *170:21 *2376:A 9.90654e-05
24 *170:21 *465:18 0.000163352
25 *170:21 *465:20 6.16531e-05
26 *170:21 *467:6 2.18286e-05
27 *170:21 *467:148 0.000963711
28 *170:21 *538:6 1.24376e-05
29 *170:21 *617:142 0
30 *170:21 *622:28 0.000781722
31 *170:21 *622:32 0
32 *170:32 *617:142 7.27182e-05
33 *170:32 *640:14 5.50106e-05
34 *170:42 *213:12 9.46455e-05
35 *170:42 *289:27 0
36 *170:42 *465:16 0.00101543
37 *170:42 *617:142 2.26406e-05
38 *170:42 *640:14 1.27321e-05
39 *170:48 *1938:A 2.64616e-05
40 *170:48 *2093:A2 0.000221406
41 *170:48 *2093:B1 5.29672e-05
42 *170:48 *276:8 0.000444794
43 *170:48 *414:26 0
44 *170:48 *469:76 0
45 *170:48 *621:158 2.05503e-05
46 *170:48 *643:8 6.25829e-05
47 *170:70 *2167:B1 2.50835e-05
48 *170:70 *2168:A2 1.98354e-05
49 *170:70 *276:8 0.000140172
50 *170:70 *285:8 9.02657e-05
51 *170:70 *286:12 0
52 *170:70 *286:46 5.68853e-05
53 *170:70 *335:8 7.27385e-05
54 *170:70 *379:10 1.59094e-06
55 *170:70 *414:26 0
56 *170:70 *465:169 0
57 *170:70 *621:158 6.92184e-05
58 *170:70 *648:40 0
59 *170:70 *649:45 0
60 *170:70 *650:10 0.000185357
61 *170:70 *650:42 0.000138177
*RES
1 *1937:Y *170:6 23.4971 
2 *170:6 *654:DIODE 24.0979 
3 *170:6 *170:21 47.8764 
4 *170:21 *2395:A 25.5271 
5 *170:21 *170:32 2.42357 
6 *170:32 *170:42 39.3627 
7 *170:42 *170:48 34.8961 
8 *170:48 *680:DIODE 23 
9 *170:48 *2219:B1 27.2257 
10 *170:42 *170:70 33.5496 
11 *170:70 *678:DIODE 23 
12 *170:70 *2153:C1 24.4086 
13 *170:32 *714:DIODE 23 
*END

*D_NET *171 0.000973498
*CONN
*I *2270:RESET_B I *D sky130_fd_sc_hd__dfrtp_1
*I *2227:Y O *D sky130_fd_sc_hd__inv_2
*CAP
1 *2270:RESET_B 0.00034971
2 *2227:Y 0.00034971
3 *149:18 *2270:RESET_B 0.000274078
*RES
1 *2227:Y *2270:RESET_B 28.9554 
*END

*D_NET *172 0.00049431
*CONN
*I *2271:RESET_B I *D sky130_fd_sc_hd__dfrtp_1
*I *2228:Y O *D sky130_fd_sc_hd__inv_2
*CAP
1 *2271:RESET_B 0
2 *2228:Y 4.74541e-05
3 *172:8 4.74541e-05
4 *172:8 *273:10 0.000199701
5 *172:8 *324:16 0.000199701
*RES
1 *2228:Y *172:8 40.61 
2 *172:8 *2271:RESET_B 15 
*END

*D_NET *173 0.000388809
*CONN
*I *2272:RESET_B I *D sky130_fd_sc_hd__dfrtp_1
*I *2229:Y O *D sky130_fd_sc_hd__inv_2
*CAP
1 *2272:RESET_B 0
2 *2229:Y 9.45542e-05
3 *173:8 9.45542e-05
4 *173:8 *558:14 0.000199701
5 *173:8 *604:99 0
*RES
1 *2229:Y *173:8 40.61 
2 *173:8 *2272:RESET_B 15 
*END

*D_NET *174 0.000515908
*CONN
*I *2273:RESET_B I *D sky130_fd_sc_hd__dfrtp_1
*I *2230:Y O *D sky130_fd_sc_hd__inv_2
*CAP
1 *2273:RESET_B 0.00014435
2 *2230:Y 0.00014435
3 *2273:RESET_B *620:188 0.000227208
*RES
1 *2230:Y *2273:RESET_B 25.9311 
*END

*D_NET *175 0.000316824
*CONN
*I *2274:RESET_B I *D sky130_fd_sc_hd__dfrtp_1
*I *2231:Y O *D sky130_fd_sc_hd__inv_2
*CAP
1 *2274:RESET_B 0
2 *2231:Y 0.000118392
3 *175:10 0.000118392
4 *175:10 *2231:A 6.17437e-06
5 *175:10 *471:108 1.5769e-05
6 *175:10 *595:10 0
7 *175:10 *619:72 5.80963e-05
*RES
1 *2231:Y *175:10 40.175 
2 *175:10 *2274:RESET_B 15 
*END

*D_NET *176 0.000892306
*CONN
*I *2275:RESET_B I *D sky130_fd_sc_hd__dfrtp_1
*I *2232:Y O *D sky130_fd_sc_hd__inv_2
*CAP
1 *2275:RESET_B 9.77092e-05
2 *2232:Y 7.40355e-05
3 *176:8 0.000171745
4 *176:8 *2396:A 4.41619e-05
5 *176:8 *616:10 0.000194318
6 *176:8 *617:16 4.21594e-06
7 *59:21 *2275:RESET_B 0.000217077
8 *166:14 *2275:RESET_B 2.64616e-05
9 *166:14 *176:8 6.25829e-05
*RES
1 *2232:Y *176:8 40.61 
2 *176:8 *2275:RESET_B 17.4546 
*END

*D_NET *177 0.000194273
*CONN
*I *2276:RESET_B I *D sky130_fd_sc_hd__dfrtp_1
*I *2233:Y O *D sky130_fd_sc_hd__inv_2
*CAP
1 *2276:RESET_B 0
2 *2233:Y 6.80883e-05
3 *177:8 6.80883e-05
4 *177:8 *324:28 5.80963e-05
5 *177:8 *622:14 0
*RES
1 *2233:Y *177:8 39.5536 
2 *177:8 *2276:RESET_B 15 
*END

*D_NET *178 0.00032235
*CONN
*I *2277:RESET_B I *D sky130_fd_sc_hd__dfrtp_1
*I *2234:Y O *D sky130_fd_sc_hd__inv_2
*CAP
1 *2277:RESET_B 0
2 *2234:Y 0.000158488
3 *178:10 0.000158488
4 *178:10 *471:123 0
5 *178:10 *619:72 5.37348e-06
6 *168:12 *178:10 0
*RES
1 *2234:Y *178:10 40.5271 
2 *178:10 *2277:RESET_B 15 
*END

*D_NET *179 0.000334173
*CONN
*I *2278:RESET_B I *D sky130_fd_sc_hd__dfrtp_1
*I *2235:Y O *D sky130_fd_sc_hd__inv_2
*CAP
1 *2278:RESET_B 0.000103318
2 *2235:Y 0.000103318
3 *2278:RESET_B *620:199 0.000127537
*RES
1 *2235:Y *2278:RESET_B 25.4546 
*END

*D_NET *180 0.000194273
*CONN
*I *2279:RESET_B I *D sky130_fd_sc_hd__dfrtp_1
*I *2236:Y O *D sky130_fd_sc_hd__inv_2
*CAP
1 *2279:RESET_B 0
2 *2236:Y 6.80883e-05
3 *180:8 6.80883e-05
4 *180:8 *562:8 5.80963e-05
5 debug_enable *180:8 0
*RES
1 *2236:Y *180:8 39.5536 
2 *180:8 *2279:RESET_B 15 
*END

*D_NET *181 0.000194273
*CONN
*I *2280:RESET_B I *D sky130_fd_sc_hd__dfrtp_1
*I *2237:Y O *D sky130_fd_sc_hd__inv_2
*CAP
1 *2280:RESET_B 0
2 *2237:Y 6.80883e-05
3 *181:8 6.80883e-05
4 *181:8 *373:10 5.80963e-05
5 *181:8 *566:8 0
6 *94:10 *181:8 0
*RES
1 *2237:Y *181:8 39.5536 
2 *181:8 *2280:RESET_B 15 
*END

*D_NET *182 0.000329109
*CONN
*I *2281:RESET_B I *D sky130_fd_sc_hd__dfrtp_1
*I *2238:Y O *D sky130_fd_sc_hd__inv_2
*CAP
1 *2281:RESET_B 8.59928e-05
2 *2238:Y 8.59928e-05
3 *2281:RESET_B *473:129 3.76692e-06
4 *2281:RESET_B *569:12 0.00010018
5 *142:6 *2281:RESET_B 5.31757e-05
*RES
1 *2238:Y *2281:RESET_B 25.4546 
*END

*D_NET *183 0.000176484
*CONN
*I *2282:RESET_B I *D sky130_fd_sc_hd__dfrtp_1
*I *2239:Y O *D sky130_fd_sc_hd__inv_2
*CAP
1 *2282:RESET_B 0
2 *2239:Y 8.82422e-05
3 *183:8 8.82422e-05
4 *183:8 *572:10 0
5 *183:8 *620:122 0
*RES
1 *2239:Y *183:8 39.5536 
2 *183:8 *2282:RESET_B 15 
*END

*D_NET *184 0.000183621
*CONN
*I *2283:RESET_B I *D sky130_fd_sc_hd__dfrtp_1
*I *2240:Y O *D sky130_fd_sc_hd__inv_2
*CAP
1 *2283:RESET_B 0
2 *2240:Y 9.18104e-05
3 *184:8 9.18104e-05
4 *184:8 *571:10 0
5 *143:10 *184:8 0
*RES
1 *2240:Y *184:8 39.5536 
2 *184:8 *2283:RESET_B 15 
*END

*D_NET *185 0.000176484
*CONN
*I *2284:RESET_B I *D sky130_fd_sc_hd__dfrtp_1
*I *2241:Y O *D sky130_fd_sc_hd__inv_2
*CAP
1 *2284:RESET_B 0
2 *2241:Y 8.82422e-05
3 *185:8 8.82422e-05
4 *185:8 *572:10 0
5 *185:8 *620:122 0
6 wb_dat_o[13] *185:8 0
*RES
1 *2241:Y *185:8 39.5536 
2 *185:8 *2284:RESET_B 15 
*END

*D_NET *186 0.00039296
*CONN
*I *2285:RESET_B I *D sky130_fd_sc_hd__dfrtp_1
*I *2242:Y O *D sky130_fd_sc_hd__inv_2
*CAP
1 *2285:RESET_B 0
2 *2242:Y 0.000109022
3 *186:10 0.000109022
4 *186:10 *2012:A 3.46181e-05
5 *186:10 *600:44 0.000140297
*RES
1 *2242:Y *186:10 40.175 
2 *186:10 *2285:RESET_B 15 
*END

*D_NET *187 0.000832853
*CONN
*I *2286:RESET_B I *D sky130_fd_sc_hd__dfrtp_1
*I *2243:Y O *D sky130_fd_sc_hd__inv_2
*CAP
1 *2286:RESET_B 8.77859e-05
2 *2243:Y 8.77859e-05
3 *2286:RESET_B *2243:A 0.000498297
4 *2286:RESET_B *575:14 6.44467e-05
5 *146:10 *2286:RESET_B 9.4537e-05
*RES
1 *2243:Y *2286:RESET_B 27.8368 
*END

*D_NET *188 0.000847215
*CONN
*I *2287:RESET_B I *D sky130_fd_sc_hd__dfrtp_1
*I *2244:Y O *D sky130_fd_sc_hd__inv_2
*CAP
1 *2287:RESET_B 0.000309509
2 *2244:Y 0.000309509
3 *2287:RESET_B *576:12 5.67058e-05
4 *2287:RESET_B *576:18 0.000171492
*RES
1 *2244:Y *2287:RESET_B 28.4789 
*END

*D_NET *189 0.000930464
*CONN
*I *2288:RESET_B I *D sky130_fd_sc_hd__dfrtp_1
*I *2245:Y O *D sky130_fd_sc_hd__inv_2
*CAP
1 *2288:RESET_B 0
2 *2245:Y 0.000281183
3 *189:10 0.000281183
4 *189:10 *557:10 5.90251e-05
5 *189:10 *581:10 8.62876e-05
6 *189:10 *582:12 0.000222785
*RES
1 *2245:Y *189:10 43.1371 
2 *189:10 *2288:RESET_B 15 
*END

*D_NET *190 0.000176484
*CONN
*I *2289:RESET_B I *D sky130_fd_sc_hd__dfrtp_1
*I *2246:Y O *D sky130_fd_sc_hd__inv_2
*CAP
1 *2289:RESET_B 0
2 *2246:Y 8.82422e-05
3 *190:8 8.82422e-05
*RES
1 *2246:Y *190:8 39.5536 
2 *190:8 *2289:RESET_B 15 
*END

*D_NET *191 0.000276172
*CONN
*I *2290:RESET_B I *D sky130_fd_sc_hd__dfrtp_1
*I *2247:Y O *D sky130_fd_sc_hd__inv_2
*CAP
1 *2290:RESET_B 0
2 *2247:Y 0.000138086
3 *191:8 0.000138086
4 *191:8 *580:8 0
*RES
1 *2247:Y *191:8 40.61 
2 *191:8 *2290:RESET_B 15 
*END

*D_NET *192 0.00135085
*CONN
*I *2291:RESET_B I *D sky130_fd_sc_hd__dfrtp_1
*I *2248:Y O *D sky130_fd_sc_hd__inv_2
*CAP
1 *2291:RESET_B 0
2 *2248:Y 0.000365483
3 *192:10 0.000365483
4 *192:10 *582:12 0.000447976
5 *192:10 *621:64 0.000171906
*RES
1 *2248:Y *192:10 45.1671 
2 *192:10 *2291:RESET_B 15 
*END

*D_NET *193 0.000300043
*CONN
*I *2292:RESET_B I *D sky130_fd_sc_hd__dfrtp_1
*I *2249:Y O *D sky130_fd_sc_hd__inv_2
*CAP
1 *2292:RESET_B 0.000150021
2 *2249:Y 0.000150021
*RES
1 *2249:Y *2292:RESET_B 25.4546 
*END

*D_NET *194 0.000991467
*CONN
*I *2293:RESET_B I *D sky130_fd_sc_hd__dfrtp_1
*I *2250:Y O *D sky130_fd_sc_hd__inv_2
*CAP
1 *2293:RESET_B 0.000358694
2 *2250:Y 0.000358694
3 *2293:RESET_B *2250:A 0.000274078
*RES
1 *2250:Y *2293:RESET_B 28.9554 
*END

*D_NET *195 0.000822822
*CONN
*I *2294:RESET_B I *D sky130_fd_sc_hd__dfrtp_1
*I *2251:Y O *D sky130_fd_sc_hd__inv_2
*CAP
1 *2294:RESET_B 0.000251751
2 *2251:Y 6.90544e-05
3 *195:8 0.000320805
4 *2294:RESET_B *2294:CLK 6.71188e-05
5 *195:8 *621:56 0.000103949
6 *195:8 *621:64 1.01436e-05
7 *2294:D *195:8 0
*RES
1 *2251:Y *195:8 39.5536 
2 *195:8 *2294:RESET_B 19.3604 
*END

*D_NET *196 0.000207335
*CONN
*I *2295:RESET_B I *D sky130_fd_sc_hd__dfrtp_1
*I *2252:Y O *D sky130_fd_sc_hd__inv_2
*CAP
1 *2295:RESET_B 0
2 *2252:Y 0.000103667
3 *196:8 0.000103667
4 *196:8 *616:20 0
*RES
1 *2252:Y *196:8 39.9057 
2 *196:8 *2295:RESET_B 15 
*END

*D_NET *197 0.000316927
*CONN
*I *2296:RESET_B I *D sky130_fd_sc_hd__dfrtp_1
*I *2253:Y O *D sky130_fd_sc_hd__inv_2
*CAP
1 *2296:RESET_B 0
2 *2253:Y 0.000158463
3 *197:8 0.000158463
4 *197:8 *2024:B 0
5 *197:8 *607:8 0
6 *197:8 *610:107 0
*RES
1 *2253:Y *197:8 40.61 
2 *197:8 *2296:RESET_B 15 
*END

*D_NET *198 0.000628593
*CONN
*I *2297:RESET_B I *D sky130_fd_sc_hd__dfrtp_1
*I *2254:Y O *D sky130_fd_sc_hd__inv_2
*CAP
1 *2297:RESET_B 0
2 *2254:Y 0.000240886
3 *198:10 0.000240886
4 *198:10 *2289:CLK 0
5 *198:10 *586:6 0.000146822
*RES
1 *2254:Y *198:10 42.1843 
2 *198:10 *2297:RESET_B 15 
*END

*D_NET *199 0.000368164
*CONN
*I *2298:RESET_B I *D sky130_fd_sc_hd__dfrtp_1
*I *2255:Y O *D sky130_fd_sc_hd__inv_2
*CAP
1 *2298:RESET_B 0
2 *2255:Y 0.000111232
3 *199:10 0.000111232
4 *199:10 *2255:A 2.93845e-05
5 *199:10 *616:39 0.000116314
6 *159:10 *199:10 0
*RES
1 *2255:Y *199:10 40.175 
2 *199:10 *2298:RESET_B 15 
*END

*D_NET *200 0.00081888
*CONN
*I *2299:RESET_B I *D sky130_fd_sc_hd__dfrtp_1
*I *2256:Y O *D sky130_fd_sc_hd__inv_2
*CAP
1 *2299:RESET_B 0.000382371
2 *2256:Y 0.000382371
3 *2299:RESET_B *2256:A 5.41385e-05
*RES
1 *2256:Y *2299:RESET_B 28.4789 
*END

*D_NET *201 0.000629391
*CONN
*I *2300:RESET_B I *D sky130_fd_sc_hd__dfrtp_1
*I *2257:Y O *D sky130_fd_sc_hd__inv_2
*CAP
1 *2300:RESET_B 0
2 *2257:Y 0.000276386
3 *201:8 0.000276386
4 *201:8 *575:14 7.66188e-05
5 *101:10 *201:8 0
6 *162:10 *201:8 0
*RES
1 *2257:Y *201:8 43.4271 
2 *201:8 *2300:RESET_B 15 
*END

*D_NET *202 0.0011831
*CONN
*I *2301:RESET_B I *D sky130_fd_sc_hd__dfrtp_1
*I *2258:Y O *D sky130_fd_sc_hd__inv_2
*CAP
1 *2301:RESET_B 0.000429314
2 *2258:Y 0.000429314
3 *2301:RESET_B *471:71 0.000130498
4 *2301:RESET_B *550:10 6.8403e-06
5 *2301:RESET_B *618:20 0.000187129
*RES
1 *2258:Y *2301:RESET_B 30.5504 
*END

*D_NET *203 0.000475399
*CONN
*I *2302:RESET_B I *D sky130_fd_sc_hd__dfrtp_1
*I *2259:Y O *D sky130_fd_sc_hd__inv_2
*CAP
1 *2302:RESET_B 5.79525e-05
2 *2259:Y 5.79525e-05
3 *2302:RESET_B *467:76 1.93042e-05
4 *2302:RESET_B *474:10 0.000102389
5 *2302:RESET_B *617:16 9.32992e-05
6 *2302:RESET_B *617:20 0.000144501
*RES
1 *2259:Y *2302:RESET_B 25.4546 
*END

*D_NET *204 0.000359632
*CONN
*I *2303:RESET_B I *D sky130_fd_sc_hd__dfrtp_1
*I *2260:Y O *D sky130_fd_sc_hd__inv_2
*CAP
1 *2303:RESET_B 0.000117615
2 *2260:Y 0.000117615
3 *2303:RESET_B *471:63 0.000124402
*RES
1 *2260:Y *2303:RESET_B 25.4546 
*END

*D_NET *205 0.000704409
*CONN
*I *2304:RESET_B I *D sky130_fd_sc_hd__dfrtp_1
*I *2261:Y O *D sky130_fd_sc_hd__inv_2
*CAP
1 *2304:RESET_B 6.33968e-05
2 *2261:Y 8.09028e-05
3 *205:8 0.0001443
4 *2304:RESET_B *2403:A 5.41288e-05
5 *2304:RESET_B *273:18 3.26443e-05
6 *2304:RESET_B *470:69 0.000219685
7 *205:8 *615:60 0
8 *205:8 *618:72 0.000109352
*RES
1 *2261:Y *205:8 39.5536 
2 *205:8 *2304:RESET_B 17.4546 
*END

*D_NET *206 0.000303659
*CONN
*I *2305:RESET_B I *D sky130_fd_sc_hd__dfrtp_1
*I *2262:Y O *D sky130_fd_sc_hd__inv_2
*CAP
1 *2305:RESET_B 0.000125926
2 *2262:Y 0.000125926
3 *2305:RESET_B *2461:A 5.18065e-05
*RES
1 *2262:Y *2305:RESET_B 25.4546 
*END

*D_NET *207 0.000561332
*CONN
*I *2306:RESET_B I *D sky130_fd_sc_hd__dfrtp_1
*I *2263:Y O *D sky130_fd_sc_hd__inv_2
*CAP
1 *2306:RESET_B 0
2 *2263:Y 0.000149529
3 *207:8 0.000149529
4 *207:8 *273:10 0
5 *207:8 *618:43 0.00025307
6 *207:8 *622:14 9.20311e-06
*RES
1 *2263:Y *207:8 41.6664 
2 *207:8 *2306:RESET_B 15 
*END

*D_NET *208 0.000407427
*CONN
*I *2311:RESET_B I *D sky130_fd_sc_hd__dfrtp_1
*I *2264:Y O *D sky130_fd_sc_hd__inv_2
*CAP
1 *2311:RESET_B 9.29312e-05
2 *2264:Y 9.29312e-05
3 *2311:RESET_B *634:21 0.00012308
4 *2311:RESET_B *640:25 9.84851e-05
*RES
1 *2264:Y *2311:RESET_B 25.4546 
*END

*D_NET *209 0.000316367
*CONN
*I *2312:RESET_B I *D sky130_fd_sc_hd__dfrtp_1
*I *2265:Y O *D sky130_fd_sc_hd__inv_2
*CAP
1 *2312:RESET_B 0
2 *2265:Y 0.000133447
3 *209:10 0.000133447
4 *209:10 *465:64 3.21327e-05
5 *209:10 *637:29 0
6 *167:8 *209:10 1.73399e-05
*RES
1 *2265:Y *209:10 40.175 
2 *209:10 *2312:RESET_B 15 
*END

*D_NET *210 0.000532371
*CONN
*I *2313:RESET_B I *D sky130_fd_sc_hd__dfrtp_1
*I *2266:Y O *D sky130_fd_sc_hd__inv_2
*CAP
1 *2313:RESET_B 0
2 *2266:Y 0.000161112
3 *210:10 0.000161112
4 *210:10 *2460:A 1.24376e-05
5 *210:10 *219:10 0.000110913
6 *210:10 *555:20 8.67969e-05
*RES
1 *2266:Y *210:10 40.6514 
2 *210:10 *2313:RESET_B 15 
*END

*D_NET *211 0.000432611
*CONN
*I *2314:RESET_B I *D sky130_fd_sc_hd__dfrtp_1
*I *2267:Y O *D sky130_fd_sc_hd__inv_2
*CAP
1 *2314:RESET_B 4.13612e-05
2 *2267:Y 7.99724e-05
3 *211:8 0.000121334
4 *2314:RESET_B *560:36 5.03619e-05
5 *2314:RESET_B *636:10 5.3304e-05
6 *211:8 *465:64 0
7 *211:8 *560:40 0
8 *211:8 *636:10 8.62783e-05
*RES
1 *2267:Y *211:8 39.5536 
2 *211:8 *2314:RESET_B 16.0254 
*END

*D_NET *212 0.000404992
*CONN
*I *2363:RESET_B I *D sky130_fd_sc_hd__dfrtp_1
*I *2268:Y O *D sky130_fd_sc_hd__inv_2
*CAP
1 *2363:RESET_B 9.30174e-05
2 *2268:Y 9.30174e-05
3 *2363:RESET_B *618:122 9.987e-05
4 *2363:RESET_B *618:139 2.32101e-05
5 *2363:RESET_B *638:36 9.5877e-05
*RES
1 *2268:Y *2363:RESET_B 25.4546 
*END

*D_NET *213 0.00339593
*CONN
*I *2307:D I *D sky130_fd_sc_hd__dfxtp_1
*I *2046:X O *D sky130_fd_sc_hd__a31o_1
*CAP
1 *2307:D 0
2 *2046:X 0.000327371
3 *213:24 0.000646772
4 *213:12 0.000974143
5 *213:12 *289:27 0.000450392
6 *213:12 *335:16 9.86551e-06
7 *213:12 *345:25 1.74874e-06
8 *213:24 *2057:C 2.11157e-05
9 *213:24 *326:8 0.000188681
10 *213:24 *338:21 2.31209e-05
11 *213:24 *615:96 0.000332927
12 *213:24 *615:102 0.000303955
13 *213:24 *622:28 2.11965e-05
14 *170:42 *213:12 9.46455e-05
*RES
1 *2046:X *213:12 47.4075 
2 *213:12 *213:24 39.4005 
3 *213:24 *2307:D 23 
*END

*D_NET *214 0.000734647
*CONN
*I *2308:D I *D sky130_fd_sc_hd__dfxtp_1
*I *2060:Y O *D sky130_fd_sc_hd__nor2_1
*CAP
1 *2308:D 0.000102779
2 *2060:Y 0.000126229
3 *214:8 0.000229008
4 *2308:D *607:51 0.00027663
5 *214:8 *348:21 0
6 *214:8 *496:8 0
*RES
1 *2060:Y *214:8 40.2579 
2 *214:8 *2308:D 41.0502 
*END

*D_NET *215 0.00363064
*CONN
*I *2309:D I *D sky130_fd_sc_hd__dfxtp_1
*I *2064:Y O *D sky130_fd_sc_hd__a211oi_1
*CAP
1 *2309:D 0
2 *2064:Y 6.00217e-05
3 *215:12 0.000973665
4 *215:8 0.00103369
5 *215:8 *335:22 0.000166513
6 *215:8 *347:10 0.000166513
7 *215:12 *2043:A 0.000181125
8 *215:12 *326:16 0.000395889
9 *215:12 *338:31 0.000653227
*RES
1 *2064:Y *215:8 40.2579 
2 *215:8 *215:12 36.6309 
3 *215:12 *2309:D 23 
*END

*D_NET *216 0.000432132
*CONN
*I *2310:D I *D sky130_fd_sc_hd__dfxtp_1
*I *2066:Y O *D sky130_fd_sc_hd__a31oi_1
*CAP
1 *2310:D 1.55139e-05
2 *2066:Y 8.63047e-05
3 *216:8 0.000101819
4 *2310:D *469:101 5.92579e-05
5 *2310:D *634:31 5.92579e-05
6 *216:8 *334:10 0.000107213
7 *216:8 *613:53 0
8 *216:8 *634:48 2.76611e-06
*RES
1 *2066:Y *216:8 39.5536 
2 *216:8 *2310:D 38.668 
*END

*D_NET *217 0.00067895
*CONN
*I *2427:A I *D sky130_fd_sc_hd__dlygate4sd3_1
*I *1955:X O *D sky130_fd_sc_hd__o21ba_1
*CAP
1 *2427:A 6.36609e-05
2 *1955:X 6.36609e-05
3 *2427:A *1955:B1_N 0.000139357
4 *2427:A *617:142 0.000313255
5 *2427:A *640:14 9.90162e-05
*RES
1 *1955:X *2427:A 49.48 
*END

*D_NET *218 0.000526783
*CONN
*I *2405:A I *D sky130_fd_sc_hd__dlygate4sd3_1
*I *1954:X O *D sky130_fd_sc_hd__o21ba_1
*CAP
1 *2405:A 0
2 *1954:X 0.000158916
3 *218:10 0.000158916
4 *218:10 *470:37 3.54728e-05
5 *218:10 *470:39 3.04568e-05
6 *218:10 *563:14 9.67842e-05
7 *218:10 *633:10 2.54046e-05
8 *218:10 *637:29 2.08324e-05
*RES
1 *1954:X *218:10 41.0036 
2 *218:10 *2405:A 38 
*END

*D_NET *219 0.00147995
*CONN
*I *2414:A I *D sky130_fd_sc_hd__dlygate4sd3_1
*I *1953:X O *D sky130_fd_sc_hd__o21ba_1
*CAP
1 *2414:A 0
2 *1953:X 0.00037339
3 *219:10 0.00037339
4 *219:10 *2265:A 0
5 *219:10 *2460:A 0.000270663
6 *219:10 *291:29 0.000351599
7 *219:10 *635:40 0
8 *210:10 *219:10 0.000110913
*RES
1 *1953:X *219:10 45.7264 
2 *219:10 *2414:A 38 
*END

*D_NET *220 0.000858106
*CONN
*I *2429:A I *D sky130_fd_sc_hd__dlygate4sd3_1
*I *1952:X O *D sky130_fd_sc_hd__o21ba_1
*CAP
1 *2429:A 0
2 *1952:X 0.000158139
3 *220:10 0.000158139
4 *220:10 *475:12 0.000183898
5 *220:10 *628:10 0.00035793
*RES
1 *1952:X *220:10 43.3443 
2 *220:10 *2429:A 38 
*END

*D_NET *221 0.000538789
*CONN
*I *2315:D I *D sky130_fd_sc_hd__dfxtp_2
*I *2093:X O *D sky130_fd_sc_hd__a21o_1
*CAP
1 *2315:D 0.000143195
2 *2093:X 0.000126199
3 *221:8 0.000269394
4 *221:8 *2416:A 0
5 *221:8 *643:8 0
6 *221:8 *648:19 0
*RES
1 *2093:X *221:8 40.2579 
2 *221:8 *2315:D 40.5737 
*END

*D_NET *222 0.000465025
*CONN
*I *2316:D I *D sky130_fd_sc_hd__dfxtp_1
*I *2095:Y O *D sky130_fd_sc_hd__a21oi_1
*CAP
1 *2316:D 1.13183e-05
2 *2095:Y 0.000115234
3 *222:10 0.000126552
4 *2316:D *651:91 1.64354e-05
5 *222:10 *2316:CLK 8.51329e-05
6 *222:10 *413:6 5.67058e-05
7 *222:10 *556:33 5.36457e-05
*RES
1 *2095:Y *222:10 40.8793 
2 *222:10 *2316:D 38.1916 
*END

*D_NET *223 0.000369806
*CONN
*I *2317:D I *D sky130_fd_sc_hd__dfxtp_1
*I *2100:X O *D sky130_fd_sc_hd__and2b_1
*CAP
1 *2317:D 0.000120932
2 *2100:X 0.000120932
3 *2317:D *468:53 0.000110285
4 *2317:D *468:57 1.76557e-05
*RES
1 *2100:X *2317:D 48.5323 
*END

*D_NET *224 0.000796926
*CONN
*I *2318:D I *D sky130_fd_sc_hd__dfxtp_1
*I *2103:X O *D sky130_fd_sc_hd__and3_1
*CAP
1 *2318:D 2.50154e-05
2 *2103:X 0.000142593
3 *224:10 0.000167608
4 *2318:D *466:33 5.73018e-05
5 *2318:D *506:12 5.73018e-05
6 *224:10 *385:8 0.000108681
7 *224:10 *466:33 0
8 *224:10 *600:32 1.94812e-05
9 *224:10 *606:23 0.000218943
*RES
1 *2103:X *224:10 41.5836 
2 *224:10 *2318:D 38.668 
*END

*D_NET *225 0.000428296
*CONN
*I *2319:D I *D sky130_fd_sc_hd__dfxtp_1
*I *2106:X O *D sky130_fd_sc_hd__and3_1
*CAP
1 *2319:D 7.17495e-06
2 *2106:X 0.0001456
3 *225:10 0.000152775
4 *2319:D *2105:B1 1.64354e-05
5 *2319:D *506:69 1.64354e-05
6 *225:10 *468:72 3.31683e-05
7 *225:10 *600:65 5.67058e-05
*RES
1 *2106:X *225:10 40.175 
2 *225:10 *2319:D 38.1916 
*END

*D_NET *226 0.000386495
*CONN
*I *2320:D I *D sky130_fd_sc_hd__dfxtp_1
*I *2109:X O *D sky130_fd_sc_hd__and3b_1
*CAP
1 *2320:D 1.01088e-05
2 *2109:X 0.000144387
3 *226:8 0.000154495
4 *2320:D *468:49 1.64354e-05
5 *226:8 *499:10 2.8936e-05
6 *226:8 *499:92 3.21327e-05
*RES
1 *2109:X *226:8 40.61 
2 *226:8 *2320:D 38.1916 
*END

*D_NET *227 0.00115824
*CONN
*I *2321:D I *D sky130_fd_sc_hd__dfxtp_1
*I *2112:X O *D sky130_fd_sc_hd__and3b_1
*CAP
1 *2321:D 0
2 *2112:X 0.000296189
3 *227:8 0.000296189
4 *227:8 *468:148 0.00052967
5 *227:8 *509:10 1.59094e-05
6 *227:8 *602:33 2.02872e-05
*RES
1 *2112:X *227:8 30.2345 
2 *227:8 *2321:D 23 
*END

*D_NET *228 0.00130929
*CONN
*I *2322:D I *D sky130_fd_sc_hd__dfxtp_1
*I *2115:X O *D sky130_fd_sc_hd__and3b_1
*CAP
1 *2322:D 4.3409e-05
2 *2115:X 0.000586074
3 *228:10 0.000629483
4 *2322:D *510:6 4.87572e-05
5 *228:10 *2115:B 1.56662e-06
6 *228:10 *393:8 0
*RES
1 *2115:X *228:10 46.9279 
2 *228:10 *2322:D 38.9943 
*END

*D_NET *229 0.000943929
*CONN
*I *2323:D I *D sky130_fd_sc_hd__dfxtp_1
*I *2118:X O *D sky130_fd_sc_hd__and3_1
*CAP
1 *2323:D 1.13183e-05
2 *2118:X 0.000452429
3 *229:10 0.000463747
4 *2323:D *2323:CLK 1.64354e-05
5 *229:10 *621:106 0
*RES
1 *2118:X *229:10 44.2143 
2 *229:10 *2323:D 38.1916 
*END

*D_NET *230 0.000833224
*CONN
*I *2324:D I *D sky130_fd_sc_hd__dfxtp_1
*I *2121:X O *D sky130_fd_sc_hd__and3b_1
*CAP
1 *2324:D 5.90144e-05
2 *2121:X 8.80614e-05
3 *230:8 0.000147076
4 *2324:D *2119:B1 5.15762e-05
5 *2324:D *396:10 1.14876e-05
6 *2324:D *468:130 0.000127305
7 *2324:D *512:12 0.000168171
8 *230:8 *396:10 8.62876e-05
9 *230:8 *468:130 0
10 *230:8 *468:138 1.01436e-05
11 *230:8 *511:35 8.41012e-05
*RES
1 *2121:X *230:8 40.2579 
2 *230:8 *2324:D 40.3873 
*END

*D_NET *231 0.00063991
*CONN
*I *2325:D I *D sky130_fd_sc_hd__dfxtp_1
*I *2124:X O *D sky130_fd_sc_hd__and3_1
*CAP
1 *2325:D 4.23992e-05
2 *2124:X 0.000103574
3 *231:8 0.000145973
4 *2325:D *2122:A 7.41756e-05
5 *2325:D *2325:CLK 0.000189687
6 *231:8 *2124:B 8.41012e-05
*RES
1 *2124:X *231:8 40.2579 
2 *231:8 *2325:D 40.0973 
*END

*D_NET *232 0.000481385
*CONN
*I *2326:D I *D sky130_fd_sc_hd__dfxtp_1
*I *2127:X O *D sky130_fd_sc_hd__and3b_1
*CAP
1 *2326:D 8.41245e-05
2 *2127:X 8.41245e-05
3 *2326:D *2127:C 0.000171658
4 *2326:D *2326:CLK 0.000128184
5 *2326:D *514:10 1.32939e-05
*RES
1 *2127:X *2326:D 49.0916 
*END

*D_NET *233 0.00117913
*CONN
*I *2327:D I *D sky130_fd_sc_hd__dfxtp_1
*I *2130:X O *D sky130_fd_sc_hd__and3_1
*CAP
1 *2327:D 0
2 *2130:X 0.000396547
3 *233:16 0.000396547
4 *233:16 *468:87 6.21658e-05
5 *233:16 *500:22 0
6 *233:16 *501:12 0.000228001
7 *154:8 *233:16 9.58668e-05
*RES
1 *2130:X *233:16 31.643 
2 *233:16 *2327:D 23 
*END

*D_NET *234 0.000942573
*CONN
*I *2328:D I *D sky130_fd_sc_hd__dfxtp_1
*I *2133:X O *D sky130_fd_sc_hd__and3b_1
*CAP
1 *2328:D 0
2 *2133:X 0.00036033
3 *234:8 0.00036033
4 *234:8 *606:118 0.000221914
*RES
1 *2133:X *234:8 29.8823 
2 *234:8 *2328:D 23 
*END

*D_NET *235 0.000565916
*CONN
*I *2329:D I *D sky130_fd_sc_hd__dfxtp_1
*I *2136:X O *D sky130_fd_sc_hd__and3b_1
*CAP
1 *2329:D 0.000179736
2 *2136:X 7.97336e-05
3 *235:8 0.00025947
4 *2329:D *2329:CLK 1.13128e-05
5 *235:8 *465:33 3.5664e-05
6 *235:8 *622:32 0
*RES
1 *2136:X *235:8 39.5536 
2 *235:8 *2329:D 40.5737 
*END

*D_NET *236 0.00118122
*CONN
*I *2330:D I *D sky130_fd_sc_hd__dfxtp_1
*I *2139:X O *D sky130_fd_sc_hd__and3b_1
*CAP
1 *2330:D 6.04433e-05
2 *2139:X 0.000278649
3 *236:10 0.000339092
4 *2330:D *2137:B 0.000212756
5 *2330:D *2293:CLK 4.65414e-05
6 *2330:D *466:128 5.67058e-05
7 *236:10 *2290:CLK 9.2891e-05
8 *236:10 *408:8 2.23884e-05
9 *236:10 *466:46 5.56356e-05
10 *154:14 *2330:D 1.61168e-05
*RES
1 *2139:X *236:10 42.0807 
2 *236:10 *2330:D 40.3666 
*END

*D_NET *237 0.000898913
*CONN
*I *2331:D I *D sky130_fd_sc_hd__dfxtp_1
*I *2142:X O *D sky130_fd_sc_hd__and3_1
*CAP
1 *2331:D 3.63576e-05
2 *2142:X 0.000245012
3 *237:10 0.00028137
4 *2331:D *2025:A 0.00014884
5 *2331:D *584:22 3.68412e-05
6 *237:10 *2141:B 1.03972e-05
7 *237:10 *2367:A 4.73609e-05
8 *237:10 *519:10 8.29264e-05
9 *237:10 *600:93 9.80703e-06
*RES
1 *2142:X *237:10 41.6043 
2 *237:10 *2331:D 39.6209 
*END

*D_NET *238 0.000450243
*CONN
*I *2332:D I *D sky130_fd_sc_hd__dfxtp_1
*I *2144:X O *D sky130_fd_sc_hd__and2_1
*CAP
1 *2332:D 1.26271e-05
2 *2144:X 0.000119417
3 *238:10 0.000132044
4 *2332:D *576:28 1.64354e-05
5 *238:10 *412:10 0.000114083
6 *238:10 *524:10 5.56356e-05
*RES
1 *2144:X *238:10 40.175 
2 *238:10 *2332:D 38.1916 
*END

*D_NET *239 0.00045272
*CONN
*I *2333:D I *D sky130_fd_sc_hd__dfxtp_1
*I *2145:X O *D sky130_fd_sc_hd__o21a_1
*CAP
1 *2333:D 6.7202e-06
2 *2145:X 0.000168695
3 *239:10 0.000175416
4 *2333:D *273:34 4.9054e-06
5 *2333:D *650:50 1.74843e-05
6 *239:10 *347:32 5.01247e-05
7 *239:10 *491:48 0
8 *239:10 *556:16 2.93747e-05
*RES
1 *2145:X *239:10 40.8793 
2 *239:10 *2333:D 38.1916 
*END

*D_NET *240 0.00034876
*CONN
*I *2334:D I *D sky130_fd_sc_hd__dfxtp_1
*I *2146:X O *D sky130_fd_sc_hd__or2_1
*CAP
1 *2334:D 1.26271e-05
2 *2146:X 0.000120807
3 *240:10 0.000133434
4 *2334:D *2334:CLK 1.64354e-05
5 *240:10 *672:DIODE 3.22879e-05
6 *240:10 *465:125 0
7 *240:10 *621:46 3.31683e-05
*RES
1 *2146:X *240:10 40.175 
2 *240:10 *2334:D 38.1916 
*END

*D_NET *241 0.000224649
*CONN
*I *2335:D I *D sky130_fd_sc_hd__dfxtp_1
*I *2147:X O *D sky130_fd_sc_hd__and2_1
*CAP
1 *2335:D 8.59533e-05
2 *2147:X 8.59533e-05
3 *2335:D *649:58 5.27422e-05
*RES
1 *2147:X *2335:D 47.8902 
*END

*D_NET *242 0.00144892
*CONN
*I *2336:D I *D sky130_fd_sc_hd__dfxtp_1
*I *2148:Y O *D sky130_fd_sc_hd__nor2_1
*CAP
1 *2336:D 9.8251e-06
2 *2148:Y 0.000365025
3 *242:10 0.00037485
4 *2336:D *472:39 8.15899e-06
5 *242:10 *361:18 0.000136486
6 *242:10 *613:89 0.000110913
7 *242:10 *649:23 0.000443667
*RES
1 *2148:Y *242:10 44.815 
2 *242:10 *2336:D 38.1916 
*END

*D_NET *243 0.000321607
*CONN
*I *2337:D I *D sky130_fd_sc_hd__dfxtp_1
*I *2149:X O *D sky130_fd_sc_hd__and2_1
*CAP
1 *2337:D 8.85264e-05
2 *2149:X 8.85264e-05
3 *2337:D *2149:A 1.76557e-05
4 *2337:D *2149:B 0
5 *2337:D *469:93 0.000126899
*RES
1 *2149:X *2337:D 48.5893 
*END

*D_NET *244 0.000664329
*CONN
*I *2338:D I *D sky130_fd_sc_hd__dfxtp_1
*I *2150:Y O *D sky130_fd_sc_hd__nor2_1
*CAP
1 *2338:D 0.000112205
2 *2150:Y 0.000142176
3 *244:8 0.000254381
4 *2338:D *472:55 0.000155567
5 *244:8 *273:42 0
6 *244:8 *620:26 0
7 *244:8 *647:16 0
*RES
1 *2150:Y *244:8 40.2579 
2 *244:8 *2338:D 41.0502 
*END

*D_NET *245 0.000459297
*CONN
*I *2339:D I *D sky130_fd_sc_hd__dfxtp_1
*I *2152:X O *D sky130_fd_sc_hd__o31a_1
*CAP
1 *2339:D 1.65545e-05
2 *2152:X 8.3455e-05
3 *245:8 0.00010001
4 *2339:D *492:14 0.000104433
5 *2339:D *555:10 0.000102732
6 *245:8 *307:16 0
7 *245:8 *634:63 5.21127e-05
*RES
1 *2152:X *245:8 39.5536 
2 *245:8 *2339:D 39.1445 
*END

*D_NET *246 0.000745153
*CONN
*I *2340:D I *D sky130_fd_sc_hd__dfxtp_1
*I *2159:X O *D sky130_fd_sc_hd__o21a_1
*CAP
1 *2340:D 1.58638e-05
2 *2159:X 0.00032836
3 *246:10 0.000344224
4 *246:10 *286:69 5.67058e-05
5 *246:10 *361:18 0
6 *246:10 *621:199 0
*RES
1 *2159:X *246:10 43.6964 
2 *246:10 *2340:D 38.1916 
*END

*D_NET *247 0.000852714
*CONN
*I *2341:D I *D sky130_fd_sc_hd__dfxtp_1
*I *2162:X O *D sky130_fd_sc_hd__and2b_1
*CAP
1 *2341:D 2.50154e-05
2 *2162:X 0.000160877
3 *247:8 0.000185892
4 *2341:D *2341:CLK 5.73018e-05
5 *2341:D *286:46 5.73018e-05
6 *247:8 *2341:CLK 1.14452e-05
7 *247:8 *414:10 9.94675e-05
8 *247:8 *414:16 0.000227497
9 *247:8 *465:169 2.79167e-05
*RES
1 *2162:X *247:8 42.3707 
2 *247:8 *2341:D 38.668 
*END

*D_NET *248 0.00201875
*CONN
*I *2342:D I *D sky130_fd_sc_hd__dfxtp_1
*I *2166:X O *D sky130_fd_sc_hd__and3_1
*CAP
1 *2342:D 0.000419779
2 *2166:X 6.09069e-05
3 *248:8 0.000480686
4 *2342:D *2342:CLK 0.000128189
5 *2342:D *334:39 0.000604708
6 *248:8 *378:10 3.84797e-05
7 *248:8 *421:10 8.85189e-05
8 *248:8 *601:24 0.000197479
*RES
1 *2166:X *248:8 40.61 
2 *248:8 *2342:D 47.9895 
*END

*D_NET *249 0.00116423
*CONN
*I *2343:D I *D sky130_fd_sc_hd__dfxtp_1
*I *2181:Y O *D sky130_fd_sc_hd__a21oi_1
*CAP
1 *2343:D 4.88599e-05
2 *2181:Y 0.000341856
3 *249:8 0.000390716
4 *2343:D *479:21 0.000102477
5 *249:8 *2182:A 0
6 *249:8 *439:8 0.000114092
7 *249:8 *471:42 0
8 *249:8 *471:46 0
9 *249:8 *479:12 0
10 *249:8 *486:25 0
11 *249:8 *560:64 0.000166232
*RES
1 *2181:Y *249:8 44.8357 
2 *249:8 *2343:D 39.1445 
*END

*D_NET *250 0.00144818
*CONN
*I *2344:D I *D sky130_fd_sc_hd__dfxtp_1
*I *2183:Y O *D sky130_fd_sc_hd__a21oi_1
*CAP
1 *2344:D 0
2 *2183:Y 0.00050842
3 *250:10 0.00050842
4 *250:10 *2183:A2 0.000330559
5 *250:10 *2183:B1 3.7122e-06
6 *250:10 *2344:CLK 5.50049e-05
7 *250:10 *471:36 2.88036e-05
8 *250:10 *560:76 1.32578e-05
*RES
1 *2183:Y *250:10 32.0107 
2 *250:10 *2344:D 23 
*END

*D_NET *251 0.000842719
*CONN
*I *2345:D I *D sky130_fd_sc_hd__dfxtp_1
*I *2186:Y O *D sky130_fd_sc_hd__a21oi_1
*CAP
1 *2345:D 9.97181e-05
2 *2186:Y 9.75435e-05
3 *251:10 0.000197262
4 *2345:D *291:63 6.44875e-05
5 *251:10 *475:12 0.000110913
6 *149:18 *2345:D 0.000272796
*RES
1 *2186:Y *251:10 39.7296 
2 *251:10 *2345:D 41.0502 
*END

*D_NET *252 0.000516965
*CONN
*I *2346:D I *D sky130_fd_sc_hd__dfxtp_1
*I *2189:Y O *D sky130_fd_sc_hd__a21oi_1
*CAP
1 *2346:D 1.26271e-05
2 *2189:Y 0.000155102
3 *252:8 0.000167729
4 *2346:D *432:25 1.64354e-05
5 *252:8 *604:67 0.000114083
6 *163:18 *252:8 5.09885e-05
*RES
1 *2189:Y *252:8 40.9621 
2 *252:8 *2346:D 38.1916 
*END

*D_NET *253 0.000526008
*CONN
*I *2347:D I *D sky130_fd_sc_hd__dfxtp_2
*I *2191:Y O *D sky130_fd_sc_hd__a21oi_1
*CAP
1 *2347:D 1.13183e-05
2 *2191:Y 0.000126546
3 *253:10 0.000137865
4 *2347:D *473:38 1.64354e-05
5 *253:10 *473:38 5.36457e-05
6 *253:10 *604:130 1.05235e-05
7 *253:10 *621:34 0.000169674
*RES
1 *2191:Y *253:10 40.8793 
2 *253:10 *2347:D 38.1916 
*END

*D_NET *254 0.000462802
*CONN
*I *2348:D I *D sky130_fd_sc_hd__dfxtp_1
*I *2194:Y O *D sky130_fd_sc_hd__a21oi_1
*CAP
1 *2348:D 0.000180523
2 *2194:Y 0.000180523
3 *2348:D *2348:CLK 4.5051e-05
4 *2348:D *603:89 5.67058e-05
*RES
1 *2194:Y *2348:D 49.5163 
*END

*D_NET *255 0.00070474
*CONN
*I *2349:D I *D sky130_fd_sc_hd__dfxtp_1
*I *2196:Y O *D sky130_fd_sc_hd__a21oi_1
*CAP
1 *2349:D 3.87957e-05
2 *2196:Y 0.000176996
3 *255:10 0.000215792
4 *2349:D *491:21 4.87475e-05
5 *255:10 *2195:B 1.94812e-05
6 *255:10 *490:22 8.68184e-05
7 *255:10 *541:12 0
8 *255:10 *603:47 5.3304e-05
9 *255:10 *604:110 6.48049e-05
*RES
1 *2196:Y *255:10 41.9357 
2 *255:10 *2349:D 38.9943 
*END

*D_NET *256 0.00100601
*CONN
*I *2350:D I *D sky130_fd_sc_hd__dfxtp_1
*I *2200:Y O *D sky130_fd_sc_hd__a21oi_1
*CAP
1 *2350:D 8.77079e-06
2 *2200:Y 0.000318668
3 *256:8 0.000327439
4 *2350:D *448:18 1.74843e-05
5 *256:8 *2197:B 0
6 *256:8 *2350:CLK 5.61311e-05
7 *256:8 *471:125 1.52362e-05
8 *256:8 *491:32 0
9 *256:8 *603:39 1.01436e-05
10 *256:8 *604:18 0.00019747
11 *256:8 *604:33 5.46706e-05
12 *164:12 *256:8 0
*RES
1 *2200:Y *256:8 44.4836 
2 *256:8 *2350:D 38.1916 
*END

*D_NET *257 0.000526554
*CONN
*I *2351:D I *D sky130_fd_sc_hd__dfxtp_1
*I *2202:Y O *D sky130_fd_sc_hd__a21oi_1
*CAP
1 *2351:D 7.0595e-05
2 *2202:Y 0.00010869
3 *257:8 0.000179285
4 *257:8 *620:16 9.59223e-05
5 *164:12 *257:8 7.20622e-05
*RES
1 *2202:Y *257:8 40.9621 
2 *257:8 *2351:D 39.1445 
*END

*D_NET *258 0.00064758
*CONN
*I *2352:D I *D sky130_fd_sc_hd__dfxtp_1
*I *2205:Y O *D sky130_fd_sc_hd__a21oi_1
*CAP
1 *2352:D 5.95228e-05
2 *2205:Y 0.000193744
3 *258:12 0.000253267
4 *258:12 *2205:A2 7.05643e-06
5 *258:12 *2352:CLK 2.72836e-05
6 *258:12 *438:59 2.51385e-05
7 *258:12 *453:10 6.11038e-05
8 *258:12 *493:23 2.04639e-05
*RES
1 *2205:Y *258:12 41.0139 
2 *258:12 *2352:D 38.9943 
*END

*D_NET *259 0.00145542
*CONN
*I *2353:D I *D sky130_fd_sc_hd__dfxtp_2
*I *2208:Y O *D sky130_fd_sc_hd__a21oi_1
*CAP
1 *2353:D 1.26271e-05
2 *2208:Y 0.000631805
3 *259:10 0.000644432
4 *2353:D *473:119 1.64354e-05
5 *259:10 *2208:B1 1.32314e-05
6 *259:10 *2384:A 1.32939e-05
7 *259:10 *473:107 0
8 *259:10 *481:10 3.0647e-05
9 *259:10 *481:12 8.26569e-05
10 *259:10 *603:6 1.02949e-05
11 *259:10 *613:135 0
*RES
1 *2208:Y *259:10 47.7564 
2 *259:10 *2353:D 38.1916 
*END

*D_NET *260 0.000480103
*CONN
*I *2354:D I *D sky130_fd_sc_hd__dfxtp_1
*I *2210:Y O *D sky130_fd_sc_hd__a21oi_1
*CAP
1 *2354:D 0.000159669
2 *2210:Y 0.000159669
3 *2354:D *481:52 0.000160765
*RES
1 *2210:Y *2354:D 49.045 
*END

*D_NET *261 0.000345879
*CONN
*I *2355:D I *D sky130_fd_sc_hd__dfxtp_1
*I *2213:Y O *D sky130_fd_sc_hd__nor2_1
*CAP
1 *2355:D 3.45771e-05
2 *2213:Y 8.22828e-05
3 *261:8 0.00011686
4 *2355:D *473:24 5.92579e-05
5 *261:8 *291:99 5.29019e-05
6 *261:8 *605:25 0
*RES
1 *2213:Y *261:8 39.5536 
2 *261:8 *2355:D 38.668 
*END

*D_NET *262 0.000473012
*CONN
*I *2356:D I *D sky130_fd_sc_hd__dfxtp_1
*I *2215:Y O *D sky130_fd_sc_hd__a21oi_1
*CAP
1 *2356:D 2.54798e-05
2 *2215:Y 0.000116425
3 *262:8 0.000141905
4 *2356:D *2214:A 3.32987e-05
5 *2356:D *473:59 8.90341e-05
6 *262:8 *2214:B 6.6869e-05
7 *262:8 *483:19 0
8 *262:8 *483:21 0
*RES
1 *2215:Y *262:8 40.2579 
2 *262:8 *2356:D 38.9943 
*END

*D_NET *263 0.0012213
*CONN
*I *2357:D I *D sky130_fd_sc_hd__dfxtp_1
*I *2217:Y O *D sky130_fd_sc_hd__a211oi_1
*CAP
1 *2357:D 0
2 *2217:Y 0.00025107
3 *263:14 0.00025107
4 *263:14 *1931:A 0.000259429
5 *263:14 *2217:A1 8.87339e-05
6 *263:14 *2217:B1 1.5769e-05
7 *263:14 *437:12 0.000139352
8 *263:14 *473:67 0.000160875
9 *263:14 *605:49 5.50049e-05
*RES
1 *2217:Y *263:14 30.9387 
2 *263:14 *2357:D 23 
*END

*D_NET *264 0.00044264
*CONN
*I *2358:D I *D sky130_fd_sc_hd__dfxtp_1
*I *2218:X O *D sky130_fd_sc_hd__o21ba_1
*CAP
1 *2358:D 0.000125971
2 *2218:X 9.53488e-05
3 *264:8 0.00022132
4 *264:8 *2218:B1_N 0
5 *264:8 *437:31 0
*RES
1 *2218:X *264:8 39.5536 
2 *264:8 *2358:D 40.0973 
*END

*D_NET *265 0.000950717
*CONN
*I *2359:D I *D sky130_fd_sc_hd__dfxtp_1
*I *2222:X O *D sky130_fd_sc_hd__o211a_1
*CAP
1 *2359:D 4.4244e-05
2 *2222:X 0.000259275
3 *265:10 0.000303519
4 *2359:D *641:14 3.32987e-05
5 *265:10 *2360:CLK 1.03955e-05
6 *265:10 *462:31 4.05745e-05
7 *265:10 *463:16 9.58714e-05
8 *265:10 *469:123 7.91596e-05
9 *265:10 *559:42 2.93747e-05
10 *265:10 *641:16 5.50049e-05
11 *265:10 *641:53 0
*RES
1 *2222:X *265:10 43.1371 
2 *265:10 *2359:D 38.9943 
*END

*D_NET *266 0.00209477
*CONN
*I *2360:D I *D sky130_fd_sc_hd__dfxtp_1
*I *2224:X O *D sky130_fd_sc_hd__o211a_1
*CAP
1 *2360:D 0.000588456
2 *2224:X 3.55839e-05
3 *266:8 0.00062404
4 *2360:D *2360:CLK 0.000150773
5 *2360:D *469:115 0.000521108
6 *266:8 *462:8 8.85189e-05
7 *266:8 *642:24 8.62876e-05
*RES
1 *2224:X *266:8 39.2014 
2 *266:8 *2360:D 47.2023 
*END

*D_NET *267 0.000447626
*CONN
*I *2361:D I *D sky130_fd_sc_hd__dfxtp_1
*I *2225:X O *D sky130_fd_sc_hd__o21a_1
*CAP
1 *2361:D 4.67437e-05
2 *2225:X 4.67437e-05
3 *2361:D *2225:A1 0.000213654
4 *2361:D *2225:B1 5.67058e-05
5 *2361:D *2361:CLK 5.50049e-05
6 *2361:D *615:36 2.87729e-05
*RES
1 *2225:X *2361:D 48.3666 
*END

*D_NET *268 0.000445356
*CONN
*I *2362:D I *D sky130_fd_sc_hd__dfxtp_1
*I *2226:X O *D sky130_fd_sc_hd__o21a_1
*CAP
1 *2362:D 1.58638e-05
2 *2226:X 0.000131183
3 *268:10 0.000147047
4 *268:10 *291:33 4.3053e-05
5 *268:10 *467:17 1.15307e-05
6 *268:10 *467:19 3.87236e-05
7 *268:10 *538:14 5.79559e-05
*RES
1 *2226:X *268:10 40.8793 
2 *268:10 *2362:D 38.1916 
*END

*D_NET *269 0.00147186
*CONN
*I *2431:A I *D sky130_fd_sc_hd__dlygate4sd3_1
*I *1946:X O *D sky130_fd_sc_hd__o21ba_1
*CAP
1 *2431:A 0
2 *1946:X 0.000334831
3 *269:10 0.000334831
4 *269:10 *1946:B1_N 5.40337e-05
5 *269:10 *470:37 2.82356e-05
6 *269:10 *475:12 0.000351617
7 *269:10 *556:48 2.18926e-05
8 *269:10 *556:58 0.000346423
*RES
1 *1946:X *269:10 45.7264 
2 *269:10 *2431:A 38 
*END

*D_NET *270 0.00030031
*CONN
*I *2217:A1 I *D sky130_fd_sc_hd__a211oi_1
*I *1931:Y O *D sky130_fd_sc_hd__inv_2
*CAP
1 *2217:A1 0.000105788
2 *1931:Y 0.000105788
3 *263:14 *2217:A1 8.87339e-05
*RES
1 *1931:Y *2217:A1 47.5743 
*END

*D_NET *271 0.0091688
*CONN
*I *1957:A I *D sky130_fd_sc_hd__nor3_4
*I *2148:A I *D sky130_fd_sc_hd__nor2_1
*I *2160:A I *D sky130_fd_sc_hd__or3_1
*I *2045:A I *D sky130_fd_sc_hd__or4_2
*I *2167:B2 I *D sky130_fd_sc_hd__a2bb2o_1
*I *2168:A1 I *D sky130_fd_sc_hd__o22ai_1
*I *1932:Y O *D sky130_fd_sc_hd__inv_2
*CAP
1 *1957:A 0.000274033
2 *2148:A 0
3 *2160:A 0.000155571
4 *2045:A 0.00025671
5 *2167:B2 2.0995e-05
6 *2168:A1 0
7 *1932:Y 0
8 *271:64 0.000361139
9 *271:53 0.000818166
10 *271:26 0.00026098
11 *271:16 0.000868609
12 *271:6 0.000843344
13 *271:4 0.000575489
14 *1957:A *286:93 0.000236325
15 *1957:A *316:24 3.70094e-05
16 *1957:A *554:6 6.53382e-05
17 *1957:A *554:10 0.000178517
18 *1957:A *613:89 0
19 *1957:A *620:44 2.43903e-05
20 *1957:A *620:62 7.16481e-05
21 *2045:A *1957:B 9.41704e-05
22 *2045:A *2045:B 7.53384e-06
23 *2045:A *2045:C 9.58714e-05
24 *2045:A *288:14 5.50049e-05
25 *2045:A *288:25 0.000125213
26 *2045:A *414:10 0.000362172
27 *2045:A *472:14 0.000352958
28 *2045:A *472:55 4.95081e-05
29 *2160:A *2160:B 8.94487e-05
30 *2160:A *286:93 0.000296026
31 *2167:B2 *649:45 1.14154e-05
32 *2167:B2 *649:54 0
33 *271:16 *2341:CLK 0.000231713
34 *271:16 *286:46 1.16622e-05
35 *271:16 *414:10 0.000209992
36 *271:16 *472:14 1.14452e-05
37 *271:16 *649:45 0.00019539
38 *271:16 *650:10 5.50049e-05
39 *271:26 *2168:A2 5.3304e-05
40 *271:26 *286:46 2.12347e-06
41 *271:26 *648:40 0.000359186
42 *271:26 *649:45 0.000119419
43 *271:26 *650:50 5.3304e-05
44 *271:26 *651:55 0.000369516
45 *271:53 *472:39 0.000776739
46 *271:64 *286:93 0.000126343
47 *271:64 *613:89 0
48 *271:64 *620:44 6.07611e-06
*RES
1 *1932:Y *271:4 23 
2 *271:4 *271:6 15 
3 *271:6 *271:16 25.4193 
4 *271:16 *271:26 37.2707 
5 *271:26 *2168:A1 23 
6 *271:16 *2167:B2 23.4971 
7 *271:6 *2045:A 46.0786 
8 *271:4 *271:53 23.7207 
9 *271:53 *2160:A 42.0186 
10 *271:53 *271:64 1.90571 
11 *271:64 *2148:A 38 
12 *271:64 *1957:A 44.7943 
*END

*D_NET *272 0.00324222
*CONN
*I *2172:A1 I *D sky130_fd_sc_hd__a211o_1
*I *1949:B I *D sky130_fd_sc_hd__and3_1
*I *2168:B2 I *D sky130_fd_sc_hd__o22ai_1
*I *2150:A I *D sky130_fd_sc_hd__nor2_1
*I *1933:Y O *D sky130_fd_sc_hd__inv_2
*CAP
1 *2172:A1 0
2 *1949:B 0.000280413
3 *2168:B2 7.30626e-05
4 *2150:A 6.46323e-05
5 *1933:Y 0.000174977
6 *272:16 0.000239812
7 *272:12 0.000413747
8 *272:10 0.000206193
9 *1949:B *273:42 0.000347205
10 *2150:A *273:34 0.000156058
11 *2150:A *647:16 2.93747e-05
12 *2150:A *650:50 0.000361027
13 *2168:B2 *426:10 1.94812e-05
14 *2168:B2 *647:16 2.93845e-05
15 *2168:B2 *650:50 0.000127821
16 *272:10 *334:80 0.000140259
17 *272:10 *430:10 3.21223e-05
18 *272:10 *621:34 0.000138708
19 *272:12 *621:34 8.7985e-05
20 *272:12 *647:16 7.73662e-05
21 *272:16 *621:34 0.000118639
22 *272:16 *621:36 1.50408e-05
23 *272:16 *647:16 0.000108913
*RES
1 *1933:Y *272:10 41.48 
2 *272:10 *272:12 1.20143 
3 *272:12 *272:16 17.2579 
4 *272:16 *2150:A 26.9564 
5 *272:16 *2168:B2 25.0714 
6 *272:12 *1949:B 41.9564 
7 *272:10 *2172:A1 38 
*END

*D_NET *273 0.0180513
*CONN
*I *653:DIODE I *D sky130_fd_sc_hd__diode_2
*I *2045:B I *D sky130_fd_sc_hd__or4_2
*I *665:DIODE I *D sky130_fd_sc_hd__diode_2
*I *1934:Y O *D sky130_fd_sc_hd__inv_2
*CAP
1 *653:DIODE 0
2 *2045:B 0.000162482
3 *665:DIODE 0
4 *1934:Y 9.58663e-05
5 *273:42 0.000561153
6 *273:34 0.00277737
7 *273:28 0.00252412
8 *273:18 0.00148968
9 *273:10 0.00259685
10 *273:6 0.00134846
11 *2045:B *285:12 3.3577e-05
12 *2045:B *472:55 3.40295e-05
13 *273:6 *552:10 5.27215e-06
14 *273:10 *324:16 0.000523703
15 *273:10 *324:22 0.000675297
16 *273:10 *324:24 0.000219017
17 *273:10 *324:28 0.000143137
18 *273:10 *470:115 0
19 *273:10 *618:43 0
20 *273:10 *622:14 0
21 *273:18 *2403:A 7.72976e-05
22 *273:18 *470:54 0.000955853
23 *273:18 *470:69 0.000205531
24 *273:18 *624:10 2.93431e-05
25 *273:18 *637:29 0.000433899
26 *273:28 *1972:A1 0.000141052
27 *273:28 *299:8 5.50049e-05
28 *273:28 *299:12 0.000138718
29 *273:28 *608:71 0.000166513
30 *273:28 *640:25 1.22906e-05
31 *273:34 *1972:A1 4.5051e-05
32 *273:34 *1972:B1 1.94693e-05
33 *273:34 *1972:B2 0.000707089
34 *273:34 *2333:CLK 7.56391e-05
35 *273:34 *295:43 9.24795e-06
36 *273:34 *555:20 3.58084e-06
37 *273:34 *620:26 0.000228909
38 *273:34 *620:30 5.30724e-05
39 *273:34 *650:50 0.000300869
40 *273:42 *1949:A 2.93845e-05
41 *273:42 *285:12 6.09219e-05
42 *273:42 *285:20 2.37237e-05
43 *273:42 *286:8 5.50106e-05
44 *273:42 *429:14 2.93747e-05
45 *273:42 *472:55 4.65062e-05
46 *273:42 *647:8 2.64616e-05
47 *273:42 *647:16 0.00013384
48 *1949:B *273:42 0.000347205
49 *2045:A *2045:B 7.53384e-06
50 *2150:A *273:34 0.000156058
51 *2304:RESET_B *273:18 3.26443e-05
52 *2333:D *273:34 4.9054e-06
53 *134:10 *273:10 4.96264e-05
54 *172:8 *273:10 0.000199701
55 *207:8 *273:10 0
56 *244:8 *273:42 0
*RES
1 *1934:Y *273:6 24.0979 
2 *273:6 *273:10 46.1336 
3 *273:10 *273:18 42.3429 
4 *273:18 *273:28 34.3293 
5 *273:28 *273:34 36.5193 
6 *273:34 *273:42 38.7207 
7 *273:42 *665:DIODE 23 
8 *273:42 *2045:B 26.0243 
9 *273:6 *653:DIODE 23 
*END

*D_NET *274 0.00326775
*CONN
*I *2051:A1 I *D sky130_fd_sc_hd__a41o_1
*I *2132:A I *D sky130_fd_sc_hd__nand2_1
*I *2131:A I *D sky130_fd_sc_hd__nor2_1
*I *1935:Y O *D sky130_fd_sc_hd__inv_2
*CAP
1 *2051:A1 0.000231253
2 *2132:A 3.25721e-05
3 *2131:A 9.81153e-05
4 *1935:Y 0
5 *274:6 0.000257843
6 *274:4 0.000358409
7 *2051:A1 *326:26 9.84851e-05
8 *2051:A1 *330:8 0.000182826
9 *2051:A1 *500:49 4.55711e-05
10 *2051:A1 *500:70 8.45476e-05
11 *2131:A *2128:A 9.43467e-06
12 *2131:A *2131:B 1.3747e-05
13 *2131:A *2132:B 0.000348512
14 *2131:A *2382:A 4.95081e-05
15 *2131:A *500:49 0.000446768
16 *274:6 *1935:A 0.000483643
17 *274:6 *2382:A 1.72202e-05
18 *274:6 *500:49 0.000509299
*RES
1 *1935:Y *274:4 23 
2 *274:4 *274:6 6.33857 
3 *274:6 *2131:A 28.4064 
4 *274:6 *2132:A 23.4971 
5 *274:4 *2051:A1 29.5664 
*END

*D_NET *275 0.00417199
*CONN
*I *2126:A I *D sky130_fd_sc_hd__nand2_1
*I *2051:A2 I *D sky130_fd_sc_hd__a41o_1
*I *1936:Y O *D sky130_fd_sc_hd__inv_2
*CAP
1 *2126:A 0
2 *2051:A2 0
3 *1936:Y 0
4 *275:29 0.000241319
5 *275:18 0.000485495
6 *275:4 0.000726814
7 *275:18 *2041:B 0.000168693
8 *275:18 *2042:A 0.000181131
9 *275:18 *2051:A3 0.000152682
10 *275:18 *2054:B1 0.000267173
11 *275:18 *2328:CLK 0.000641105
12 *275:18 *2383:A 0.000200462
13 *275:18 *329:42 3.5744e-05
14 *275:18 *330:8 8.01644e-05
15 *275:18 *332:8 4.43614e-05
16 *275:18 *341:10 1.14452e-05
17 *275:18 *343:8 0.000166513
18 *275:18 *383:29 0.000126832
19 *275:18 *500:70 0.000216536
20 *275:29 *401:8 8.62783e-05
21 *275:29 *465:135 0.000211671
22 *275:29 *514:10 5.19276e-05
23 *275:29 *514:12 7.10099e-05
24 *275:29 *514:18 4.6318e-06
25 *275:29 *621:52 0
*RES
1 *1936:Y *275:4 23 
2 *275:4 *275:18 47.4725 
3 *275:18 *2051:A2 23 
4 *275:4 *275:29 35.7793 
5 *275:29 *2126:A 23 
*END

*D_NET *276 0.00194146
*CONN
*I *2169:A2 I *D sky130_fd_sc_hd__o22ai_1
*I *2170:A2 I *D sky130_fd_sc_hd__a2111o_1
*I *1938:Y O *D sky130_fd_sc_hd__inv_2
*CAP
1 *2169:A2 0
2 *2170:A2 6.41361e-05
3 *1938:Y 0.000370585
4 *276:12 0.000109885
5 *276:8 0.000416334
6 *2170:A2 *2169:B1 5.67058e-05
7 *2170:A2 *2169:B2 0.000141052
8 *2170:A2 *2170:A1 1.56665e-05
9 *2170:A2 *648:27 0.000109901
10 *276:8 *469:76 0
11 *276:8 *469:93 0
12 *276:8 *621:42 0
13 *276:8 *621:46 0
14 *276:12 *648:21 5.50049e-05
15 *276:12 *648:27 1.72202e-05
16 *170:48 *276:8 0.000444794
17 *170:70 *276:8 0.000140172
*RES
1 *1938:Y *276:8 45.8921 
2 *276:8 *276:12 16.0979 
3 *276:12 *2170:A2 25.5479 
4 *276:12 *2169:A2 23 
*END

*D_NET *277 0.00132862
*CONN
*I *2167:A2_N I *D sky130_fd_sc_hd__a2bb2o_1
*I *2171:A2 I *D sky130_fd_sc_hd__a221o_1
*I *1939:Y O *D sky130_fd_sc_hd__inv_2
*CAP
1 *2167:A2_N 0.000191229
2 *2171:A2 0
3 *1939:Y 0.000163019
4 *277:14 7.47261e-05
5 *277:6 0.000428973
6 *2167:A2_N *649:45 3.52912e-05
7 *2167:A2_N *649:54 3.75094e-05
8 *277:6 *649:54 8.06804e-06
9 *277:6 *649:58 6.71074e-05
10 *277:14 *2171:B1 6.07611e-06
11 *277:14 *465:169 7.27694e-06
12 *277:14 *621:36 0.000164291
13 *277:14 *649:86 0.000138718
14 *277:14 *651:40 6.33303e-06
*RES
1 *1939:Y *277:6 26.0036 
2 *277:6 *277:14 32.4287 
3 *277:14 *2171:A2 23 
4 *277:6 *2167:A2_N 26.0243 
*END

*D_NET *278 0.00135961
*CONN
*I *2171:B1 I *D sky130_fd_sc_hd__a221o_1
*I *2169:B1 I *D sky130_fd_sc_hd__o22ai_1
*I *1940:Y O *D sky130_fd_sc_hd__inv_2
*CAP
1 *2171:B1 0.000130853
2 *2169:B1 0.000143573
3 *1940:Y 0.000139497
4 *278:10 0.000413923
5 *2169:B1 *2170:A1 0.00010018
6 *2169:B1 *2170:D1 9.84794e-05
7 *2169:B1 *427:10 4.26727e-05
8 *2171:B1 *428:10 5.26101e-05
9 *2171:B1 *621:36 7.73797e-05
10 *2171:B1 *621:42 1.19796e-05
11 *2171:B1 *651:27 0
12 *278:10 *469:93 5.67058e-05
13 *278:10 *621:42 2.8971e-05
14 *278:10 *651:27 0
15 *2170:A2 *2169:B1 5.67058e-05
16 *277:14 *2171:B1 6.07611e-06
*RES
1 *1940:Y *278:10 40.175 
2 *278:10 *2169:B1 41.48 
3 *278:10 *2171:B1 41.6664 
*END

*D_NET *279 0.000832557
*CONN
*I *2163:B2 I *D sky130_fd_sc_hd__a32o_1
*I *1941:Y O *D sky130_fd_sc_hd__inv_2
*CAP
1 *2163:B2 8.03807e-05
2 *1941:Y 5.61785e-05
3 *279:8 0.000136559
4 *2163:B2 *2157:B1 9.02364e-05
5 *2163:B2 *2163:A1 5.50049e-05
6 *2163:B2 *282:10 0.000136743
7 *279:8 *373:10 0.000138727
8 *279:8 *579:26 0.000138727
*RES
1 *1941:Y *279:8 39.9057 
2 *279:8 *2163:B2 40.0507 
*END

*D_NET *280 0.00847059
*CONN
*I *1998:B I *D sky130_fd_sc_hd__or2_1
*I *2007:A2 I *D sky130_fd_sc_hd__o221a_1
*I *2008:A2 I *D sky130_fd_sc_hd__o221a_1
*I *1999:A2 I *D sky130_fd_sc_hd__a22o_1
*I *1992:B1 I *D sky130_fd_sc_hd__a21o_1
*I *1980:B I *D sky130_fd_sc_hd__or2_1
*I *1981:A2 I *D sky130_fd_sc_hd__a22o_1
*I *1965:A I *D sky130_fd_sc_hd__nor2_1
*I *1942:Y O *D sky130_fd_sc_hd__inv_2
*CAP
1 *1998:B 0
2 *2007:A2 0
3 *2008:A2 0
4 *1999:A2 0
5 *1992:B1 0
6 *1980:B 0
7 *1981:A2 2.32701e-05
8 *1965:A 0
9 *1942:Y 3.73224e-05
10 *280:100 0.000174551
11 *280:85 0.000547838
12 *280:68 0.000755386
13 *280:62 0.000632773
14 *280:51 0.0004372
15 *280:38 0.000289929
16 *280:25 0.000268041
17 *280:12 0.000172871
18 *280:6 0.00035156
19 *1981:A2 *1981:B2 5.3304e-05
20 *1981:A2 *296:6 5.3304e-05
21 *280:6 *1968:A 0.000103637
22 *280:6 *488:37 0.000185428
23 *280:12 *307:16 0
24 *280:12 *638:36 0
25 *280:25 *1968:A 6.17437e-06
26 *280:25 *296:6 0.000267161
27 *280:25 *488:37 0.000341684
28 *280:25 *492:14 5.94125e-05
29 *280:38 *1981:B2 9.84851e-05
30 *280:38 *296:6 0.00019486
31 *280:38 *313:10 0.000138444
32 *280:51 *296:6 9.90162e-05
33 *280:51 *312:8 6.6869e-05
34 *280:51 *313:10 0.00010018
35 *280:51 *491:48 0
36 *280:62 *1992:A1 0.000294908
37 *280:62 *560:24 0.000115891
38 *280:68 *1992:A1 1.03836e-05
39 *280:68 *1999:A1 0.000302823
40 *280:68 *1999:B1 5.12055e-06
41 *280:68 *281:33 3.58084e-06
42 *280:68 *318:10 2.02517e-05
43 *280:85 *1999:B1 1.3789e-05
44 *280:85 *2000:C1 0.000362684
45 *280:85 *2008:B2 5.50106e-05
46 *280:85 *281:33 0.000196908
47 *280:85 *296:40 0.000352415
48 *280:85 *296:48 0.000237531
49 *280:85 *314:8 0.00010655
50 *280:85 *318:10 8.6388e-05
51 *280:85 *609:25 0.000172197
52 *280:100 *2007:B1 5.67058e-05
53 *280:100 *2007:B2 6.33627e-05
54 *280:100 *314:24 5.3304e-05
55 *280:100 *483:33 0.000274078
56 *164:12 *280:51 0
57 *169:8 *280:85 0.000228001
*RES
1 *1942:Y *280:6 25.0507 
2 *280:6 *280:12 32.61 
3 *280:12 *1965:A 23 
4 *280:6 *280:25 34.8057 
5 *280:25 *1981:A2 23.6214 
6 *280:25 *280:38 3.64571 
7 *280:38 *1980:B 23 
8 *280:38 *280:51 34.3086 
9 *280:51 *1992:B1 23 
10 *280:51 *280:62 6.02786 
11 *280:62 *280:68 5.77929 
12 *280:68 *1999:A2 23 
13 *280:68 *280:85 15.4943 
14 *280:85 *2008:A2 23 
15 *280:85 *280:100 34.7229 
16 *280:100 *2007:A2 23 
17 *280:62 *1998:B 23 
*END

*D_NET *281 0.00701675
*CONN
*I *1995:A I *D sky130_fd_sc_hd__and2_1
*I *2394:A I *D sky130_fd_sc_hd__buf_2
*I *1943:Y O *D sky130_fd_sc_hd__inv_2
*CAP
1 *1995:A 0
2 *2394:A 0
3 *1943:Y 0.000345542
4 *281:33 0.00140051
5 *281:27 0.00160258
6 *281:14 0.000272156
7 *281:10 0.000415619
8 *281:10 *1943:A 2.02872e-05
9 *281:10 *1968:B 0.000180224
10 *281:10 *1981:B1 0
11 *281:10 *488:37 1.57571e-05
12 *281:10 *542:82 0.000134383
13 *281:10 *614:10 0
14 *281:10 *614:44 9.86551e-06
15 *281:14 *1985:A1 1.24376e-05
16 *281:14 *560:36 0.000226306
17 *281:14 *614:23 8.35233e-05
18 *281:27 *313:10 1.01436e-05
19 *281:27 *489:29 3.3746e-05
20 *281:27 *492:14 2.1199e-05
21 *281:27 *560:36 0.00044107
22 *281:27 *614:23 0.000120857
23 *281:33 *1999:A1 1.14876e-05
24 *281:33 *1999:B1 0.000911471
25 *281:33 *2000:C1 5.50049e-05
26 *281:33 *2390:A 0
27 *281:33 *614:101 0.000223698
28 *281:33 *621:34 3.0647e-05
29 *168:12 *281:27 1.14452e-05
30 *169:8 *281:33 0.0002263
31 *280:68 *281:33 3.58084e-06
32 *280:85 *281:33 0.000196908
*RES
1 *1943:Y *281:10 42.9093 
2 *281:10 *281:14 17.5271 
3 *281:14 *2394:A 23 
4 *281:14 *281:27 36.1107 
5 *281:27 *281:33 36.4807 
6 *281:33 *1995:A 38 
*END

*D_NET *282 0.00191592
*CONN
*I *2154:B I *D sky130_fd_sc_hd__and2_1
*I *2163:A1 I *D sky130_fd_sc_hd__a32o_1
*I *1944:Y O *D sky130_fd_sc_hd__inv_2
*CAP
1 *2154:B 0
2 *2163:A1 0.000104131
3 *1944:Y 0.000221498
4 *282:27 0.000152863
5 *282:10 0.000478492
6 *2163:A1 *2157:B1 3.9056e-05
7 *2163:A1 *2163:A3 5.90675e-06
8 *2163:A1 *2163:B1 1.45295e-05
9 *2163:A1 *415:16 5.50106e-05
10 *282:10 *2157:A2 0.000267173
11 *282:10 *2157:B1 3.57716e-05
12 *282:10 *415:16 4.17736e-05
13 *282:27 *2154:A 4.21594e-06
14 *282:27 *2163:B1 6.84987e-06
15 *282:27 *316:28 0
16 *282:27 *316:34 0
17 *282:27 *373:10 2.3529e-05
18 *282:27 *415:8 0.000163361
19 *282:27 *546:23 5.50049e-05
20 *282:27 *601:12 5.50049e-05
21 *2163:B2 *2163:A1 5.50049e-05
22 *2163:B2 *282:10 0.000136743
*RES
1 *1944:Y *282:10 28.5514 
2 *282:10 *2163:A1 25.5479 
3 *282:10 *282:27 33.5836 
4 *282:27 *2154:B 23 
*END

*D_NET *283 0.0015564
*CONN
*I *2163:A2 I *D sky130_fd_sc_hd__a32o_1
*I *1945:Y O *D sky130_fd_sc_hd__inv_2
*CAP
1 *2163:A2 0
2 *1945:Y 0.000395839
3 *283:10 0.000395839
4 *283:10 *316:28 0.000215791
5 *283:10 *601:12 0.000479335
6 *283:10 *621:199 6.95975e-05
*RES
1 *1945:Y *283:10 46.3479 
2 *283:10 *2163:A2 38 
*END

*D_NET *284 0.00168977
*CONN
*I *1957:B I *D sky130_fd_sc_hd__nor3_4
*I *2045:C I *D sky130_fd_sc_hd__or4_2
*I *1948:B I *D sky130_fd_sc_hd__nor2_1
*I *1947:X O *D sky130_fd_sc_hd__or2_1
*CAP
1 *1957:B 9.2517e-05
2 *2045:C 5.86721e-05
3 *1948:B 0.000203873
4 *1947:X 0
5 *284:19 0.00023233
6 *284:4 0.000285013
7 *1948:B *1948:A 5.12055e-06
8 *1948:B *648:76 0.000181125
9 *1948:B *649:33 9.75779e-05
10 *1957:B *288:25 2.65505e-05
11 *284:19 *465:169 0.000158474
12 *284:19 *472:14 0.000158474
13 *2045:A *1957:B 9.41704e-05
14 *2045:A *2045:C 9.58714e-05
*RES
1 *1947:X *284:4 23 
2 *284:4 *1948:B 27.3293 
3 *284:4 *284:19 32.2579 
4 *284:19 *2045:C 24.0979 
5 *284:19 *1957:B 24.5743 
*END

*D_NET *285 0.00133496
*CONN
*I *1949:C I *D sky130_fd_sc_hd__and3_1
*I *1950:C I *D sky130_fd_sc_hd__and3b_1
*I *1948:Y O *D sky130_fd_sc_hd__nor2_1
*CAP
1 *1949:C 0
2 *1950:C 0
3 *1948:Y 0.00011509
4 *285:20 0.000106135
5 *285:12 0.000180405
6 *285:8 0.000189359
7 *285:8 *335:8 8.48124e-05
8 *285:8 *465:169 0
9 *285:12 *472:55 0.000253865
10 *285:20 *286:12 0.000110922
11 *285:20 *472:55 6.75241e-05
12 *285:20 *651:72 1.83564e-05
13 *2045:B *285:12 3.3577e-05
14 *170:70 *285:8 9.02657e-05
15 *273:42 *285:12 6.09219e-05
16 *273:42 *285:20 2.37237e-05
*RES
1 *1948:Y *285:8 40.61 
2 *285:8 *285:12 17.8379 
3 *285:12 *285:20 32.3407 
4 *285:20 *1950:C 23 
5 *285:12 *1949:C 23 
*END

*D_NET *286 0.0154225
*CONN
*I *2094:A I *D sky130_fd_sc_hd__or4_1
*I *2157:B1 I *D sky130_fd_sc_hd__o21a_1
*I *2163:A3 I *D sky130_fd_sc_hd__a32o_1
*I *2090:C_N I *D sky130_fd_sc_hd__or3b_1
*I *1951:A I *D sky130_fd_sc_hd__or2_2
*I *2007:B1 I *D sky130_fd_sc_hd__o221a_1
*I *1949:X O *D sky130_fd_sc_hd__and3_1
*CAP
1 *2094:A 0
2 *2157:B1 0.000482481
3 *2163:A3 2.14194e-05
4 *2090:C_N 0
5 *1951:A 6.80645e-05
6 *2007:B1 8.37909e-06
7 *1949:X 4.24857e-05
8 *286:93 0.00036046
9 *286:69 0.00117021
10 *286:63 0.00124612
11 *286:54 0.000232298
12 *286:46 0.00171002
13 *286:22 0.000655684
14 *286:12 0.00138945
15 *286:8 0.00197493
16 *1951:A *287:25 0
17 *1951:A *608:52 2.36844e-05
18 *2007:B1 *2007:B2 3.22879e-05
19 *2157:B1 *2163:B1 2.39868e-05
20 *286:12 *287:25 0
21 *286:12 *287:51 0
22 *286:12 *334:80 4.18957e-05
23 *286:12 *608:52 3.5664e-05
24 *286:12 *621:34 0
25 *286:12 *651:55 2.47241e-05
26 *286:12 *651:72 7.76364e-06
27 *286:12 *651:81 0
28 *286:12 *652:25 5.01247e-05
29 *286:22 *2072:A 0
30 *286:22 *287:25 0
31 *286:22 *314:24 2.11066e-05
32 *286:22 *488:37 0.000528927
33 *286:22 *490:65 0
34 *286:22 *490:67 0
35 *286:22 *609:25 0
36 *286:46 *2167:B1 7.71315e-05
37 *286:46 *2168:A2 0.000345655
38 *286:46 *2341:CLK 9.39339e-05
39 *286:46 *601:12 1.59094e-05
40 *286:46 *648:40 0.000229164
41 *286:46 *649:45 0.000247714
42 *286:46 *651:55 0
43 *286:54 *2084:B 9.84794e-05
44 *286:54 *2162:A_N 5.50049e-05
45 *286:54 *366:16 0.000110913
46 *286:54 *370:14 2.35393e-05
47 *286:54 *554:32 2.24151e-05
48 *286:54 *554:42 0.000163352
49 *286:54 *601:18 0.000136486
50 *286:54 *601:24 6.68107e-05
51 *286:54 *615:156 1.12487e-05
52 *286:54 *621:197 2.32101e-05
53 *286:63 *2160:C 2.64616e-05
54 *286:63 *601:12 4.87889e-05
55 *286:69 *2159:A1 4.9662e-05
56 *286:69 *319:10 0.000114074
57 *286:69 *414:44 0.00100533
58 *286:69 *422:10 4.75937e-05
59 *286:69 *546:31 4.63586e-05
60 *286:93 *2160:B 8.68016e-06
61 *286:93 *316:16 1.14154e-05
62 *286:93 *316:24 8.21763e-05
63 *286:93 *319:10 0.000462433
64 *286:93 *319:76 0.000372811
65 *286:93 *480:70 2.45255e-06
66 *286:93 *546:31 1.83667e-05
67 *286:93 *554:123 1.58186e-05
68 *1957:A *286:93 0.000236325
69 *2160:A *286:93 0.000296026
70 *2163:A1 *2157:B1 3.9056e-05
71 *2163:A1 *2163:A3 5.90675e-06
72 *2163:B2 *2157:B1 9.02364e-05
73 *2341:D *286:46 5.73018e-05
74 *170:70 *286:12 0
75 *170:70 *286:46 5.68853e-05
76 *246:10 *286:69 5.67058e-05
77 *271:16 *286:46 1.16622e-05
78 *271:26 *286:46 2.12347e-06
79 *271:64 *286:93 0.000126343
80 *273:42 *286:8 5.50106e-05
81 *280:100 *2007:B1 5.67058e-05
82 *282:10 *2157:B1 3.57716e-05
83 *285:20 *286:12 0.000110922
*RES
1 *1949:X *286:8 38.6214 
2 *286:8 *286:12 12.035 
3 *286:12 *286:22 40.15 
4 *286:22 *2007:B1 38.6214 
5 *286:12 *1951:A 39.2014 
6 *286:8 *286:46 36.1286 
7 *286:46 *286:54 36.1729 
8 *286:54 *2090:C_N 23 
9 *286:46 *286:63 17.5271 
10 *286:63 *286:69 30.515 
11 *286:69 *2163:A3 23.4971 
12 *286:69 *2157:B1 29.7321 
13 *286:63 *286:93 27.2629 
14 *286:93 *2094:A 23 
*END

*D_NET *287 0.00350469
*CONN
*I *2153:A1 I *D sky130_fd_sc_hd__o211a_1
*I *2008:B1 I *D sky130_fd_sc_hd__o221a_1
*I *1951:B I *D sky130_fd_sc_hd__or2_2
*I *2151:A I *D sky130_fd_sc_hd__nor2_1
*I *1950:X O *D sky130_fd_sc_hd__and3b_1
*CAP
1 *2153:A1 0
2 *2008:B1 0.000109093
3 *1951:B 2.9265e-05
4 *2151:A 0
5 *1950:X 0
6 *287:51 0.000173429
7 *287:25 0.000635984
8 *287:21 0.000797317
9 *287:14 0.000180788
10 *287:4 0.000307051
11 *1951:B *655:DIODE 5.67058e-05
12 *1951:B *359:6 0.000141954
13 *1951:B *360:16 4.6595e-05
14 *2008:B1 *314:24 9.86551e-06
15 *2008:B1 *608:52 0
16 *2008:B1 *609:25 0.000159619
17 *287:14 *379:10 0.000310647
18 *287:14 *621:34 6.38845e-05
19 *287:14 *651:72 1.14452e-05
20 *287:14 *651:81 5.01986e-05
21 *287:14 *652:25 0.00010018
22 *287:21 *334:80 0.00014196
23 *287:21 *379:10 1.56665e-05
24 *287:25 *465:169 0
25 *287:25 *608:52 0
26 *287:25 *609:25 1.01436e-05
27 *287:51 *288:10 2.8936e-05
28 *287:51 *334:80 4.17736e-05
29 *287:51 *334:86 2.96051e-05
30 *287:51 *379:8 2.93747e-05
31 *287:51 *379:10 2.32101e-05
32 *1951:A *287:25 0
33 *286:12 *287:25 0
34 *286:12 *287:51 0
35 *286:22 *287:25 0
*RES
1 *1950:X *287:4 23 
2 *287:4 *287:14 34.8264 
3 *287:14 *2151:A 23 
4 *287:4 *287:21 2.05071 
5 *287:21 *287:25 23.2443 
6 *287:25 *1951:B 39.5743 
7 *287:25 *2008:B1 40.2579 
8 *287:21 *287:51 32.7757 
9 *287:51 *2153:A1 23 
*END

*D_NET *288 0.00273028
*CONN
*I *1957:C I *D sky130_fd_sc_hd__nor3_4
*I *1996:B I *D sky130_fd_sc_hd__nor2_1
*I *2045:D I *D sky130_fd_sc_hd__or4_2
*I *1956:X O *D sky130_fd_sc_hd__or2_1
*CAP
1 *1957:C 0
2 *1996:B 0
3 *2045:D 0
4 *1956:X 0.000426244
5 *288:31 0.000119038
6 *288:25 0.000269272
7 *288:14 0.000169374
8 *288:10 0.000445383
9 *288:10 *295:101 0.000173442
10 *288:10 *334:80 0
11 *288:10 *465:169 0.00031842
12 *288:14 *472:55 5.3304e-05
13 *288:25 *472:55 9.67842e-05
14 *288:31 *316:8 0.000188427
15 *288:31 *414:10 0.00023489
16 *288:31 *648:89 0
17 *1957:B *288:25 2.65505e-05
18 *2045:A *288:14 5.50049e-05
19 *2045:A *288:25 0.000125213
20 *287:51 *288:10 2.8936e-05
*RES
1 *1956:X *288:10 45.8507 
2 *288:10 *288:14 15.6214 
3 *288:14 *2045:D 23 
4 *288:14 *288:25 3.16929 
5 *288:25 *288:31 33.3143 
6 *288:31 *1996:B 23 
7 *288:25 *1957:C 23 
*END

*D_NET *289 0.00986979
*CONN
*I *2056:A I *D sky130_fd_sc_hd__nand3_1
*I *2063:A1 I *D sky130_fd_sc_hd__o21ba_1
*I *2224:A1 I *D sky130_fd_sc_hd__o211a_1
*I *1959:A I *D sky130_fd_sc_hd__inv_2
*I *2057:A I *D sky130_fd_sc_hd__and4_1
*I *1958:X O *D sky130_fd_sc_hd__or4b_4
*CAP
1 *2056:A 3.80977e-05
2 *2063:A1 4.24639e-05
3 *2224:A1 6.47414e-05
4 *1959:A 0
5 *2057:A 0
6 *1958:X 6.74574e-06
7 *289:35 0.00135293
8 *289:27 0.00261493
9 *289:17 0.00159174
10 *289:6 0.000276115
11 *2056:A *345:6 2.64616e-05
12 *2063:A1 *607:51 2.64616e-05
13 *2224:A1 *462:12 0.000185434
14 *2224:A1 *559:34 0.000156058
15 *289:6 *338:10 5.67058e-05
16 *289:6 *498:46 5.67058e-05
17 *289:17 *2057:C 5.62996e-05
18 *289:17 *2058:C 5.3304e-05
19 *289:17 *334:16 8.99007e-05
20 *289:17 *338:10 0.000185428
21 *289:17 *338:21 4.08664e-05
22 *289:17 *346:6 9.58714e-05
23 *289:17 *346:12 0.000171268
24 *289:17 *498:46 0.000169507
25 *289:27 *2043:B 0
26 *289:27 *332:8 0
27 *289:27 *334:16 3.41998e-06
28 *289:27 *346:12 2.31116e-05
29 *289:27 *352:8 0
30 *289:27 *465:125 0
31 *289:35 *2055:A 0.000355029
32 *289:35 *2063:A2 0.000246757
33 *289:35 *2224:A2 0
34 *289:35 *2378:A 0.000182826
35 *289:35 *343:8 3.92407e-05
36 *289:35 *344:8 3.7122e-06
37 *289:35 *465:125 0
38 *289:35 *559:8 0.000975083
39 *289:35 *559:34 1.22822e-05
40 *289:35 *607:53 0.000219891
41 *170:42 *289:27 0
42 *213:12 *289:27 0.000450392
*RES
1 *1958:X *289:6 23.6214 
2 *289:6 *2057:A 23 
3 *289:6 *289:17 22.395 
4 *289:17 *289:27 26.7637 
5 *289:27 *289:35 45.0357 
6 *289:35 *1959:A 23 
7 *289:35 *2224:A1 26.0036 
8 *289:27 *2063:A1 38.6214 
9 *289:17 *2056:A 38.6214 
*END

*D_NET *290 0.010169
*CONN
*I *2057:B I *D sky130_fd_sc_hd__and4_1
*I *1961:A I *D sky130_fd_sc_hd__inv_2
*I *1960:X O *D sky130_fd_sc_hd__or4b_2
*CAP
1 *2057:B 0
2 *1961:A 0
3 *1960:X 0
4 *290:33 0.000309449
5 *290:18 0.00102691
6 *290:12 0.00253329
7 *290:4 0.00181583
8 *290:12 *1960:C 5.41385e-05
9 *290:12 *1984:A2 0
10 *290:12 *1984:B2 5.61019e-05
11 *290:12 *1987:A1 0
12 *290:12 *1989:A 0.000215538
13 *290:12 *293:10 0
14 *290:12 *295:8 0
15 *290:12 *295:28 0
16 *290:12 *295:43 0
17 *290:12 *295:49 0
18 *290:12 *301:12 0
19 *290:12 *308:10 0.000163352
20 *290:12 *309:8 0.000144791
21 *290:12 *310:10 0.000369929
22 *290:12 *311:8 0.000173385
23 *290:12 *495:25 0
24 *290:12 *497:41 6.48049e-05
25 *290:12 *541:18 0
26 *290:12 *542:20 5.1038e-05
27 *290:12 *542:48 8.16149e-05
28 *290:12 *555:10 5.24393e-05
29 *290:12 *555:20 0.000296035
30 *290:12 *634:21 7.73735e-05
31 *290:12 *634:95 0
32 *290:18 *301:12 0
33 *290:18 *471:8 0.000165593
34 *290:18 *471:19 0.00021382
35 *290:18 *471:36 0.000141954
36 *290:18 *488:10 0.000164291
37 *290:18 *488:16 0.00121297
38 *290:18 *542:12 0.000321884
39 *290:18 *542:14 2.26489e-05
40 *290:18 *542:16 0.000150478
41 *290:18 *542:20 6.66589e-05
42 *290:33 *338:10 0.000131304
43 *290:33 *496:41 1.8722e-05
44 *290:33 *613:53 0
45 *290:33 *634:21 7.26607e-05
*RES
1 *1960:X *290:4 23 
2 *290:4 *290:12 45.8332 
3 *290:12 *290:18 44.7146 
4 *290:18 *1961:A 23 
5 *290:4 *290:33 34.8264 
6 *290:33 *2057:B 23 
*END

*D_NET *291 0.0251888
*CONN
*I *711:DIODE I *D sky130_fd_sc_hd__diode_2
*I *2390:A I *D sky130_fd_sc_hd__buf_1
*I *2389:A I *D sky130_fd_sc_hd__buf_2
*I *710:DIODE I *D sky130_fd_sc_hd__diode_2
*I *709:DIODE I *D sky130_fd_sc_hd__diode_2
*I *2388:A I *D sky130_fd_sc_hd__clkbuf_2
*I *657:DIODE I *D sky130_fd_sc_hd__diode_2
*I *1963:X O *D sky130_fd_sc_hd__and2b_1
*CAP
1 *711:DIODE 5.2153e-05
2 *2390:A 0.00022794
3 *2389:A 0.000208541
4 *710:DIODE 0
5 *709:DIODE 2.78061e-05
6 *2388:A 5.27122e-05
7 *657:DIODE 0
8 *1963:X 8.33441e-05
9 *291:99 0.000630694
10 *291:95 0.00211093
11 *291:89 0.00311935
12 *291:72 0.00162458
13 *291:63 0.00120101
14 *291:33 0.000869259
15 *291:29 0.0026296
16 *291:17 0.00398069
17 *291:6 0.00107919
18 *709:DIODE *2253:A 4.34745e-05
19 *711:DIODE *490:63 5.26733e-06
20 *2388:A *2253:A 6.81575e-05
21 *2389:A *1971:C 1.58805e-05
22 *2389:A *488:16 0
23 *2390:A *314:24 4.21594e-06
24 *2390:A *608:52 4.21594e-06
25 *2390:A *609:25 0
26 *2390:A *621:34 0
27 *291:17 *618:24 0
28 *291:17 *619:23 0.000127272
29 *291:17 *619:29 0.000595464
30 *291:29 *2312:CLK 0
31 *291:29 *470:12 0.000386144
32 *291:29 *470:18 0.000138082
33 *291:29 *470:22 3.16171e-05
34 *291:29 *470:37 0
35 *291:29 *470:39 0
36 *291:29 *470:92 0.000192077
37 *291:29 *470:139 0.000192087
38 *291:29 *475:12 0
39 *291:29 *615:60 0
40 *291:29 *618:24 0
41 *291:29 *619:29 0.00069495
42 *291:29 *624:10 0.000136486
43 *291:29 *629:8 3.68205e-05
44 *291:29 *630:8 0.000351626
45 *291:29 *631:10 4.57432e-05
46 *291:29 *635:40 0
47 *291:29 *637:14 5.62672e-05
48 *291:33 *2226:A1 0.000279936
49 *291:33 *2226:B1 7.76364e-06
50 *291:33 *467:139 0.000264347
51 *291:33 *474:10 0
52 *291:33 *635:19 0.000410924
53 *291:33 *635:40 0.000537305
54 *291:63 *2173:C 0.00022677
55 *291:63 *2345:CLK 3.7122e-06
56 *291:63 *432:10 5.50049e-05
57 *291:63 *479:53 4.5051e-05
58 *291:63 *487:25 2.81066e-05
59 *291:63 *487:32 1.842e-05
60 *291:63 *488:73 5.3304e-05
61 *291:63 *603:53 9.85891e-05
62 *291:72 *603:53 3.17516e-05
63 *291:89 *488:16 0
64 *291:89 *488:63 0.000150242
65 *291:89 *604:33 0.000176167
66 *291:89 *604:35 0.00016002
67 *291:95 *2197:B 1.14452e-05
68 *291:95 *2200:B1 1.59094e-05
69 *291:95 *2204:B 3.84478e-06
70 *291:95 *434:14 0.000121856
71 *291:95 *453:10 2.21969e-05
72 *291:95 *473:24 3.16665e-05
73 *291:95 *489:29 3.3746e-05
74 *291:95 *603:47 0.000185428
75 *291:99 *430:25 0
76 *291:99 *603:16 0.000533316
77 *291:99 *605:14 6.38845e-05
78 *291:99 *605:25 0
79 *291:99 *621:34 0
80 *1963:B *291:6 2.54193e-05
81 *1963:B *291:17 4.04598e-06
82 *2345:D *291:63 6.44875e-05
83 *21:28 *291:17 1.02949e-05
84 *149:18 *291:63 4.26859e-05
85 *163:18 *2389:A 0
86 *163:18 *291:89 0
87 *219:10 *291:29 0.000351599
88 *261:8 *291:99 5.29019e-05
89 *268:10 *291:33 4.3053e-05
90 *281:33 *2390:A 0
*RES
1 *1963:X *291:6 24.0979 
2 *291:6 *657:DIODE 23 
3 *291:6 *291:17 32.8971 
4 *291:17 *291:29 41.1489 
5 *291:29 *291:33 33.9846 
6 *291:33 *2388:A 24.0979 
7 *291:33 *709:DIODE 23.6214 
8 *291:17 *291:63 33.27 
9 *291:63 *710:DIODE 23 
10 *291:63 *291:72 16.0979 
11 *291:72 *2389:A 41.3143 
12 *291:72 *291:89 48.85 
13 *291:89 *291:95 37.3093 
14 *291:95 *291:99 23.5964 
15 *291:99 *2390:A 42.0186 
16 *291:99 *711:DIODE 38.6214 
*END

*D_NET *292 0.00600238
*CONN
*I *1978:A2 I *D sky130_fd_sc_hd__a22o_1
*I *1969:A2 I *D sky130_fd_sc_hd__a22o_1
*I *1987:A2 I *D sky130_fd_sc_hd__a22o_1
*I *1984:A2 I *D sky130_fd_sc_hd__a22o_1
*I *1990:A2 I *D sky130_fd_sc_hd__a22o_1
*I *1975:A2 I *D sky130_fd_sc_hd__a22o_1
*I *1972:A2 I *D sky130_fd_sc_hd__a22o_1
*I *1964:Y O *D sky130_fd_sc_hd__nor2_2
*CAP
1 *1978:A2 2.01521e-05
2 *1969:A2 2.44422e-05
3 *1987:A2 0
4 *1984:A2 0.000288975
5 *1990:A2 2.34823e-05
6 *1975:A2 1.74641e-05
7 *1972:A2 0.000155956
8 *1964:Y 0.000292744
9 *292:59 0.000535908
10 *292:44 0.000481674
11 *292:31 0.000246742
12 *292:18 0.000311919
13 *292:16 0.000344669
14 *292:10 0.000495178
15 *1969:A2 *1969:A1 9.84851e-05
16 *1969:A2 *634:95 5.41385e-05
17 *1972:A2 *1969:A1 4.40504e-05
18 *1972:A2 *295:28 6.60558e-05
19 *1972:A2 *640:25 7.7086e-05
20 *1975:A2 *2035:A 0
21 *1978:A2 *1978:A1 9.84851e-05
22 *1978:A2 *556:48 9.84851e-05
23 *1984:A2 *1987:A1 1.14452e-05
24 *1984:A2 *307:16 0
25 *1984:A2 *309:8 0.000151909
26 *1984:A2 *555:20 1.94522e-05
27 *1984:A2 *613:23 1.47563e-05
28 *1984:A2 *635:40 9.58444e-05
29 *1984:A2 *635:50 2.90712e-05
30 *1990:A2 *1975:B2 0
31 *292:10 *297:8 0.000129513
32 *292:10 *638:36 0.000267173
33 *292:16 *295:20 0
34 *292:16 *297:8 0.000168754
35 *292:16 *299:12 1.46331e-05
36 *292:18 *1969:A1 0.000179702
37 *292:18 *295:24 0
38 *292:18 *295:28 1.97329e-05
39 *292:18 *299:12 1.02387e-05
40 *292:31 *1975:A1 2.93845e-05
41 *292:31 *470:54 5.50106e-05
42 *292:44 *1975:A1 3.22879e-05
43 *292:44 *1975:B2 0.000217038
44 *292:44 *2035:A 0
45 *292:44 *301:8 0.000122069
46 *292:44 *470:54 0.000140103
47 *292:59 *1975:B2 6.37845e-05
48 *292:59 *1987:A1 0.00026413
49 *292:59 *555:10 0.000106238
50 *292:59 *555:20 4.3153e-05
51 *292:59 *613:12 4.08641e-05
52 *290:12 *1984:A2 0
*RES
1 *1964:Y *292:10 42.9093 
2 *292:10 *292:16 4.08071 
3 *292:16 *292:18 2.96214 
4 *292:18 *1972:A2 40.9621 
5 *292:18 *292:31 15.6214 
6 *292:31 *1975:A2 23.4971 
7 *292:31 *292:44 6.38 
8 *292:44 *1990:A2 23.4971 
9 *292:44 *292:59 20.8621 
10 *292:59 *1984:A2 45.0221 
11 *292:59 *1987:A2 38 
12 *292:16 *1969:A2 39.0979 
13 *292:10 *1978:A2 39.0979 
*END

*D_NET *293 0.0020524
*CONN
*I *2393:A I *D sky130_fd_sc_hd__clkbuf_2
*I *1965:Y O *D sky130_fd_sc_hd__nor2_1
*CAP
1 *2393:A 0
2 *1965:Y 0.000363703
3 *293:10 0.000363703
4 *293:10 *659:DIODE 0.000113153
5 *293:10 *1965:B 0.0002263
6 *293:10 *1987:A1 2.3529e-05
7 *293:10 *295:8 4.08641e-05
8 *293:10 *307:16 0.000632107
9 *293:10 *542:61 3.20914e-05
10 *293:10 *608:20 0.0002263
11 *293:10 *634:95 3.0647e-05
12 *290:12 *293:10 0
*RES
1 *1965:Y *293:10 49.1236 
2 *293:10 *2393:A 38 
*END

*D_NET *294 0.000349836
*CONN
*I *1970:A1 I *D sky130_fd_sc_hd__o21a_1
*I *1966:X O *D sky130_fd_sc_hd__and3_1
*CAP
1 *1970:A1 5.16841e-05
2 *1966:X 6.04242e-05
3 *294:8 0.000112108
4 *1970:A1 *638:36 2.93845e-05
5 *294:8 *1964:B 5.80963e-05
6 *294:8 *299:12 3.81391e-05
*RES
1 *1966:X *294:8 39.5536 
2 *294:8 *1970:A1 39.1186 
*END

*D_NET *295 0.0171259
*CONN
*I *2005:B1 I *D sky130_fd_sc_hd__a22o_1
*I *2003:B1 I *D sky130_fd_sc_hd__a22o_1
*I *1978:B1 I *D sky130_fd_sc_hd__a22o_1
*I *1969:B1 I *D sky130_fd_sc_hd__a22o_1
*I *1975:B1 I *D sky130_fd_sc_hd__a22o_1
*I *1984:B1 I *D sky130_fd_sc_hd__a22o_1
*I *1986:B I *D sky130_fd_sc_hd__and2_1
*I *1989:B I *D sky130_fd_sc_hd__and2_1
*I *1972:B1 I *D sky130_fd_sc_hd__a22o_1
*I *1967:Y O *D sky130_fd_sc_hd__nor2_2
*CAP
1 *2005:B1 0
2 *2003:B1 0
3 *1978:B1 0
4 *1969:B1 3.2572e-05
5 *1975:B1 0
6 *1984:B1 0.000218264
7 *1986:B 8.08242e-05
8 *1989:B 0
9 *1972:B1 1.61289e-05
10 *1967:Y 6.55145e-05
11 *295:107 0.000166855
12 *295:101 0.00101016
13 *295:95 0.00223121
14 *295:49 0.00027997
15 *295:43 0.000762559
16 *295:28 0.000579612
17 *295:24 0.000424589
18 *295:20 0.000382624
19 *295:16 0.000534622
20 *295:10 0.00177873
21 *295:8 6.55145e-05
22 *1969:B1 *634:95 2.93747e-05
23 *1972:B1 *555:20 2.4754e-05
24 *1984:B1 *1984:B2 5.50049e-05
25 *1984:B1 *1988:A1 0.000221992
26 *1984:B1 *635:40 3.88863e-05
27 *1986:B *1989:A 8.60475e-05
28 *1986:B *308:10 9.84794e-05
29 *295:16 *303:10 6.17437e-06
30 *295:16 *556:48 6.36995e-05
31 *295:16 *651:91 0.000484512
32 *295:20 *301:12 0.000244526
33 *295:24 *301:12 0.000139647
34 *295:28 *311:8 0
35 *295:43 *1972:A1 5.90675e-06
36 *295:43 *1972:B2 0.000115052
37 *295:43 *310:10 7.62945e-05
38 *295:43 *311:8 7.91493e-05
39 *295:43 *555:20 0.000228903
40 *295:43 *608:77 0
41 *295:43 *640:25 0
42 *295:49 *1989:A 5.3304e-05
43 *295:49 *310:10 9.90772e-05
44 *295:49 *640:25 0
45 *295:95 *651:87 7.61097e-05
46 *295:95 *651:91 0.0019816
47 *295:95 *652:10 2.34437e-05
48 *295:101 *1956:A 4.79641e-05
49 *295:101 *1956:B 0.000127821
50 *295:101 *2005:A1 6.89706e-05
51 *295:101 *2005:B2 0.000661051
52 *295:101 *316:78 0.000163839
53 *295:101 *465:178 5.41385e-05
54 *295:101 *465:189 0.000312888
55 *295:101 *472:10 0.00033936
56 *295:101 *472:114 0.00033935
57 *295:101 *613:124 0.00013249
58 *295:101 *651:87 0.000658443
59 *295:101 *652:6 3.53115e-05
60 *295:101 *652:10 0.000143655
61 *295:101 *652:17 0.000468711
62 *295:107 *2004:A 0
63 *295:107 *361:18 0.000240426
64 *295:107 *613:135 2.76611e-06
65 *1972:A2 *295:28 6.60558e-05
66 *59:21 *1986:B 6.98147e-05
67 *59:21 *295:49 6.84456e-05
68 *273:34 *1972:B1 1.94693e-05
69 *273:34 *295:43 9.24795e-06
70 *288:10 *295:101 0.000173442
71 *290:12 *295:8 0
72 *290:12 *295:28 0
73 *290:12 *295:43 0
74 *290:12 *295:49 0
75 *292:16 *295:20 0
76 *292:18 *295:24 0
77 *292:18 *295:28 1.97329e-05
78 *293:10 *295:8 4.08641e-05
*RES
1 *1967:Y *295:8 39.2014 
2 *295:8 *295:10 15 
3 *295:10 *295:16 6.85643 
4 *295:16 *295:20 18.3143 
5 *295:20 *295:24 3.35571 
6 *295:24 *295:28 18.6664 
7 *295:28 *1972:B1 23.6214 
8 *295:28 *295:43 23.8036 
9 *295:43 *295:49 19.3086 
10 *295:49 *1989:B 23 
11 *295:49 *1986:B 25.5271 
12 *295:43 *1984:B1 41.9564 
13 *295:24 *1975:B1 38 
14 *295:20 *1969:B1 38.6214 
15 *295:16 *1978:B1 23 
16 *295:10 *295:95 23.7386 
17 *295:95 *295:101 32.2314 
18 *295:101 *295:107 33.3143 
19 *295:107 *2003:B1 23 
20 *295:101 *2005:B1 23 
*END

*D_NET *296 0.00832708
*CONN
*I *2000:A1 I *D sky130_fd_sc_hd__o211a_1
*I *2007:B2 I *D sky130_fd_sc_hd__o221a_1
*I *2008:B2 I *D sky130_fd_sc_hd__o221a_1
*I *1982:A2 I *D sky130_fd_sc_hd__o211a_1
*I *1993:A2 I *D sky130_fd_sc_hd__o211a_1
*I *1968:X O *D sky130_fd_sc_hd__or2_2
*CAP
1 *2000:A1 0
2 *2007:B2 0.000289467
3 *2008:B2 5.20456e-05
4 *1982:A2 0
5 *1993:A2 2.876e-05
6 *1968:X 0.000208148
7 *296:48 0.000916768
8 *296:40 0.000942322
9 *296:25 0.000167246
10 *296:15 0.000767748
11 *296:6 0.000470343
12 *1993:A2 *1993:B1 9.95589e-06
13 *2007:B2 *314:24 2.93747e-05
14 *2007:B2 *483:33 1.92034e-05
15 *2008:B2 *483:33 5.46392e-06
16 *296:6 *1981:B2 9.29957e-05
17 *296:6 *1993:B1 7.53384e-06
18 *296:6 *305:10 0.000356724
19 *296:6 *488:37 8.99384e-05
20 *296:15 *1993:B1 2.93747e-05
21 *296:15 *2073:A 2.93747e-05
22 *296:15 *488:37 0.000408609
23 *296:25 *1982:A1 0.000137624
24 *296:25 *1982:B1 4.07999e-05
25 *296:25 *556:33 0.000116424
26 *296:25 *608:37 1.40958e-05
27 *296:25 *620:18 0.000244526
28 *296:40 *2073:A 7.15126e-05
29 *296:40 *318:10 0.000352415
30 *296:40 *360:16 0.00021356
31 *296:40 *488:37 0.000341684
32 *296:40 *492:33 1.03955e-05
33 *296:40 *493:52 0
34 *296:40 *560:10 0.000103637
35 *296:48 *2000:A2 5.94125e-05
36 *296:48 *314:8 0.000187129
37 *296:48 *318:10 9.5877e-05
38 *296:48 *430:10 6.16439e-05
39 *1981:A2 *296:6 5.3304e-05
40 *2007:B1 *2007:B2 3.22879e-05
41 *280:25 *296:6 0.000267161
42 *280:38 *296:6 0.00019486
43 *280:51 *296:6 9.90162e-05
44 *280:85 *2008:B2 5.50106e-05
45 *280:85 *296:40 0.000352415
46 *280:85 *296:48 0.000237531
47 *280:100 *2007:B2 6.33627e-05
*RES
1 *1968:X *296:6 31.7207 
2 *296:6 *1993:A2 23.4971 
3 *296:6 *296:15 5.86214 
4 *296:15 *296:25 34.9093 
5 *296:25 *1982:A2 23 
6 *296:15 *296:40 40.875 
7 *296:40 *296:48 39.0936 
8 *296:48 *2008:B2 24.4707 
9 *296:48 *2007:B2 27.8057 
10 *296:40 *2000:A1 23 
*END

*D_NET *297 0.000740643
*CONN
*I *1970:A2 I *D sky130_fd_sc_hd__o21a_1
*I *1969:X O *D sky130_fd_sc_hd__a22o_1
*CAP
1 *1970:A2 0
2 *1969:X 0.000163036
3 *297:8 0.000163036
4 *297:8 *1964:B 6.07611e-06
5 *297:8 *299:12 0.000110228
6 *297:8 *303:10 0
7 *292:10 *297:8 0.000129513
8 *292:16 *297:8 0.000168754
*RES
1 *1969:X *297:8 42.7229 
2 *297:8 *1970:A2 38 
*END

*D_NET *298 0.000162759
*CONN
*I *1973:A1 I *D sky130_fd_sc_hd__o21a_1
*I *1971:X O *D sky130_fd_sc_hd__and3_1
*CAP
1 *1973:A1 5.09206e-05
2 *1971:X 5.09206e-05
3 *1973:A1 *1971:B 5.90675e-06
4 *1973:A1 *1973:B1 5.50106e-05
*RES
1 *1971:X *1973:A1 47.1186 
*END

*D_NET *299 0.00441764
*CONN
*I *1973:A2 I *D sky130_fd_sc_hd__o21a_1
*I *1972:X O *D sky130_fd_sc_hd__a22o_1
*CAP
1 *1973:A2 0
2 *1972:X 4.5791e-05
3 *299:12 0.000756979
4 *299:8 0.00080277
5 *299:12 *1964:B 0
6 *299:12 *1969:A1 6.83348e-05
7 *299:12 *325:10 0.000138718
8 *299:12 *465:64 0
9 *299:12 *479:44 0.000832068
10 *299:12 *608:65 0.000123428
11 *299:12 *608:71 0.000308634
12 *299:12 *640:25 8.62876e-05
13 *163:18 *299:12 0.000887669
14 *273:28 *299:8 5.50049e-05
15 *273:28 *299:12 0.000138718
16 *292:16 *299:12 1.46331e-05
17 *292:18 *299:12 1.02387e-05
18 *294:8 *299:12 3.81391e-05
19 *297:8 *299:12 0.000110228
*RES
1 *1972:X *299:8 38.6214 
2 *299:8 *299:12 39.795 
3 *299:12 *1973:A2 23 
*END

*D_NET *300 0.000124612
*CONN
*I *1976:A1 I *D sky130_fd_sc_hd__o21a_1
*I *1974:X O *D sky130_fd_sc_hd__and3_1
*CAP
1 *1976:A1 4.61623e-05
2 *1974:X 4.61623e-05
3 *1976:A1 *487:40 3.22879e-05
*RES
1 *1974:X *1976:A1 47.1186 
*END

*D_NET *301 0.0037664
*CONN
*I *1976:A2 I *D sky130_fd_sc_hd__o21a_1
*I *1975:X O *D sky130_fd_sc_hd__a22o_1
*CAP
1 *1976:A2 0
2 *1975:X 0.000242939
3 *301:12 0.00104526
4 *301:8 0.0012882
5 *301:8 *1975:A1 0.000139352
6 *301:12 *303:10 0.000342125
7 *301:12 *488:16 0
8 *301:12 *542:48 0
9 *301:12 *608:10 2.76611e-06
10 *301:12 *608:12 0.000134917
11 *301:12 *608:14 5.68527e-05
12 *301:12 *608:20 7.75329e-06
13 *290:12 *301:12 0
14 *290:18 *301:12 0
15 *292:44 *301:8 0.000122069
16 *295:20 *301:12 0.000244526
17 *295:24 *301:12 0.000139647
*RES
1 *1975:X *301:8 41.48 
2 *301:8 *301:12 33.8086 
3 *301:12 *1976:A2 23 
*END

*D_NET *302 0.000157776
*CONN
*I *1979:A1 I *D sky130_fd_sc_hd__o21a_1
*I *1977:X O *D sky130_fd_sc_hd__and3_1
*CAP
1 *1979:A1 4.44111e-05
2 *1977:X 4.44111e-05
3 *1979:A1 *1966:B 5.50106e-05
4 *1979:A1 *1977:C 1.39431e-05
5 *1979:A1 *488:37 0
*RES
1 *1977:X *1979:A1 47.1186 
*END

*D_NET *303 0.001233
*CONN
*I *1979:A2 I *D sky130_fd_sc_hd__o21a_1
*I *1978:X O *D sky130_fd_sc_hd__a22o_1
*CAP
1 *1979:A2 0
2 *1978:X 0.000318624
3 *303:10 0.000318624
4 *303:10 *1964:B 2.8241e-05
5 *303:10 *1978:A1 0.00014196
6 *303:10 *556:48 1.03836e-05
7 *303:10 *608:20 6.6869e-05
8 *295:16 *303:10 6.17437e-06
9 *297:8 *303:10 0
10 *301:12 *303:10 0.000342125
*RES
1 *1978:X *303:10 44.7736 
2 *303:10 *1979:A2 38 
*END

*D_NET *304 0.00065065
*CONN
*I *1981:B2 I *D sky130_fd_sc_hd__a22o_1
*I *1980:X O *D sky130_fd_sc_hd__or2_1
*CAP
1 *1981:B2 0.000202933
2 *1980:X 0.000202933
3 *1981:A2 *1981:B2 5.3304e-05
4 *280:38 *1981:B2 9.84851e-05
5 *296:6 *1981:B2 9.29957e-05
*RES
1 *1980:X *1981:B2 49.9771 
*END

*D_NET *305 0.00218618
*CONN
*I *1982:B1 I *D sky130_fd_sc_hd__o211a_1
*I *1981:X O *D sky130_fd_sc_hd__a22o_1
*CAP
1 *1982:B1 0.000258987
2 *1981:X 0.000213883
3 *305:10 0.00047287
4 *1982:B1 *1982:A1 1.57571e-05
5 *1982:B1 *1982:C1 2.02517e-05
6 *1982:B1 *608:20 0.000148698
7 *1982:B1 *608:37 0.000301488
8 *305:10 *488:37 0.000356724
9 *305:10 *491:48 0
10 *305:10 *498:81 0
11 *296:6 *305:10 0.000356724
12 *296:25 *1982:B1 4.07999e-05
*RES
1 *1981:X *305:10 44.2143 
2 *305:10 *1982:B1 45.3121 
*END

*D_NET *306 0.000200855
*CONN
*I *1985:A1 I *D sky130_fd_sc_hd__o21a_1
*I *1983:X O *D sky130_fd_sc_hd__and3_1
*CAP
1 *1985:A1 8.81103e-05
2 *1983:X 8.81103e-05
3 *1985:A1 *560:36 1.21972e-05
4 *281:14 *1985:A1 1.24376e-05
*RES
1 *1983:X *1985:A1 47.6157 
*END

*D_NET *307 0.00373795
*CONN
*I *1985:A2 I *D sky130_fd_sc_hd__o21a_1
*I *1984:X O *D sky130_fd_sc_hd__a22o_1
*CAP
1 *1985:A2 0
2 *1984:X 0
3 *307:16 0.00116842
4 *307:6 0.00116842
5 *307:16 *659:DIODE 4.60366e-05
6 *307:16 *1975:B2 0.000215791
7 *307:16 *541:12 0.000185755
8 *307:16 *541:18 1.75951e-05
9 *307:16 *542:61 2.79064e-05
10 *307:16 *542:82 7.91102e-05
11 *307:16 *560:36 5.50106e-05
12 *307:16 *613:23 9.28739e-05
13 *307:16 *613:53 0
14 *307:16 *614:44 2.24608e-05
15 *307:16 *614:48 2.64616e-05
16 *307:16 *634:63 0
17 *1984:A2 *307:16 0
18 *245:8 *307:16 0
19 *280:12 *307:16 0
20 *293:10 *307:16 0.000632107
*RES
1 *1984:X *307:6 38 
2 *307:6 *307:16 38.49 
3 *307:16 *1985:A2 23 
*END

*D_NET *308 0.00131885
*CONN
*I *1988:A1 I *D sky130_fd_sc_hd__o21a_1
*I *1986:X O *D sky130_fd_sc_hd__and2_1
*CAP
1 *1988:A1 8.99268e-05
2 *1986:X 0.000109093
3 *308:10 0.00019902
4 *1988:A1 *635:40 0.000264559
5 *308:10 *1984:B2 7.56417e-05
6 *1984:B1 *1988:A1 0.000221992
7 *1986:B *308:10 9.84794e-05
8 *59:21 *308:10 9.67842e-05
9 *290:12 *308:10 0.000163352
*RES
1 *1986:X *308:10 41.3557 
2 *308:10 *1988:A1 41.0036 
*END

*D_NET *309 0.00129796
*CONN
*I *1988:A2 I *D sky130_fd_sc_hd__o21a_1
*I *1987:X O *D sky130_fd_sc_hd__a22o_1
*CAP
1 *1988:A2 0.000277659
2 *1987:X 0.000121808
3 *309:8 0.000399466
4 *1988:A2 *635:40 0.000192185
5 *309:8 *555:20 1.01436e-05
6 *1984:A2 *309:8 0.000151909
7 *290:12 *309:8 0.000144791
*RES
1 *1987:X *309:8 42.0186 
2 *309:8 *1988:A2 41.9564 
*END

*D_NET *310 0.000989912
*CONN
*I *1991:A1 I *D sky130_fd_sc_hd__o21a_1
*I *1989:X O *D sky130_fd_sc_hd__and2_1
*CAP
1 *1991:A1 0
2 *1989:X 0.000194803
3 *310:10 0.000194803
4 *59:21 *310:10 5.50049e-05
5 *290:12 *310:10 0.000369929
6 *295:43 *310:10 7.62945e-05
7 *295:49 *310:10 9.90772e-05
*RES
1 *1989:X *310:10 43.6964 
2 *310:10 *1991:A1 38 
*END

*D_NET *311 0.000642639
*CONN
*I *1991:A2 I *D sky130_fd_sc_hd__o21a_1
*I *1990:X O *D sky130_fd_sc_hd__a22o_1
*CAP
1 *1991:A2 0
2 *1990:X 0.000195052
3 *311:8 0.000195052
4 *290:12 *311:8 0.000173385
5 *295:28 *311:8 0
6 *295:43 *311:8 7.91493e-05
*RES
1 *1990:X *311:8 42.7229 
2 *311:8 *1991:A2 38 
*END

*D_NET *312 0.000527514
*CONN
*I *1993:B1 I *D sky130_fd_sc_hd__o211a_1
*I *1992:X O *D sky130_fd_sc_hd__a21o_1
*CAP
1 *1993:B1 7.7208e-05
2 *1992:X 0.000105804
3 *312:8 0.000183012
4 *312:8 *560:20 4.77554e-05
5 *1993:A2 *1993:B1 9.95589e-06
6 *164:12 *312:8 0
7 *280:51 *312:8 6.6869e-05
8 *296:6 *1993:B1 7.53384e-06
9 *296:15 *1993:B1 2.93747e-05
*RES
1 *1992:X *312:8 39.9057 
2 *312:8 *1993:B1 39.6157 
*END

*D_NET *313 0.000882078
*CONN
*I *1994:B1 I *D sky130_fd_sc_hd__o21a_1
*I *1993:X O *D sky130_fd_sc_hd__o211a_1
*CAP
1 *1994:B1 0
2 *1993:X 0.000245716
3 *313:10 0.000245716
4 *313:10 *489:29 0.000141879
5 *313:10 *492:14 0
6 *280:38 *313:10 0.000138444
7 *280:51 *313:10 0.00010018
8 *281:27 *313:10 1.01436e-05
*RES
1 *1993:X *313:10 42.4329 
2 *313:10 *1994:B1 38 
*END

*D_NET *314 0.00152759
*CONN
*I *2008:C1 I *D sky130_fd_sc_hd__o221a_1
*I *2007:C1 I *D sky130_fd_sc_hd__o221a_1
*I *1995:X O *D sky130_fd_sc_hd__and2_1
*CAP
1 *2008:C1 0
2 *2007:C1 0
3 *1995:X 5.20383e-05
4 *314:24 0.000505983
5 *314:8 0.000558021
6 *314:24 *608:52 0
7 *2007:B2 *314:24 2.93747e-05
8 *2008:B1 *314:24 9.86551e-06
9 *2390:A *314:24 4.21594e-06
10 *280:85 *314:8 0.00010655
11 *280:100 *314:24 5.3304e-05
12 *286:22 *314:24 2.11066e-05
13 *296:48 *314:8 0.000187129
*RES
1 *1995:X *314:8 25.5479 
2 *314:8 *314:24 48.0065 
3 *314:24 *2007:C1 23 
4 *314:8 *2008:C1 23 
*END

*D_NET *315 0.00134411
*CONN
*I *2001:B I *D sky130_fd_sc_hd__and3b_2
*I *1997:C I *D sky130_fd_sc_hd__and3b_1
*I *1996:Y O *D sky130_fd_sc_hd__nor2_1
*CAP
1 *2001:B 0
2 *1997:C 0
3 *1996:Y 9.5908e-05
4 *315:21 0.000307494
5 *315:6 0.000403402
6 *315:6 *649:33 0.000103647
7 *315:21 *366:16 0.000110669
8 *315:21 *615:156 0.0001129
9 *315:21 *649:29 0.000103537
10 *315:21 *649:33 0.00010655
*RES
1 *1996:Y *315:6 25.0507 
2 *315:6 *1997:C 23 
3 *315:6 *315:21 36.1314 
4 *315:21 *2001:B 23 
*END

*D_NET *316 0.0119834
*CONN
*I *2000:A2 I *D sky130_fd_sc_hd__o211a_1
*I *2094:C I *D sky130_fd_sc_hd__or4_1
*I *2163:B1 I *D sky130_fd_sc_hd__a32o_1
*I *2089:D_N I *D sky130_fd_sc_hd__or4b_1
*I *2158:A2 I *D sky130_fd_sc_hd__a221o_1
*I *1997:X O *D sky130_fd_sc_hd__and3b_1
*CAP
1 *2000:A2 0.000274307
2 *2094:C 0
3 *2163:B1 5.51475e-05
4 *2089:D_N 0.000110922
5 *2158:A2 4.00715e-05
6 *1997:X 0.000244219
7 *316:78 0.00134258
8 *316:34 0.00032798
9 *316:28 0.000702844
10 *316:24 0.000918104
11 *316:16 0.000806858
12 *316:8 0.00167195
13 *2000:A2 *430:10 0.000241837
14 *2000:A2 *621:34 0.000267934
15 *2089:D_N *2158:A1 6.13315e-05
16 *2089:D_N *2158:B2 1.28818e-05
17 *2089:D_N *364:33 1.24376e-05
18 *2158:A2 *2158:A1 8.14599e-05
19 *2158:A2 *364:33 2.60994e-05
20 *316:8 *414:10 5.97612e-05
21 *316:8 *472:10 0
22 *316:8 *472:12 0
23 *316:8 *615:156 0
24 *316:8 *615:212 0
25 *316:8 *648:89 0
26 *316:16 *2094:B 4.45701e-05
27 *316:16 *319:76 2.87671e-05
28 *316:16 *379:8 0.000536832
29 *316:16 *480:70 5.3304e-05
30 *316:24 *480:70 3.47781e-05
31 *316:24 *554:10 0.000706213
32 *316:24 *613:89 0
33 *316:24 *613:113 0
34 *316:24 *620:62 0.00121931
35 *316:28 *2154:A 0.000165593
36 *316:28 *373:10 0
37 *316:28 *620:66 9.48381e-06
38 *316:28 *621:199 0
39 *316:28 *649:23 0.000241616
40 *316:34 *364:33 8.80821e-05
41 *316:34 *415:8 0
42 *316:34 *415:16 4.31366e-05
43 *316:34 *417:8 5.93278e-05
44 *316:34 *621:199 0
45 *316:78 *1956:A 0.000313255
46 *316:78 *465:169 0
47 *316:78 *465:178 9.84851e-05
48 *316:78 *465:189 0.000185428
49 *316:78 *472:10 0
50 *316:78 *615:212 0
51 *316:78 *652:17 9.30054e-05
52 *1957:A *316:24 3.70094e-05
53 *2157:B1 *2163:B1 2.39868e-05
54 *2163:A1 *2163:B1 1.45295e-05
55 *282:27 *2163:B1 6.84987e-06
56 *282:27 *316:28 0
57 *282:27 *316:34 0
58 *283:10 *316:28 0.000215791
59 *286:93 *316:16 1.14154e-05
60 *286:93 *316:24 8.21763e-05
61 *288:31 *316:8 0.000188427
62 *295:101 *316:78 0.000163839
63 *296:48 *2000:A2 5.94125e-05
*RES
1 *1997:X *316:8 43.075 
2 *316:8 *316:16 23.41 
3 *316:16 *316:24 47.2757 
4 *316:24 *316:28 25.8854 
5 *316:28 *316:34 18.7596 
6 *316:34 *2158:A2 24.6209 
7 *316:34 *2089:D_N 25.5479 
8 *316:28 *2163:B1 39.2221 
9 *316:16 *2094:C 23 
10 *316:8 *316:78 47.0271 
11 *316:78 *2000:A2 45.54 
*END

*D_NET *317 0.000140026
*CONN
*I *1999:B2 I *D sky130_fd_sc_hd__a22o_1
*I *1998:X O *D sky130_fd_sc_hd__or2_1
*CAP
1 *1999:B2 1.50079e-05
2 *1998:X 1.50079e-05
3 *1999:B2 *1999:A1 5.50049e-05
4 *1999:B2 *493:52 5.50049e-05
*RES
1 *1998:X *1999:B2 46.6214 
*END

*D_NET *318 0.0010657
*CONN
*I *2000:B1 I *D sky130_fd_sc_hd__o211a_1
*I *1999:X O *D sky130_fd_sc_hd__a22o_1
*CAP
1 *2000:B1 0
2 *1999:X 0.000255385
3 *318:10 0.000255385
4 *280:68 *318:10 2.02517e-05
5 *280:85 *318:10 8.6388e-05
6 *296:40 *318:10 0.000352415
7 *296:48 *318:10 9.5877e-05
*RES
1 *1999:X *318:10 28.9036 
2 *318:10 *2000:B1 23 
*END

*D_NET *319 0.0110621
*CONN
*I *2003:B2 I *D sky130_fd_sc_hd__a22o_1
*I *2094:D I *D sky130_fd_sc_hd__or4_1
*I *2002:A I *D sky130_fd_sc_hd__inv_2
*I *2076:A2 I *D sky130_fd_sc_hd__a31o_1
*I *2164:A1 I *D sky130_fd_sc_hd__a31o_1
*I *2219:A2 I *D sky130_fd_sc_hd__o21a_1
*I *2001:X O *D sky130_fd_sc_hd__and3b_2
*CAP
1 *2003:B2 0.000184318
2 *2094:D 0
3 *2002:A 0
4 *2076:A2 0
5 *2164:A1 0
6 *2219:A2 0.000120795
7 *2001:X 3.6708e-05
8 *319:76 0.000533028
9 *319:56 0.000234533
10 *319:43 0.000230185
11 *319:35 0.000673639
12 *319:27 0.000962579
13 *319:12 0.000424732
14 *319:10 0.000669317
15 *319:8 0.00103539
16 *2003:B2 *2003:A2 5.90132e-05
17 *2003:B2 *480:70 0.000397954
18 *2219:A2 *378:10 4.59027e-05
19 *2219:A2 *554:42 0.000136486
20 *2219:A2 *554:59 5.50106e-05
21 *319:8 *649:23 5.3304e-05
22 *319:10 *2090:A 0.000188926
23 *319:10 *2160:C 0.000238194
24 *319:10 *367:10 2.68708e-05
25 *319:10 *370:14 0.00012302
26 *319:10 *378:10 4.66636e-05
27 *319:10 *546:31 0
28 *319:10 *554:32 0.000201076
29 *319:10 *554:42 0.000468458
30 *319:12 *378:10 2.04774e-05
31 *319:12 *554:42 6.16531e-05
32 *319:27 *320:6 0.000269775
33 *319:27 *320:21 0.00012612
34 *319:35 *2092:A2 0.000521108
35 *319:35 *363:19 5.94125e-05
36 *319:35 *363:38 0.000150977
37 *319:35 *377:8 5.58068e-05
38 *319:35 *420:10 0
39 *319:35 *540:67 0.000185755
40 *319:35 *554:59 4.18957e-05
41 *319:35 *554:71 2.7712e-05
42 *319:35 *621:197 0.000521108
43 *319:43 *2156:B1 1.01436e-05
44 *319:43 *367:36 0
45 *319:43 *375:12 0.000181125
46 *319:43 *424:10 5.94125e-05
47 *319:43 *540:52 9.02461e-05
48 *319:43 *615:177 0
49 *319:56 *320:21 0.000103654
50 *319:56 *361:18 9.64e-06
51 *319:56 *362:8 8.84817e-06
52 *319:56 *369:8 8.6688e-05
53 *319:56 *554:96 2.85588e-05
54 *319:76 *480:70 4.5051e-05
55 *319:76 *554:32 0.000135989
56 *319:76 *554:123 4.08641e-05
57 *2219:B1 *2219:A2 9.5877e-05
58 *286:69 *319:10 0.000114074
59 *286:93 *319:10 0.000462433
60 *286:93 *319:76 0.000372811
61 *316:16 *319:76 2.87671e-05
*RES
1 *2001:X *319:8 38.6214 
2 *319:8 *319:10 17.0479 
3 *319:10 *319:12 0.849286 
4 *319:12 *2219:A2 41.0036 
5 *319:12 *319:27 19.4329 
6 *319:27 *319:35 42.3457 
7 *319:35 *319:43 34.6607 
8 *319:43 *2164:A1 23 
9 *319:27 *319:56 33.7286 
10 *319:56 *2076:A2 23 
11 *319:10 *2002:A 38 
12 *319:8 *319:76 22.6229 
13 *319:76 *2094:D 23 
14 *319:76 *2003:B2 27.93 
*END

*D_NET *320 0.00152355
*CONN
*I *2078:A I *D sky130_fd_sc_hd__nor3b_1
*I *2161:B2 I *D sky130_fd_sc_hd__o32a_1
*I *2002:Y O *D sky130_fd_sc_hd__inv_2
*CAP
1 *2078:A 0
2 *2161:B2 2.34823e-05
3 *2002:Y 0.000118156
4 *320:21 0.000178883
5 *320:6 0.000320521
6 *2161:B2 *554:96 0
7 *320:6 *369:20 4.06849e-05
8 *320:6 *421:10 2.19998e-05
9 *320:21 *2078:B 0
10 *320:21 *2161:B1 9.58714e-05
11 *320:21 *363:19 0.000166504
12 *320:21 *369:8 0
13 *320:21 *369:20 1.57571e-05
14 *320:21 *554:59 4.21378e-05
15 *319:27 *320:6 0.000269775
16 *319:27 *320:21 0.00012612
17 *319:56 *320:21 0.000103654
*RES
1 *2002:Y *320:6 26.48 
2 *320:6 *2161:B2 23.4971 
3 *320:6 *320:21 34.785 
4 *320:21 *2078:A 23 
*END

*D_NET *321 0.000457776
*CONN
*I *2004:B I *D sky130_fd_sc_hd__and2_1
*I *2003:X O *D sky130_fd_sc_hd__a22o_1
*CAP
1 *2004:B 0.000171695
2 *2003:X 0.000171695
3 *2004:B *2003:A2 1.56273e-05
4 *2004:B *2004:A 3.22879e-05
5 *2004:B *472:114 6.64697e-05
*RES
1 *2003:X *2004:B 49.9979 
*END

*D_NET *322 0.000652
*CONN
*I *2006:B I *D sky130_fd_sc_hd__and2_1
*I *2005:X O *D sky130_fd_sc_hd__a22o_1
*CAP
1 *2006:B 0
2 *2005:X 0.000290812
3 *322:10 0.000290812
4 *322:10 *2004:A 7.03766e-05
5 *322:10 *621:199 0
*RES
1 *2005:X *322:10 42.4329 
2 *322:10 *2006:B 38 
*END

*D_NET *323 0.00607775
*CONN
*I *2028:C I *D sky130_fd_sc_hd__and3_1
*I *2027:X O *D sky130_fd_sc_hd__and3_1
*CAP
1 *2028:C 0
2 *2027:X 0.00149742
3 *323:24 0.000929857
4 *323:16 0.00242727
5 *323:16 *2027:A 1.24376e-05
6 *323:16 *2181:A1 0.000139346
7 *323:16 *2181:A2 6.70087e-05
8 *323:16 *471:42 0.000328338
9 *323:16 *471:108 4.5051e-05
10 *323:16 *604:99 6.63156e-05
11 *323:24 *560:76 5.57849e-05
12 *323:24 *618:24 0
13 *323:24 *619:23 0.000111852
14 *125:27 *323:24 0.000343764
15 *163:18 *323:16 5.3304e-05
*RES
1 *2027:X *323:16 46.8421 
2 *323:16 *323:24 43.2157 
3 *323:24 *2028:C 23 
*END

*D_NET *324 0.00766506
*CONN
*I *2030:B I *D sky130_fd_sc_hd__and2_1
*I *2032:B I *D sky130_fd_sc_hd__and2_1
*I *2033:B I *D sky130_fd_sc_hd__and2_1
*I *2031:B I *D sky130_fd_sc_hd__and2_1
*I *2029:B I *D sky130_fd_sc_hd__and2_1
*I *2028:X O *D sky130_fd_sc_hd__and3_1
*CAP
1 *2030:B 0
2 *2032:B 3.2572e-05
3 *2033:B 0
4 *2031:B 0
5 *2029:B 0
6 *2028:X 0.000228785
7 *324:28 0.000995664
8 *324:24 0.00122875
9 *324:22 0.000553698
10 *324:16 0.00111815
11 *324:10 0.000993744
12 *2032:B *470:125 2.93747e-05
13 *324:10 *698:DIODE 1.41077e-05
14 *324:10 *1962:A_N 4.38375e-05
15 *324:10 *560:76 5.70419e-05
16 *324:16 *1962:A_N 6.88552e-05
17 *324:16 *539:8 0
18 *324:16 *548:8 6.67764e-05
19 *324:16 *552:10 0.000194309
20 *324:16 *589:8 0
21 *324:22 *470:125 0
22 *324:22 *548:8 6.07611e-06
23 *324:22 *549:10 2.04774e-05
24 *324:24 *547:8 0
25 *324:24 *565:10 0
26 *324:28 *2396:A 0
27 *324:28 *596:10 0
28 *324:28 *597:8 0
29 *324:28 *616:18 0
30 *324:28 *617:16 0
31 user_irq *324:28 0
32 *14:13 *324:28 0
33 *83:13 *324:24 0
34 *86:13 *324:16 0
35 *87:9 *324:22 0
36 *130:11 *324:16 0
37 *133:8 *324:16 5.20202e-05
38 *136:10 *324:22 0.000141879
39 *137:10 *324:10 0
40 *137:10 *324:16 0
41 *172:8 *324:16 0.000199701
42 *177:8 *324:28 5.80963e-05
43 *273:10 *324:16 0.000523703
44 *273:10 *324:22 0.000675297
45 *273:10 *324:24 0.000219017
46 *273:10 *324:28 0.000143137
*RES
1 *2028:X *324:10 41.8321 
2 *324:10 *324:16 20.2793 
3 *324:16 *324:22 9.715 
4 *324:22 *324:24 5.77929 
5 *324:24 *324:28 34.5129 
6 *324:28 *2029:B 23 
7 *324:24 *2031:B 38 
8 *324:22 *2033:B 38 
9 *324:16 *2032:B 38.6214 
10 *324:10 *2030:B 38 
*END

*D_NET *325 0.00200453
*CONN
*I *2035:C I *D sky130_fd_sc_hd__or3_1
*I *2034:X O *D sky130_fd_sc_hd__or3_1
*CAP
1 *2035:C 0
2 *2034:X 0.000580787
3 *325:10 0.000580787
4 *325:10 *1969:A1 0.000138718
5 *325:10 *563:14 0.000528014
6 *325:10 *634:95 3.75094e-05
7 *299:12 *325:10 0.000138718
*RES
1 *2034:X *325:10 47.6736 
2 *325:10 *2035:C 38 
*END

*D_NET *326 0.00634432
*CONN
*I *2056:B I *D sky130_fd_sc_hd__nand3_1
*I *2057:C I *D sky130_fd_sc_hd__and4_1
*I *2043:A I *D sky130_fd_sc_hd__nor2_1
*I *2062:A I *D sky130_fd_sc_hd__nor3_1
*I *2051:B1 I *D sky130_fd_sc_hd__a41o_1
*I *2036:X O *D sky130_fd_sc_hd__or4b_2
*CAP
1 *2056:B 0
2 *2057:C 0.000269954
3 *2043:A 0.000149281
4 *2062:A 0
5 *2051:B1 0
6 *2036:X 0.000420938
7 *326:26 0.000546701
8 *326:20 0.000648933
9 *326:16 0.000562534
10 *326:10 0.000580974
11 *326:8 0.000420938
12 *2043:A *338:31 2.02872e-05
13 *2057:C *334:10 0
14 *2057:C *338:10 5.50049e-05
15 *2057:C *338:21 0.000157697
16 *2057:C *338:31 1.47563e-05
17 *2057:C *346:12 0.000214563
18 *2057:C *613:53 6.7177e-06
19 *326:8 *2096:B1 4.00259e-06
20 *326:8 *615:102 3.70071e-06
21 *326:16 *338:31 6.68793e-05
22 *326:16 *346:12 0.000187996
23 *326:16 *613:53 1.69668e-05
24 *326:20 *335:22 4.06408e-05
25 *326:20 *350:25 0.000117244
26 *326:20 *380:8 0.000216721
27 *326:26 *2040:B 1.14452e-05
28 *326:26 *2059:B1 0
29 *326:26 *2061:D 0
30 *326:26 *335:28 1.02387e-05
31 *326:26 *339:10 6.93553e-05
32 *326:26 *340:10 0.000351608
33 *326:26 *350:25 0.000116314
34 *326:26 *500:70 0.000120333
35 *2051:A1 *326:26 9.84851e-05
36 *213:24 *2057:C 2.11157e-05
37 *213:24 *326:8 0.000188681
38 *215:12 *2043:A 0.000181125
39 *215:12 *326:16 0.000395889
40 *289:17 *2057:C 5.62996e-05
*RES
1 *2036:X *326:8 29.3593 
2 *326:8 *326:10 15 
3 *326:10 *326:16 22.0429 
4 *326:16 *326:20 18.3143 
5 *326:20 *326:26 27.1593 
6 *326:26 *2051:B1 23 
7 *326:20 *2062:A 38 
8 *326:16 *2043:A 26.0243 
9 *326:10 *2057:C 44.0693 
10 *326:8 *2056:B 23 
*END

*D_NET *327 0.00350036
*CONN
*I *2120:A I *D sky130_fd_sc_hd__and2_1
*I *2038:C1 I *D sky130_fd_sc_hd__o211ai_1
*I *2037:X O *D sky130_fd_sc_hd__and4_1
*CAP
1 *2120:A 0
2 *2038:C1 0.000266611
3 *2037:X 0.000151889
4 *327:8 0.0004185
5 *2038:C1 *2020:A 0.000269775
6 *2038:C1 *2038:B1 0.000740181
7 *2038:C1 *2047:D 0.000438462
8 *2038:C1 *336:10 0.000225072
9 *2038:C1 *611:64 0.000243083
10 *327:8 *2047:B 0.000143655
11 *327:8 *2047:D 0.000164364
12 *327:8 *336:10 0.000222791
13 *327:8 *397:8 0.000168821
14 *327:8 *509:36 2.9938e-05
15 *155:8 *2038:C1 1.72202e-05
*RES
1 *2037:X *327:8 29.3593 
2 *327:8 *2038:C1 36.0086 
3 *327:8 *2120:A 23 
*END

*D_NET *328 0.00207925
*CONN
*I *2042:C_N I *D sky130_fd_sc_hd__or3b_1
*I *2051:A3 I *D sky130_fd_sc_hd__a41o_1
*I *2038:Y O *D sky130_fd_sc_hd__o211ai_1
*CAP
1 *2042:C_N 0
2 *2051:A3 5.58562e-05
3 *2038:Y 0.000459044
4 *328:10 5.58562e-05
5 *328:8 0.000459044
6 *2051:A3 *383:29 0.000185428
7 *328:8 *2015:C 0
8 *328:8 *337:8 0.000270421
9 *328:8 *388:23 0
10 *328:8 *509:61 0.000144904
11 *328:8 *509:74 0
12 *328:8 *611:64 0.000296017
13 *150:8 *328:8 0
14 *275:18 *2051:A3 0.000152682
*RES
1 *2038:Y *328:8 48.3571 
2 *328:8 *328:10 15 
3 *328:10 *2051:A3 25.5479 
4 *328:10 *2042:C_N 23 
*END

*D_NET *329 0.00912915
*CONN
*I *2040:B I *D sky130_fd_sc_hd__nor2_1
*I *2054:C1 I *D sky130_fd_sc_hd__a311o_1
*I *2041:C I *D sky130_fd_sc_hd__or3_1
*I *2039:X O *D sky130_fd_sc_hd__or4_1
*CAP
1 *2040:B 0.000196159
2 *2054:C1 1.31993e-05
3 *2041:C 0
4 *2039:X 5.00664e-05
5 *329:42 0.000483923
6 *329:24 0.000715028
7 *329:20 0.000728888
8 *329:16 0.00108448
9 *329:8 0.000819719
10 *2040:B *2015:C 0
11 *2040:B *500:70 0
12 *2054:C1 *2054:B1 3.91386e-05
13 *2054:C1 *2328:CLK 4.00259e-06
14 *329:8 *2329:CLK 2.5415e-05
15 *329:8 *504:49 4.334e-05
16 *329:16 *400:20 0.0015662
17 *329:16 *466:44 0.000141954
18 *329:16 *610:18 9.84851e-05
19 *329:16 *610:22 0.000920197
20 *329:20 *2015:C 0
21 *329:20 *400:14 0.000138718
22 *329:20 *606:124 4.08537e-05
23 *329:20 *606:137 0
24 *329:20 *610:125 4.96264e-05
25 *329:20 *611:10 1.12487e-05
26 *329:24 *2015:B 4.96717e-05
27 *329:24 *2328:CLK 0.000507968
28 *329:24 *606:131 0.000125488
29 *329:42 *2042:A 6.96028e-05
30 *329:42 *2053:A 5.50049e-05
31 *329:42 *2054:B1 6.09235e-05
32 *329:42 *2328:CLK 7.44161e-06
33 *329:42 *2383:A 0.000180218
34 *329:42 *341:10 3.47879e-05
35 *329:42 *343:8 0.000113153
36 *329:42 *535:8 1.01436e-05
37 *329:42 *607:53 0.000185783
38 *150:8 *2040:B 0
39 *151:8 *329:16 0.000511135
40 *275:18 *329:42 3.5744e-05
41 *326:26 *2040:B 1.14452e-05
*RES
1 *2039:X *329:8 39.2014 
2 *329:8 *329:16 40.085 
3 *329:16 *329:20 20.075 
4 *329:20 *329:24 21.3386 
5 *329:24 *329:42 39.5286 
6 *329:42 *2041:C 23 
7 *329:24 *2054:C1 23.4971 
8 *329:20 *2040:B 40.9621 
*END

*D_NET *330 0.000805344
*CONN
*I *2051:A4 I *D sky130_fd_sc_hd__a41o_1
*I *2040:Y O *D sky130_fd_sc_hd__nor2_1
*CAP
1 *2051:A4 0
2 *2040:Y 0.000146526
3 *330:8 0.000146526
4 *330:8 *340:10 5.50106e-05
5 *330:8 *383:29 1.14643e-05
6 *330:8 *500:70 0.000182826
7 *2051:A1 *330:8 0.000182826
8 *275:18 *330:8 8.01644e-05
*RES
1 *2040:Y *330:8 27.4536 
2 *330:8 *2051:A4 23 
*END

*D_NET *331 0.00391896
*CONN
*I *2065:A1 I *D sky130_fd_sc_hd__o21bai_1
*I *2061:A I *D sky130_fd_sc_hd__or4_1
*I *2050:A I *D sky130_fd_sc_hd__or4b_1
*I *2042:B I *D sky130_fd_sc_hd__or3b_1
*I *2041:X O *D sky130_fd_sc_hd__or3_1
*CAP
1 *2065:A1 0.000157475
2 *2061:A 0
3 *2050:A 0
4 *2042:B 7.43237e-05
5 *2041:X 7.58412e-05
6 *331:31 0.000190965
7 *331:23 0.00028969
8 *331:17 0.000420512
9 *331:6 0.000314478
10 *2042:B *2041:B 5.50106e-05
11 *2042:B *500:70 5.50049e-05
12 *2065:A1 *2065:A2 0.000111148
13 *2065:A1 *332:8 0.000407218
14 *2065:A1 *337:23 7.63254e-05
15 *331:6 *2041:B 8.43466e-05
16 *331:17 *332:8 0.000380333
17 *331:17 *337:8 0.000111243
18 *331:17 *337:23 9.48381e-06
19 *331:23 *2061:C 5.50049e-05
20 *331:23 *2061:D 4.79641e-05
21 *331:23 *344:8 0.000224605
22 *331:31 *2050:C 9.41704e-05
23 *331:31 *2061:D 0.000168754
24 *331:31 *335:28 0.000180212
25 *331:31 *335:34 0.000163352
26 *331:31 *337:8 6.07611e-06
27 *331:31 *337:23 3.11878e-05
28 *331:31 *338:35 8.62783e-05
29 *331:31 *607:51 4.79544e-05
*RES
1 *2041:X *331:6 24.0979 
2 *331:6 *2042:B 24.0979 
3 *331:6 *331:17 20.075 
4 *331:17 *331:23 18.0243 
5 *331:23 *331:31 35.365 
6 *331:31 *2050:A 23 
7 *331:23 *2061:A 23 
8 *331:17 *2065:A1 43.4271 
*END

*D_NET *332 0.00396528
*CONN
*I *2043:B I *D sky130_fd_sc_hd__nor2_1
*I *2062:B I *D sky130_fd_sc_hd__nor3_1
*I *2042:X O *D sky130_fd_sc_hd__or3b_1
*CAP
1 *2043:B 0.000366494
2 *2062:B 0.000425281
3 *2042:X 0
4 *332:8 0.00122453
5 *332:6 0.000432759
6 *2043:B *338:31 0.000140259
7 *2043:B *338:35 0
8 *2043:B *352:8 5.61311e-05
9 *2062:B *2064:A2 5.12328e-05
10 *2062:B *617:86 0.000142629
11 *2062:B *617:97 2.93747e-05
12 *332:8 *2063:A2 7.80954e-05
13 *332:8 *338:35 0
14 *332:8 *343:8 0.000127919
15 *332:8 *383:29 1.01436e-05
16 *332:8 *500:78 4.85126e-05
17 *2065:A1 *332:8 0.000407218
18 *275:18 *332:8 4.43614e-05
19 *289:27 *2043:B 0
20 *289:27 *332:8 0
21 *331:17 *332:8 0.000380333
*RES
1 *2042:X *332:6 38 
2 *332:6 *332:8 12.8221 
3 *332:8 *2062:B 44.815 
4 *332:8 *2043:B 45.0429 
*END

*D_NET *333 0.000398205
*CONN
*I *2046:A1 I *D sky130_fd_sc_hd__a31o_1
*I *2043:Y O *D sky130_fd_sc_hd__nor2_1
*CAP
1 *2046:A1 0
2 *2043:Y 6.34541e-05
3 *333:8 6.34541e-05
4 *333:8 *347:10 0.000134081
5 *333:8 *617:97 0.000137216
*RES
1 *2043:Y *333:8 39.9057 
2 *333:8 *2046:A1 38 
*END

*D_NET *334 0.0144789
*CONN
*I *2095:A1 I *D sky130_fd_sc_hd__a21oi_1
*I *2153:B1 I *D sky130_fd_sc_hd__o211a_1
*I *2066:A1 I *D sky130_fd_sc_hd__a31oi_1
*I *2046:A2 I *D sky130_fd_sc_hd__a31o_1
*I *2093:A1 I *D sky130_fd_sc_hd__a21o_1
*I *2096:A1 I *D sky130_fd_sc_hd__a31o_1
*I *2044:Y O *D sky130_fd_sc_hd__nor2_2
*CAP
1 *2095:A1 0
2 *2153:B1 0
3 *2066:A1 0
4 *2046:A2 2.52923e-05
5 *2093:A1 0
6 *2096:A1 0
7 *2044:Y 2.71027e-05
8 *334:86 2.77045e-05
9 *334:80 0.000775485
10 *334:68 0.00163842
11 *334:39 0.00199838
12 *334:31 0.00227516
13 *334:16 0.000469474
14 *334:10 0.000493928
15 *334:8 0.00119369
16 *334:8 *635:60 9.84794e-05
17 *334:10 *498:21 0.000290473
18 *334:10 *613:53 0
19 *334:10 *634:48 4.13938e-05
20 *334:10 *635:60 0
21 *334:16 *2096:B1 6.74034e-05
22 *334:16 *498:21 1.89075e-05
23 *334:31 *2096:A2 1.37039e-05
24 *334:31 *2096:A3 3.49047e-05
25 *334:31 *2096:B1 0.000107449
26 *334:31 *345:6 2.15815e-05
27 *334:31 *345:25 1.48886e-05
28 *334:31 *352:16 0.000150063
29 *334:39 *2342:CLK 0.000146436
30 *334:39 *352:16 9.06851e-05
31 *334:39 *621:173 4.08537e-05
32 *334:39 *651:10 0.000110397
33 *334:68 *677:DIODE 3.70187e-05
34 *334:68 *1969:B2 0.000379944
35 *334:68 *2095:A2 3.91386e-05
36 *334:68 *2095:B1 3.34129e-05
37 *334:68 *335:16 0
38 *334:68 *347:32 0
39 *334:68 *413:6 0.000871518
40 *334:68 *491:48 0.000246479
41 *334:68 *556:8 0
42 *334:68 *615:245 0.000188926
43 *334:68 *634:48 7.75329e-06
44 *334:68 *634:63 0
45 *334:68 *635:50 0
46 *334:68 *649:66 0.000212712
47 *334:80 *2095:A2 0.000480362
48 *334:80 *2095:B1 0.000146165
49 *334:80 *379:10 0.000414989
50 *334:80 *413:6 1.03955e-05
51 *2057:C *334:10 0
52 *2342:D *334:39 0.000604708
53 *59:21 *334:8 3.71251e-05
54 *216:8 *334:10 0.000107213
55 *272:10 *334:80 0.000140259
56 *286:12 *334:80 4.18957e-05
57 *287:21 *334:80 0.00014196
58 *287:51 *334:80 4.17736e-05
59 *287:51 *334:86 2.96051e-05
60 *288:10 *334:80 0
61 *289:17 *334:16 8.99007e-05
62 *289:27 *334:16 3.41998e-06
*RES
1 *2044:Y *334:8 39.0979 
2 *334:8 *334:10 5.77929 
3 *334:10 *334:16 18.5836 
4 *334:16 *2096:A1 23 
5 *334:16 *334:31 5.84143 
6 *334:31 *334:39 44 
7 *334:39 *2093:A1 38 
8 *334:31 *2046:A2 23.4971 
9 *334:10 *2066:A1 38 
10 *334:8 *334:68 39.7536 
11 *334:68 *334:80 48.1871 
12 *334:80 *334:86 30.8493 
13 *334:86 *2153:B1 23 
14 *334:68 *2095:A1 23 
*END

*D_NET *335 0.00967125
*CONN
*I *2046:A3 I *D sky130_fd_sc_hd__a31o_1
*I *2062:C I *D sky130_fd_sc_hd__nor3_1
*I *2050:D_N I *D sky130_fd_sc_hd__or4b_1
*I *2061:B I *D sky130_fd_sc_hd__or4_1
*I *2045:X O *D sky130_fd_sc_hd__or4_2
*CAP
1 *2046:A3 0
2 *2062:C 0
3 *2050:D_N 0
4 *2061:B 0
5 *2045:X 0.000284498
6 *335:34 9.31149e-05
7 *335:28 0.000279508
8 *335:22 0.000487542
9 *335:16 0.000851865
10 *335:12 0.00144776
11 *335:8 0.00118155
12 *335:8 *1947:B 1.05658e-05
13 *335:8 *465:169 0
14 *335:8 *648:76 3.94974e-05
15 *335:8 *649:45 0
16 *335:12 *613:85 0.00202097
17 *335:12 *650:18 0.000181125
18 *335:16 *345:25 0
19 *335:16 *347:10 0.000272069
20 *335:16 *347:32 0.000387966
21 *335:16 *634:31 4.07715e-05
22 *335:16 *635:60 0.000367547
23 *335:22 *2059:B1 1.83564e-05
24 *335:22 *2096:B1 0
25 *335:22 *347:10 0.000195696
26 *335:22 *350:25 3.82956e-05
27 *335:22 *380:8 0
28 *335:28 *2050:C 2.02872e-05
29 *335:28 *2059:B1 8.16253e-05
30 *335:28 *350:25 0.000420195
31 *335:28 *607:51 4.75206e-05
32 *335:34 *337:23 4.9224e-05
33 *335:34 *338:35 1.12487e-05
34 *335:34 *351:8 0.000114083
35 *170:70 *335:8 7.27385e-05
36 *213:12 *335:16 9.86551e-06
37 *215:8 *335:22 0.000166513
38 *285:8 *335:8 8.48124e-05
39 *326:20 *335:22 4.06408e-05
40 *326:26 *335:28 1.02387e-05
41 *331:31 *335:28 0.000180212
42 *331:31 *335:34 0.000163352
43 *334:68 *335:16 0
*RES
1 *2045:X *335:8 42.7229 
2 *335:8 *335:12 37.5371 
3 *335:12 *335:16 29.2307 
4 *335:16 *335:22 6.89786 
5 *335:22 *335:28 21.2143 
6 *335:28 *335:34 32.61 
7 *335:34 *2061:B 23 
8 *335:28 *2050:D_N 23 
9 *335:22 *2062:C 38 
10 *335:16 *2046:A3 38 
*END

*D_NET *336 0.00396834
*CONN
*I *2125:C I *D sky130_fd_sc_hd__and4_1
*I *2048:B1 I *D sky130_fd_sc_hd__o211a_1
*I *2054:A2 I *D sky130_fd_sc_hd__a311o_1
*I *2047:X O *D sky130_fd_sc_hd__and4_1
*CAP
1 *2125:C 5.60412e-05
2 *2048:B1 0
3 *2054:A2 0
4 *2047:X 0.000545768
5 *336:26 0.000305952
6 *336:16 0.000458089
7 *336:10 0.000753946
8 *2125:C *388:29 0.00015954
9 *2125:C *529:10 8.51432e-05
10 *336:10 *2038:B1 0.000139346
11 *336:10 *388:29 3.47781e-05
12 *336:10 *397:8 5.50106e-05
13 *336:10 *529:10 7.91596e-05
14 *336:10 *607:53 3.04021e-05
15 *336:10 *607:63 1.19692e-05
16 *336:16 *2016:A 6.29487e-05
17 *336:16 *388:23 0.00026808
18 *336:16 *388:36 5.3304e-05
19 *336:26 *337:8 0
20 *336:26 *341:10 0.000162422
21 *336:26 *383:29 5.94125e-05
22 *336:26 *509:74 0.000134415
23 *336:26 *510:72 6.4755e-05
24 *336:26 *535:8 0
25 *336:26 *607:53 0
26 *2038:C1 *336:10 0.000225072
27 *327:8 *336:10 0.000222791
*RES
1 *2047:X *336:10 48.9786 
2 *336:10 *336:16 18.9771 
3 *336:16 *336:26 36.5457 
4 *336:26 *2054:A2 23 
5 *336:16 *2048:B1 23 
6 *336:10 *2125:C 40.2579 
*END

*D_NET *337 0.00369915
*CONN
*I *2065:A2 I *D sky130_fd_sc_hd__o21bai_1
*I *2050:C I *D sky130_fd_sc_hd__or4b_1
*I *2061:C I *D sky130_fd_sc_hd__or4_1
*I *2048:X O *D sky130_fd_sc_hd__o211a_1
*CAP
1 *2065:A2 9.15635e-05
2 *2050:C 0.000101665
3 *2061:C 1.50079e-05
4 *2048:X 0
5 *337:23 0.000346085
6 *337:8 0.000862429
7 *337:6 0.000694564
8 *2050:C *350:25 6.1789e-05
9 *2050:C *607:51 0.00021677
10 *2061:C *2061:D 5.50049e-05
11 *2065:A2 *338:35 0
12 *2065:A2 *351:8 0.000178782
13 *337:8 *2061:D 7.76364e-06
14 *337:8 *383:29 1.69668e-05
15 *337:8 *500:78 0.000118889
16 *337:8 *509:74 3.56537e-05
17 *337:23 *351:8 6.16439e-05
18 *2065:A1 *2065:A2 0.000111148
19 *2065:A1 *337:23 7.63254e-05
20 *150:8 *337:8 0
21 *328:8 *337:8 0.000270421
22 *331:17 *337:8 0.000111243
23 *331:17 *337:23 9.48381e-06
24 *331:23 *2061:C 5.50049e-05
25 *331:31 *2050:C 9.41704e-05
26 *331:31 *337:8 6.07611e-06
27 *331:31 *337:23 3.11878e-05
28 *335:28 *2050:C 2.02872e-05
29 *335:34 *337:23 4.9224e-05
30 *336:26 *337:8 0
*RES
1 *2048:X *337:6 38 
2 *337:6 *337:8 13.1743 
3 *337:8 *2061:C 38.6214 
4 *337:8 *337:23 3.72857 
5 *337:23 *2050:C 40.5271 
6 *337:23 *2065:A2 40.9621 
*END

*D_NET *338 0.00669977
*CONN
*I *2056:C I *D sky130_fd_sc_hd__nand3_1
*I *2065:B1_N I *D sky130_fd_sc_hd__o21bai_1
*I *2050:B I *D sky130_fd_sc_hd__or4b_1
*I *2061:D I *D sky130_fd_sc_hd__or4_1
*I *2057:D I *D sky130_fd_sc_hd__and4_1
*I *2049:X O *D sky130_fd_sc_hd__or4b_2
*CAP
1 *2056:C 0
2 *2065:B1_N 0
3 *2050:B 0
4 *2061:D 0.000195015
5 *2057:D 0
6 *2049:X 0.000430696
7 *338:35 0.000418333
8 *338:31 0.000898939
9 *338:21 0.0008098
10 *338:10 0.000564875
11 *2061:D *2059:B1 0
12 *2061:D *340:10 0
13 *2061:D *344:8 1.41077e-05
14 *2061:D *349:8 8.85189e-05
15 *338:10 *495:21 0.000313249
16 *338:10 *495:51 0.000135016
17 *338:10 *495:64 6.72872e-05
18 *338:10 *498:46 4.04303e-05
19 *338:21 *613:53 0.000228981
20 *338:31 *352:8 6.28488e-05
21 *338:31 *613:53 0.000168744
22 *338:31 *617:97 5.86328e-05
23 *338:35 *2059:B1 0
24 *338:35 *349:8 0.000200246
25 *338:35 *351:8 3.71198e-05
26 *338:35 *617:97 4.4382e-05
27 *2043:A *338:31 2.02872e-05
28 *2043:B *338:31 0.000140259
29 *2043:B *338:35 0
30 *2057:C *338:10 5.50049e-05
31 *2057:C *338:21 0.000157697
32 *2057:C *338:31 1.47563e-05
33 *2061:C *2061:D 5.50049e-05
34 *2065:A2 *338:35 0
35 *213:24 *338:21 2.31209e-05
36 *215:12 *338:31 0.000653227
37 *289:6 *338:10 5.67058e-05
38 *289:17 *338:10 0.000185428
39 *289:17 *338:21 4.08664e-05
40 *290:33 *338:10 0.000131304
41 *326:16 *338:31 6.68793e-05
42 *326:26 *2061:D 0
43 *331:23 *2061:D 4.79641e-05
44 *331:31 *2061:D 0.000168754
45 *331:31 *338:35 8.62783e-05
46 *332:8 *338:35 0
47 *335:34 *338:35 1.12487e-05
48 *337:8 *2061:D 7.76364e-06
*RES
1 *2049:X *338:10 32.715 
2 *338:10 *2057:D 23 
3 *338:10 *338:21 18.9357 
4 *338:21 *338:31 45.0179 
5 *338:31 *338:35 5.34429 
6 *338:35 *2061:D 42.6607 
7 *338:35 *2050:B 38 
8 *338:31 *2065:B1_N 38 
9 *338:21 *2056:C 38 
*END

*D_NET *339 0.000498124
*CONN
*I *2059:A1 I *D sky130_fd_sc_hd__a31o_1
*I *2050:X O *D sky130_fd_sc_hd__or4b_1
*CAP
1 *2059:A1 0
2 *2050:X 0.000143956
3 *339:10 0.000143956
4 *339:10 *2059:B1 4.23714e-05
5 *339:10 *607:51 9.84851e-05
6 *326:26 *339:10 6.93553e-05
*RES
1 *2050:X *339:10 41.0036 
2 *339:10 *2059:A1 38 
*END

*D_NET *340 0.000892683
*CONN
*I *2059:A2 I *D sky130_fd_sc_hd__a31o_1
*I *2051:X O *D sky130_fd_sc_hd__a41o_1
*CAP
1 *2059:A2 0
2 *2051:X 0.000227281
3 *340:10 0.000227281
4 *340:10 *500:70 4.6318e-06
5 *2061:D *340:10 0
6 *150:8 *340:10 2.68708e-05
7 *326:26 *340:10 0.000351608
8 *330:8 *340:10 5.50106e-05
*RES
1 *2051:X *340:10 43.3443 
2 *340:10 *2059:A2 38 
*END

*D_NET *341 0.000603807
*CONN
*I *2054:A3 I *D sky130_fd_sc_hd__a311o_1
*I *2052:X O *D sky130_fd_sc_hd__or2_1
*CAP
1 *2054:A3 0
2 *2052:X 0.000158978
3 *341:10 0.000158978
4 *341:10 *2019:A 5.70419e-05
5 *341:10 *535:8 2.01531e-05
6 *275:18 *341:10 1.14452e-05
7 *329:42 *341:10 3.47879e-05
8 *336:26 *341:10 0.000162422
*RES
1 *2052:X *341:10 41.3557 
2 *341:10 *2054:A3 38 
*END

*D_NET *342 0.00150771
*CONN
*I *2054:B1 I *D sky130_fd_sc_hd__a311o_1
*I *2053:X O *D sky130_fd_sc_hd__or3_1
*CAP
1 *2054:B1 0.000151744
2 *2053:X 0.000118287
3 *342:8 0.000270031
4 *2054:B1 *2328:CLK 8.10047e-05
5 *2054:B1 *2383:A 0.000392386
6 *2054:B1 *500:78 5.50049e-05
7 *342:8 *2053:C 0
8 *342:8 *513:10 2.26489e-05
9 *342:8 *513:12 2.76611e-06
10 *342:8 *607:53 4.66036e-05
11 *2054:C1 *2054:B1 3.91386e-05
12 *275:18 *2054:B1 0.000267173
13 *329:42 *2054:B1 6.09235e-05
*RES
1 *2053:X *342:8 40.2579 
2 *342:8 *2054:B1 43.8829 
*END

*D_NET *343 0.0019843
*CONN
*I *2063:A2 I *D sky130_fd_sc_hd__o21ba_1
*I *2055:B I *D sky130_fd_sc_hd__nand2_1
*I *2054:X O *D sky130_fd_sc_hd__a311o_1
*CAP
1 *2063:A2 0.000155946
2 *2055:B 0
3 *2054:X 0.000295541
4 *343:8 0.000451487
5 *2063:A2 *607:51 3.22879e-05
6 *343:8 *501:31 0.000138718
7 *343:8 *607:53 0.000138643
8 *275:18 *343:8 0.000166513
9 *289:35 *2063:A2 0.000246757
10 *289:35 *343:8 3.92407e-05
11 *329:42 *343:8 0.000113153
12 *332:8 *2063:A2 7.80954e-05
13 *332:8 *343:8 0.000127919
*RES
1 *2054:X *343:8 45.54 
2 *343:8 *2055:B 38 
3 *343:8 *2063:A2 42.5571 
*END

*D_NET *344 0.00159007
*CONN
*I *2059:A3 I *D sky130_fd_sc_hd__a31o_1
*I *2055:Y O *D sky130_fd_sc_hd__nand2_1
*CAP
1 *2059:A3 0
2 *2055:Y 0.000624585
3 *344:8 0.000624585
4 *344:8 *2059:B1 9.84794e-05
5 *2061:D *344:8 1.41077e-05
6 *289:35 *344:8 3.7122e-06
7 *331:23 *344:8 0.000224605
*RES
1 *2055:Y *344:8 33.1707 
2 *344:8 *2059:A3 23 
*END

*D_NET *345 0.00160343
*CONN
*I *2066:A2 I *D sky130_fd_sc_hd__a31oi_1
*I *2096:A2 I *D sky130_fd_sc_hd__a31o_1
*I *2056:Y O *D sky130_fd_sc_hd__nand3_1
*CAP
1 *2066:A2 0
2 *2096:A2 2.69225e-05
3 *2056:Y 6.59827e-05
4 *345:25 0.000272101
5 *345:6 0.000365006
6 *345:6 *2096:B1 1.76557e-05
7 *345:6 *615:102 0.000179751
8 *345:25 *2066:B1 9.67842e-05
9 *345:25 *2096:A3 5.3304e-05
10 *345:25 *352:16 5.50106e-05
11 *345:25 *352:29 0.000189693
12 *345:25 *498:21 2.14619e-05
13 *345:25 *615:102 0.00013721
14 *345:25 *634:31 4.41587e-05
15 *2056:A *345:6 2.64616e-05
16 *213:12 *345:25 1.74874e-06
17 *334:31 *2096:A2 1.37039e-05
18 *334:31 *345:6 2.15815e-05
19 *334:31 *345:25 1.48886e-05
20 *335:16 *345:25 0
*RES
1 *2056:Y *345:6 25.0455 
2 *345:6 *2096:A2 23.6473 
3 *345:6 *345:25 35.9916 
4 *345:25 *2066:A2 23 
*END

*D_NET *346 0.00244275
*CONN
*I *2058:C I *D sky130_fd_sc_hd__or3_1
*I *2097:B I *D sky130_fd_sc_hd__or4b_1
*I *2057:X O *D sky130_fd_sc_hd__and4_1
*CAP
1 *2058:C 0.000271035
2 *2097:B 0
3 *2057:X 3.28483e-05
4 *346:12 0.000325746
5 *346:6 0.000629629
6 *2058:C *2066:B1 0.000131951
7 *2058:C *498:46 0.00020956
8 *346:6 *498:46 9.58714e-05
9 *346:12 *2096:B1 0
10 *346:12 *380:8 0
11 *346:12 *613:53 0
12 *2057:C *346:12 0.000214563
13 *289:17 *2058:C 5.3304e-05
14 *289:17 *346:6 9.58714e-05
15 *289:17 *346:12 0.000171268
16 *289:27 *346:12 2.31116e-05
17 *326:16 *346:12 0.000187996
*RES
1 *2057:X *346:6 24.0979 
2 *346:6 *346:12 37.1879 
3 *346:12 *2097:B 23 
4 *346:6 *2058:C 28.7586 
*END

*D_NET *347 0.00536434
*CONN
*I *2145:A2 I *D sky130_fd_sc_hd__o21a_1
*I *2064:C1 I *D sky130_fd_sc_hd__a211oi_1
*I *2059:B1 I *D sky130_fd_sc_hd__a31o_1
*I *2058:X O *D sky130_fd_sc_hd__or3_1
*CAP
1 *2145:A2 0
2 *2064:C1 0
3 *2059:B1 0.000307057
4 *2058:X 0
5 *347:32 0.000560652
6 *347:10 0.000720716
7 *347:6 0.000974311
8 *2059:B1 *349:8 9.22257e-05
9 *2059:B1 *617:97 1.83667e-05
10 *347:10 *2066:B1 0.000130144
11 *347:10 *615:102 0
12 *347:10 *617:97 0.000130066
13 *347:32 *491:48 0
14 *347:32 *498:81 0.000925232
15 *347:32 *615:102 2.75733e-06
16 *347:32 *615:124 5.55268e-05
17 *2061:D *2059:B1 0
18 *215:8 *347:10 0.000166513
19 *239:10 *347:32 5.01247e-05
20 *326:26 *2059:B1 0
21 *333:8 *347:10 0.000134081
22 *334:68 *347:32 0
23 *335:16 *347:10 0.000272069
24 *335:16 *347:32 0.000387966
25 *335:22 *2059:B1 1.83564e-05
26 *335:22 *347:10 0.000195696
27 *335:28 *2059:B1 8.16253e-05
28 *338:35 *2059:B1 0
29 *339:10 *2059:B1 4.23714e-05
30 *344:8 *2059:B1 9.84794e-05
*RES
1 *2058:X *347:6 38 
2 *347:6 *347:10 9.92214 
3 *347:10 *2059:B1 44.8771 
4 *347:10 *2064:C1 38 
5 *347:6 *347:32 30.2871 
6 *347:32 *2145:A2 23 
*END

*D_NET *348 0.00252469
*CONN
*I *2098:B I *D sky130_fd_sc_hd__xnor2_1
*I *2060:B I *D sky130_fd_sc_hd__nor2_1
*I *2059:X O *D sky130_fd_sc_hd__a31o_1
*CAP
1 *2098:B 0
2 *2060:B 0.0002058
3 *2059:X 0.000651051
4 *348:21 0.000105625
5 *348:6 0.000962475
6 *2060:B *617:71 0.000447976
7 *348:6 *617:71 9.88574e-06
8 *348:21 *496:8 0
9 *348:21 *617:71 0.000141879
10 *214:8 *348:21 0
*RES
1 *2059:X *348:6 31.2443 
2 *348:6 *2060:B 29.1107 
3 *348:6 *348:21 31.9057 
4 *348:21 *2098:B 23 
*END

*D_NET *349 0.000676847
*CONN
*I *2064:A1 I *D sky130_fd_sc_hd__a211oi_1
*I *2061:X O *D sky130_fd_sc_hd__or4_1
*CAP
1 *2064:A1 0
2 *2061:X 0.000147928
3 *349:8 0.000147928
4 *2059:B1 *349:8 9.22257e-05
5 *2061:D *349:8 8.85189e-05
6 *338:35 *349:8 0.000200246
*RES
1 *2061:X *349:8 42.0186 
2 *349:8 *2064:A1 38 
*END

*D_NET *350 0.00271474
*CONN
*I *2063:B1_N I *D sky130_fd_sc_hd__o21ba_1
*I *2097:C I *D sky130_fd_sc_hd__or4b_1
*I *2062:Y O *D sky130_fd_sc_hd__nor3_1
*CAP
1 *2063:B1_N 0
2 *2097:C 0.000309553
3 *2062:Y 0
4 *350:25 0.000553286
5 *350:4 0.000862839
6 *2097:C *617:86 0.00018543
7 *350:25 *607:51 4.97979e-05
8 *2050:C *350:25 6.1789e-05
9 *326:20 *350:25 0.000117244
10 *326:26 *350:25 0.000116314
11 *335:22 *350:25 3.82956e-05
12 *335:28 *350:25 0.000420195
*RES
1 *2062:Y *350:4 23 
2 *350:4 *2097:C 27.8057 
3 *350:4 *350:25 40.295 
4 *350:25 *2063:B1_N 23 
*END

*D_NET *351 0.00092428
*CONN
*I *2064:A2 I *D sky130_fd_sc_hd__a211oi_1
*I *2063:X O *D sky130_fd_sc_hd__o21ba_1
*CAP
1 *2064:A2 8.95803e-05
2 *2063:X 0.000151129
3 *351:8 0.000240709
4 *2062:B *2064:A2 5.12328e-05
5 *2065:A2 *351:8 0.000178782
6 *335:34 *351:8 0.000114083
7 *337:23 *351:8 6.16439e-05
8 *338:35 *351:8 3.71198e-05
*RES
1 *2063:X *351:8 41.3143 
2 *351:8 *2064:A2 39.5743 
*END

*D_NET *352 0.00261537
*CONN
*I *2066:A3 I *D sky130_fd_sc_hd__a31oi_1
*I *2096:A3 I *D sky130_fd_sc_hd__a31o_1
*I *2065:Y O *D sky130_fd_sc_hd__o21bai_1
*CAP
1 *2066:A3 0
2 *2096:A3 2.12694e-05
3 *2065:Y 0.000274263
4 *352:29 0.000109325
5 *352:16 0.000398626
6 *352:8 0.000542295
7 *352:8 *2066:B1 0
8 *352:8 *617:97 0
9 *352:16 *615:102 0.000357748
10 *352:29 *2096:B1 0.000129757
11 *352:29 *498:21 8.94487e-05
12 *2043:B *352:8 5.61311e-05
13 *289:27 *352:8 0
14 *334:31 *2096:A3 3.49047e-05
15 *334:31 *352:16 0.000150063
16 *334:39 *352:16 9.06851e-05
17 *338:31 *352:8 6.28488e-05
18 *345:25 *2096:A3 5.3304e-05
19 *345:25 *352:16 5.50106e-05
20 *345:25 *352:29 0.000189693
*RES
1 *2065:Y *352:8 43.4271 
2 *352:8 *352:16 22.9336 
3 *352:16 *2096:A3 23.6214 
4 *352:16 *352:29 32.9621 
5 *352:29 *2066:A3 23 
*END

*D_NET *353 0.0014959
*CONN
*I *2088:D I *D sky130_fd_sc_hd__or4_1
*I *2068:B I *D sky130_fd_sc_hd__nor2_1
*I *2069:B I *D sky130_fd_sc_hd__or2_1
*I *2067:X O *D sky130_fd_sc_hd__or2_1
*CAP
1 *2088:D 0.000296896
2 *2068:B 0
3 *2069:B 0.00010177
4 *2067:X 0.000217946
5 *353:12 0.00010177
6 *353:10 0.000514842
7 *2069:B *2068:A 5.67058e-05
8 *2069:B *354:10 2.31797e-05
9 *2088:D *354:10 7.03766e-05
10 *2088:D *527:14 9.02098e-05
11 *2088:D *568:10 2.22079e-05
12 *353:10 *516:8 0
13 *353:10 *642:42 0
*RES
1 *2067:X *353:10 41.0036 
2 *353:10 *353:12 15 
3 *353:12 *2069:B 25.0714 
4 *353:12 *2068:B 23 
5 *353:10 *2088:D 44.6079 
*END

*D_NET *354 0.000731368
*CONN
*I *2155:B1 I *D sky130_fd_sc_hd__o31a_1
*I *2068:Y O *D sky130_fd_sc_hd__nor2_1
*CAP
1 *2155:B1 0
2 *2068:Y 0.00029203
3 *354:10 0.00029203
4 *354:10 *2068:A 5.37348e-06
5 *354:10 *374:8 4.83778e-05
6 *354:10 *568:10 0
7 *2069:B *354:10 2.31797e-05
8 *2088:D *354:10 7.03766e-05
*RES
1 *2068:Y *354:10 43.8207 
2 *354:10 *2155:B1 38 
*END

*D_NET *355 0.0023268
*CONN
*I *2165:A2 I *D sky130_fd_sc_hd__a31o_1
*I *2076:B1 I *D sky130_fd_sc_hd__a31o_1
*I *2083:B I *D sky130_fd_sc_hd__or2_1
*I *2069:X O *D sky130_fd_sc_hd__or2_1
*CAP
1 *2165:A2 3.67637e-05
2 *2076:B1 9.83944e-05
3 *2083:B 0
4 *2069:X 0.000623337
5 *355:21 0.000258497
6 *355:10 0.000746675
7 *2076:B1 *666:DIODE 7.76443e-05
8 *2076:B1 *2076:A1 1.71397e-05
9 *2076:B1 *2165:A3 2.19452e-06
10 *2076:B1 *362:8 1.71422e-05
11 *2076:B1 *424:10 1.75841e-05
12 *2076:B1 *554:96 0
13 *2165:A2 *666:DIODE 9.5877e-05
14 *2165:A2 *2165:A3 2.93845e-05
15 *2165:A2 *424:10 8.48502e-06
16 *355:10 *2078:B 1.01436e-05
17 *355:10 *363:10 0
18 *355:10 *363:19 0
19 *355:10 *641:53 0
20 *355:10 *642:42 2.45549e-06
21 *355:21 *2078:B 0.000199073
22 *355:21 *2155:A1 0
23 *355:21 *424:10 8.60079e-05
24 *355:21 *641:53 0
*RES
1 *2069:X *355:10 46.5964 
2 *355:10 *2083:B 38 
3 *355:10 *355:21 17.9621 
4 *355:21 *2076:B1 25.3718 
5 *355:21 *2165:A2 24.0979 
*END

*D_NET *356 0.00235271
*CONN
*I *2071:B I *D sky130_fd_sc_hd__or2_1
*I *2080:A1 I *D sky130_fd_sc_hd__o31a_1
*I *2070:X O *D sky130_fd_sc_hd__or4_1
*CAP
1 *2071:B 0
2 *2080:A1 0.00010041
3 *2070:X 0.000507825
4 *356:10 0.000608235
5 *2080:A1 *365:10 0.000136486
6 *2080:A1 *465:189 9.88575e-05
7 *2080:A1 *480:54 5.67058e-05
8 *2080:A1 *609:29 2.93747e-05
9 *356:10 *2384:A 0
10 *356:10 *454:8 0.000294834
11 *356:10 *455:10 0.000179539
12 *356:10 *465:189 0.000246273
13 *356:10 *473:16 4.08664e-05
14 *356:10 *473:24 5.3304e-05
*RES
1 *2070:X *356:10 49.8071 
2 *356:10 *2080:A1 41.2314 
3 *356:10 *2071:B 38 
*END

*D_NET *357 0.00135276
*CONN
*I *2075:B1 I *D sky130_fd_sc_hd__a31o_1
*I *2080:B1 I *D sky130_fd_sc_hd__o31a_1
*I *2087:A2 I *D sky130_fd_sc_hd__o31a_1
*I *2071:X O *D sky130_fd_sc_hd__or2_1
*CAP
1 *2075:B1 0
2 *2080:B1 3.99476e-05
3 *2087:A2 0.000159249
4 *2071:X 0.000163831
5 *357:23 3.99476e-05
6 *357:10 0.00032308
7 *2080:B1 *2075:A1 5.3304e-05
8 *2080:B1 *480:54 9.84794e-05
9 *2080:B1 *609:29 7.88828e-05
10 *2087:A2 *358:12 0.000176738
11 *2087:A2 *365:10 0
12 *2087:A2 *465:189 0
13 *2087:A2 *480:58 0.000164291
14 *357:10 *2005:A1 0
15 *357:10 *365:10 0
16 *141:10 *357:10 5.50049e-05
*RES
1 *2071:X *357:10 40.5271 
2 *357:10 *2087:A2 41.7079 
3 *357:10 *357:23 15 
4 *357:23 *2080:B1 24.5743 
5 *357:23 *2075:B1 23 
*END

*D_NET *358 0.00138162
*CONN
*I *2075:A2 I *D sky130_fd_sc_hd__a31o_1
*I *2072:X O *D sky130_fd_sc_hd__or2_1
*CAP
1 *2075:A2 0
2 *2072:X 0.000353635
3 *358:12 0.000353635
4 *358:12 *2005:A1 0
5 *358:12 *2087:A3 0.000268868
6 *358:12 *2087:B1 9.84851e-05
7 *358:12 *373:6 2.93747e-05
8 *358:12 *480:58 6.7177e-06
9 *358:12 *615:212 9.41704e-05
10 *2087:A2 *358:12 0.000176738
*RES
1 *2072:X *358:12 46.4929 
2 *358:12 *2075:A2 38 
*END

*D_NET *359 0.00447705
*CONN
*I *2079:A4 I *D sky130_fd_sc_hd__a41o_1
*I *2073:X O *D sky130_fd_sc_hd__and3_1
*CAP
1 *2079:A4 0
2 *2073:X 0.00112255
3 *359:18 0.000165829
4 *359:6 0.00128838
5 *359:6 *655:DIODE 0.000160875
6 *359:6 *360:16 1.03955e-05
7 *359:6 *560:10 0.000736678
8 *359:6 *609:25 0.000528025
9 *359:18 *2079:A1 9.84851e-05
10 *359:18 *483:33 2.18506e-05
11 *359:18 *488:45 2.95366e-05
12 *359:18 *489:75 0
13 *359:18 *490:65 1.22906e-05
14 *359:18 *490:67 9.20483e-05
15 *359:18 *534:10 1.14452e-05
16 *1951:B *359:6 0.000141954
17 *141:10 *359:18 5.67058e-05
*RES
1 *2073:X *359:6 40.7729 
2 *359:6 *359:18 33.77 
3 *359:18 *2079:A4 23 
*END

*D_NET *360 0.00732093
*CONN
*I *2176:C I *D sky130_fd_sc_hd__and4_1
*I *2075:A3 I *D sky130_fd_sc_hd__a31o_1
*I *2080:A2 I *D sky130_fd_sc_hd__o31a_1
*I *2086:B1 I *D sky130_fd_sc_hd__o211a_1
*I *2074:X O *D sky130_fd_sc_hd__and4_1
*CAP
1 *2176:C 0.000374275
2 *2075:A3 0.000221535
3 *2080:A2 0
4 *2086:B1 0
5 *2074:X 0.000161295
6 *360:29 0.000443775
7 *360:16 0.000956371
8 *360:8 0.0012697
9 *2075:A3 *2075:A1 8.34394e-05
10 *2075:A3 *480:54 0.000185428
11 *2075:A3 *609:29 2.13733e-05
12 *2176:C *2176:D 5.70419e-05
13 *2176:C *430:10 0
14 *2176:C *434:14 7.3367e-05
15 *2176:C *434:25 0.000143655
16 *2176:C *490:55 0
17 *2176:C *490:63 0
18 *2176:C *494:10 5.12254e-05
19 *2176:C *560:100 0
20 *360:16 *655:DIODE 0.000162452
21 *360:16 *2086:C1 5.50106e-05
22 *360:16 *430:10 0
23 *360:16 *488:37 0.00164011
24 *360:16 *560:10 0.000358113
25 *360:16 *560:100 0
26 *360:16 *609:25 0.000291038
27 *360:16 *609:29 1.22822e-05
28 *360:29 *366:8 9.58714e-05
29 *360:29 *480:54 0.000141052
30 *360:29 *488:37 6.36678e-05
31 *360:29 *609:25 1.14154e-05
32 *360:29 *609:29 0.000176888
33 *1951:B *360:16 4.6595e-05
34 *296:40 *360:16 0.00021356
35 *359:6 *360:16 1.03955e-05
*RES
1 *2074:X *360:8 40.0507 
2 *360:8 *360:16 40.1057 
3 *360:16 *2086:B1 23 
4 *360:16 *360:29 6.27643 
5 *360:29 *2080:A2 23 
6 *360:29 *2075:A3 27.4536 
7 *360:8 *2176:C 46.0786 
*END

*D_NET *361 0.00494539
*CONN
*I *2076:A3 I *D sky130_fd_sc_hd__a31o_1
*I *2075:X O *D sky130_fd_sc_hd__a31o_1
*CAP
1 *2076:A3 0
2 *2075:X 0.000231758
3 *361:18 0.00158658
4 *361:8 0.00181834
5 *361:8 *609:29 2.87911e-05
6 *361:18 *2005:A1 0.000160682
7 *361:18 *2085:C 0.000145135
8 *361:18 *369:8 5.46592e-06
9 *361:18 *369:20 2.32793e-05
10 *361:18 *420:10 0
11 *361:18 *422:10 0.000175143
12 *361:18 *540:67 0
13 *361:18 *554:71 6.6759e-05
14 *361:18 *613:89 0.000204573
15 *361:18 *613:113 0.000100625
16 *361:18 *613:135 0
17 *361:18 *615:177 1.17049e-05
18 *242:10 *361:18 0.000136486
19 *246:10 *361:18 0
20 *295:107 *361:18 0.000240426
21 *319:56 *361:18 9.64e-06
*RES
1 *2075:X *361:8 41.0036 
2 *361:8 *361:18 46.0714 
3 *361:18 *2076:A3 23 
*END

*D_NET *362 0.00222241
*CONN
*I *2164:A2 I *D sky130_fd_sc_hd__a31o_1
*I *2078:B I *D sky130_fd_sc_hd__nor3b_1
*I *2076:X O *D sky130_fd_sc_hd__a31o_1
*CAP
1 *2164:A2 6.91433e-05
2 *2078:B 0.000266248
3 *2076:X 0.000280894
4 *362:8 0.000616286
5 *2078:B *2076:A1 8.57393e-05
6 *2078:B *2083:A 5.50049e-05
7 *2078:B *364:8 0.000187129
8 *2078:B *369:8 3.21609e-05
9 *2078:B *424:10 2.24973e-05
10 *2078:B *615:177 3.47781e-05
11 *2164:A2 *363:38 6.16531e-05
12 *2164:A2 *424:10 3.3746e-05
13 *2164:A2 *615:177 0.000125413
14 *362:8 *666:DIODE 5.3304e-05
15 *362:8 *2076:A1 9.8971e-06
16 *362:8 *369:20 5.3304e-05
17 *2076:B1 *362:8 1.71422e-05
18 *319:56 *362:8 8.84817e-06
19 *320:21 *2078:B 0
20 *355:10 *2078:B 1.01436e-05
21 *355:21 *2078:B 0.000199073
*RES
1 *2076:X *362:8 41.48 
2 *362:8 *2078:B 44.67 
3 *362:8 *2164:A2 39.9057 
*END

*D_NET *363 0.0041063
*CONN
*I *2164:A3 I *D sky130_fd_sc_hd__a31o_1
*I *2161:B1 I *D sky130_fd_sc_hd__o32a_1
*I *2078:C_N I *D sky130_fd_sc_hd__nor3b_1
*I *2077:Y O *D sky130_fd_sc_hd__nor2_1
*CAP
1 *2164:A3 0
2 *2161:B1 3.28483e-05
3 *2078:C_N 0
4 *2077:Y 0.000457387
5 *363:38 0.000427362
6 *363:19 0.0005584
7 *363:10 0.000555577
8 *2161:B1 *554:59 9.58714e-05
9 *363:10 *461:10 0.000518381
10 *363:10 *554:59 2.76611e-06
11 *363:10 *559:34 0.000274078
12 *363:19 *554:59 4.81134e-05
13 *363:19 *554:96 1.02561e-05
14 *363:38 *424:10 6.16531e-05
15 *363:38 *540:52 0.000388071
16 *363:38 *554:71 0.000136486
17 *363:38 *554:96 4.6318e-06
18 *2164:A2 *363:38 6.16531e-05
19 *319:35 *363:19 5.94125e-05
20 *319:35 *363:38 0.000150977
21 *320:21 *2161:B1 9.58714e-05
22 *320:21 *363:19 0.000166504
23 *355:10 *363:10 0
24 *355:10 *363:19 0
*RES
1 *2077:Y *363:10 48.5436 
2 *363:10 *2078:C_N 38 
3 *363:10 *363:19 2.96214 
4 *363:19 *2161:B1 39.0979 
5 *363:19 *363:38 37.54 
6 *363:38 *2164:A3 38 
*END

*D_NET *364 0.00548082
*CONN
*I *2158:B1 I *D sky130_fd_sc_hd__a221o_1
*I *2092:A2 I *D sky130_fd_sc_hd__a21bo_1
*I *2078:Y O *D sky130_fd_sc_hd__nor3b_1
*CAP
1 *2158:B1 0
2 *2092:A2 0.000276607
3 *2078:Y 0.000259519
4 *364:33 0.000289066
5 *364:12 0.000977451
6 *364:8 0.000671297
7 *2092:A2 *2084:B 5.50106e-05
8 *2092:A2 *367:36 0.000884576
9 *2092:A2 *621:197 0.000300015
10 *364:8 *2083:A 0.000141154
11 *364:12 *2082:A 0.00021356
12 *364:12 *2155:A1 7.55698e-05
13 *364:12 *2155:A3 0
14 *364:12 *367:36 0.000241365
15 *364:12 *416:8 0
16 *364:12 *417:8 3.28876e-05
17 *364:12 *621:199 3.0647e-05
18 *364:12 *641:53 3.0647e-05
19 *364:33 *2155:A3 1.83564e-05
20 *364:33 *415:16 2.24973e-05
21 *364:33 *417:8 0
22 *364:33 *419:10 9.58714e-05
23 *364:33 *621:197 2.98648e-05
24 *2078:B *364:8 0.000187129
25 *2089:D_N *364:33 1.24376e-05
26 *2158:A2 *364:33 2.60994e-05
27 *316:34 *364:33 8.80821e-05
28 *319:35 *2092:A2 0.000521108
*RES
1 *2078:Y *364:8 43.8621 
2 *364:8 *364:12 23.9486 
3 *364:12 *2092:A2 34.745 
4 *364:12 *364:33 35.1786 
5 *364:33 *2158:B1 23 
*END

*D_NET *365 0.000539189
*CONN
*I *2080:A3 I *D sky130_fd_sc_hd__o31a_1
*I *2079:X O *D sky130_fd_sc_hd__a41o_1
*CAP
1 *2080:A3 0
2 *2079:X 0.000181155
3 *365:10 0.000181155
4 *2080:A1 *365:10 0.000136486
5 *2087:A2 *365:10 0
6 *141:10 *365:10 4.03919e-05
7 *357:10 *365:10 0
*RES
1 *2079:X *365:10 41.0036 
2 *365:10 *2080:A3 38 
*END

*D_NET *366 0.0042582
*CONN
*I *2081:A3 I *D sky130_fd_sc_hd__a31o_1
*I *2080:X O *D sky130_fd_sc_hd__o31a_1
*CAP
1 *2081:A3 0
2 *2080:X 8.0784e-05
3 *366:16 0.000828801
4 *366:8 0.000909585
5 *366:16 *2005:B2 0.000154147
6 *366:16 *414:44 4.96265e-05
7 *366:16 *465:189 0.000318429
8 *366:16 *480:58 0
9 *366:16 *480:70 0
10 *366:16 *554:32 0.000865288
11 *366:16 *554:123 0.000208809
12 *366:16 *601:18 4.07715e-05
13 *366:16 *615:156 0.000188282
14 *366:16 *615:177 3.42882e-05
15 *366:16 *615:212 0.000261936
16 *286:54 *366:16 0.000110913
17 *315:21 *366:16 0.000110669
18 *360:29 *366:8 9.58714e-05
*RES
1 *2080:X *366:8 39.0979 
2 *366:8 *366:16 37.3921 
3 *366:16 *2081:A3 23 
*END

*D_NET *367 0.00596023
*CONN
*I *2156:A1 I *D sky130_fd_sc_hd__o21a_1
*I *2082:A I *D sky130_fd_sc_hd__inv_2
*I *2091:A1 I *D sky130_fd_sc_hd__o211a_1
*I *2161:A1 I *D sky130_fd_sc_hd__o32a_1
*I *2081:X O *D sky130_fd_sc_hd__a31o_1
*CAP
1 *2156:A1 7.27796e-05
2 *2082:A 0.000143493
3 *2091:A1 0
4 *2161:A1 0.000112145
5 *2081:X 0.000180393
6 *367:36 0.000910793
7 *367:12 0.000231968
8 *367:10 0.000994735
9 *2082:A *2155:A1 0.000132886
10 *2082:A *2156:B1 1.59312e-05
11 *2082:A *2165:A3 5.50049e-05
12 *2082:A *423:10 6.07929e-05
13 *2156:A1 *2156:B1 0.000269775
14 *2156:A1 *375:12 7.42621e-05
15 *2156:A1 *540:52 0.000400198
16 *2161:A1 *376:12 6.16531e-05
17 *2161:A1 *420:10 0.000110116
18 *2161:A1 *554:42 8.82318e-05
19 *2161:A1 *554:59 0
20 *367:10 *540:67 0.000140259
21 *367:10 *546:31 0.000111852
22 *367:12 *376:12 0.000228051
23 *367:12 *420:10 9.59831e-05
24 *367:12 *546:31 3.47781e-05
25 *367:36 *2084:B 5.3304e-05
26 *367:36 *2156:B1 7.75329e-06
27 *367:36 *621:199 6.7177e-06
28 *2092:A2 *367:36 0.000884576
29 *319:10 *367:10 2.68708e-05
30 *319:43 *367:36 0
31 *364:12 *2082:A 0.00021356
32 *364:12 *367:36 0.000241365
*RES
1 *2081:X *367:10 41.1279 
2 *367:10 *367:12 3.31429 
3 *367:12 *2161:A1 41.3143 
4 *367:12 *2091:A1 38 
5 *367:10 *367:36 44.2929 
6 *367:36 *2082:A 42.06 
7 *367:36 *2156:A1 42.4329 
*END

*D_NET *368 0.000523152
*CONN
*I *2165:A3 I *D sky130_fd_sc_hd__a31o_1
*I *2082:Y O *D sky130_fd_sc_hd__inv_2
*CAP
1 *2165:A3 0.000178292
2 *2082:Y 0.000178292
3 *2165:A3 *666:DIODE 4.56951e-05
4 *2165:A3 *2155:A1 2.18506e-05
5 *2165:A3 *424:10 1.24376e-05
6 *2076:B1 *2165:A3 2.19452e-06
7 *2082:A *2165:A3 5.50049e-05
8 *2165:A2 *2165:A3 2.93845e-05
*RES
1 *2082:Y *2165:A3 49.5007 
*END

*D_NET *369 0.00253464
*CONN
*I *2085:C I *D sky130_fd_sc_hd__or4b_1
*I *2161:A2 I *D sky130_fd_sc_hd__o32a_1
*I *2083:X O *D sky130_fd_sc_hd__or2_1
*CAP
1 *2085:C 0.000160986
2 *2161:A2 0
3 *2083:X 0.000133744
4 *369:20 0.000350466
5 *369:8 0.000645196
6 *2085:C *2076:A1 1.05658e-05
7 *2085:C *375:12 4.34876e-05
8 *2085:C *540:52 0.000181125
9 *2085:C *554:71 9.67842e-05
10 *2085:C *615:177 6.76011e-05
11 *369:8 *2076:A1 3.14007e-05
12 *369:20 *554:59 0.000178517
13 *369:20 *554:71 2.24608e-05
14 *369:20 *554:96 0.000209832
15 *2078:B *369:8 3.21609e-05
16 *319:56 *369:8 8.6688e-05
17 *320:6 *369:20 4.06849e-05
18 *320:21 *369:8 0
19 *320:21 *369:20 1.57571e-05
20 *361:18 *2085:C 0.000145135
21 *361:18 *369:8 5.46592e-06
22 *361:18 *369:20 2.32793e-05
23 *362:8 *369:20 5.3304e-05
*RES
1 *2083:X *369:8 40.4339 
2 *369:8 *369:20 35.5911 
3 *369:20 *2161:A2 23 
4 *369:8 *2085:C 42.4846 
*END

*D_NET *370 0.00239957
*CONN
*I *2090:B I *D sky130_fd_sc_hd__or3b_1
*I *2085:B I *D sky130_fd_sc_hd__or4b_1
*I *2084:Y O *D sky130_fd_sc_hd__nor2_1
*CAP
1 *2090:B 0
2 *2085:B 0
3 *2084:Y 0.000186615
4 *370:14 0.000549861
5 *370:6 0.000736476
6 *370:6 *2084:B 9.16557e-05
7 *370:6 *554:42 5.3304e-05
8 *370:14 *2090:A 8.4047e-05
9 *370:14 *2091:A2 0.000114856
10 *370:14 *2091:C1 0.000111634
11 *370:14 *2166:A 9.8971e-06
12 *370:14 *375:12 2.07242e-05
13 *370:14 *378:10 0.000246729
14 *370:14 *540:52 1.24376e-05
15 *370:14 *554:42 3.47781e-05
16 *370:14 *601:24 0
17 *286:54 *370:14 2.35393e-05
18 *319:10 *370:14 0.00012302
*RES
1 *2084:Y *370:6 25.5271 
2 *370:6 *370:14 40.1086 
3 *370:14 *2085:B 23 
4 *370:6 *2090:B 23 
*END

*D_NET *371 0.000526668
*CONN
*I *2091:A2 I *D sky130_fd_sc_hd__o211a_1
*I *2085:X O *D sky130_fd_sc_hd__or4b_1
*CAP
1 *2091:A2 0.000119176
2 *2085:X 0.000119176
3 *2091:A2 *2091:B1 1.14154e-05
4 *2091:A2 *2091:C1 2.67826e-05
5 *2091:A2 *375:12 0.00011501
6 *2091:A2 *540:52 2.02517e-05
7 *370:14 *2091:A2 0.000114856
*RES
1 *2085:X *2091:A2 49.5214 
*END

*D_NET *372 0.000769562
*CONN
*I *2087:A3 I *D sky130_fd_sc_hd__o31a_1
*I *2086:X O *D sky130_fd_sc_hd__o211a_1
*CAP
1 *2087:A3 0.000147763
2 *2086:X 5.56997e-05
3 *372:8 0.000203462
4 *372:8 *2072:B 3.81391e-05
5 *372:8 *465:189 5.56306e-05
6 *358:12 *2087:A3 0.000268868
*RES
1 *2086:X *372:8 39.5536 
2 *372:8 *2087:A3 41.0036 
*END

*D_NET *373 0.00563857
*CONN
*I *2089:B I *D sky130_fd_sc_hd__or4b_1
*I *2087:X O *D sky130_fd_sc_hd__o31a_1
*CAP
1 *2089:B 0
2 *2087:X 0.00126615
3 *373:10 0.000964812
4 *373:6 0.00223096
5 *373:10 *2154:A 0
6 *373:10 *415:8 0.000187996
7 *373:10 *415:16 4.98718e-06
8 *373:10 *418:10 4.08537e-05
9 *373:10 *562:8 0
10 *373:10 *579:16 0.000185573
11 *373:10 *579:26 9.53188e-05
12 *373:10 *620:66 0.000165978
13 *373:10 *620:84 9.46108e-05
14 *373:10 *649:23 0
15 *2280:D *373:6 0.000151601
16 *94:10 *373:10 0
17 *181:8 *373:10 5.80963e-05
18 *279:8 *373:10 0.000138727
19 *282:27 *373:10 2.3529e-05
20 *316:28 *373:10 0
21 *358:12 *373:6 2.93747e-05
*RES
1 *2087:X *373:6 39.3436 
2 *373:6 *373:10 37.6821 
3 *373:10 *2089:B 38 
*END

*D_NET *374 0.00110918
*CONN
*I *2089:C I *D sky130_fd_sc_hd__or4b_1
*I *2088:X O *D sky130_fd_sc_hd__or4_1
*CAP
1 *2089:C 0
2 *2088:X 0.000344838
3 *374:8 0.000344838
4 *374:8 *2155:A2 4.98718e-06
5 *374:8 *2155:A3 0
6 *374:8 *418:10 0
7 *374:8 *540:27 1.17152e-05
8 *374:8 *540:48 0.000192087
9 *374:8 *568:10 0.000150888
10 *374:8 *579:26 1.14452e-05
11 *354:10 *374:8 4.83778e-05
*RES
1 *2088:X *374:8 45.54 
2 *374:8 *2089:C 38 
*END

*D_NET *375 0.00439321
*CONN
*I *2091:B1 I *D sky130_fd_sc_hd__o211a_1
*I *2166:A I *D sky130_fd_sc_hd__and3_1
*I *2089:X O *D sky130_fd_sc_hd__or4b_1
*CAP
1 *2091:B1 1.85078e-05
2 *2166:A 5.65352e-05
3 *2089:X 7.52206e-05
4 *375:12 0.000950978
5 *375:8 0.000951155
6 *2091:B1 *2091:C1 1.14154e-05
7 *2166:A *2091:C1 6.72022e-05
8 *2166:A *2166:C 0.000137651
9 *375:8 *2155:A2 0.000111852
10 *375:8 *540:27 1.01436e-05
11 *375:12 *2091:C1 8.48502e-06
12 *375:12 *2156:B1 0.000397596
13 *375:12 *2166:C 0.0008124
14 *375:12 *540:52 0.000156045
15 *375:12 *540:67 5.3304e-05
16 *375:12 *554:71 9.67842e-05
17 *375:12 *568:10 2.20111e-05
18 *2085:C *375:12 4.34876e-05
19 *2091:A2 *2091:B1 1.14154e-05
20 *2091:A2 *375:12 0.00011501
21 *2156:A1 *375:12 7.42621e-05
22 *319:43 *375:12 0.000181125
23 *370:14 *2166:A 9.8971e-06
24 *370:14 *375:12 2.07242e-05
*RES
1 *2089:X *375:8 39.5536 
2 *375:8 *375:12 35.6314 
3 *375:12 *2166:A 24.5743 
4 *375:12 *2091:B1 23.4971 
*END

*D_NET *376 0.00164443
*CONN
*I *2091:C1 I *D sky130_fd_sc_hd__o211a_1
*I *2090:X O *D sky130_fd_sc_hd__or3b_1
*CAP
1 *2091:C1 9.49427e-05
2 *2090:X 0.000287552
3 *376:12 0.000382495
4 *2091:C1 *414:26 0
5 *376:12 *2084:B 2.02872e-05
6 *376:12 *554:42 0.000343928
7 *2091:A2 *2091:C1 2.67826e-05
8 *2091:B1 *2091:C1 1.14154e-05
9 *2161:A1 *376:12 6.16531e-05
10 *2166:A *2091:C1 6.72022e-05
11 *367:12 *376:12 0.000228051
12 *370:14 *2091:C1 0.000111634
13 *375:12 *2091:C1 8.48502e-06
*RES
1 *2090:X *376:12 43.6136 
2 *376:12 *2091:C1 40.5686 
*END

*D_NET *377 0.000682456
*CONN
*I *2092:B1_N I *D sky130_fd_sc_hd__a21bo_1
*I *2091:X O *D sky130_fd_sc_hd__o211a_1
*CAP
1 *2092:B1_N 6.93947e-05
2 *2091:X 9.9574e-05
3 *377:8 0.000168969
4 *2092:B1_N *621:197 9.84851e-05
5 *377:8 *420:10 0.000190227
6 *319:35 *377:8 5.58068e-05
*RES
1 *2091:X *377:8 40.61 
2 *377:8 *2092:B1_N 39.0979 
*END

*D_NET *378 0.00223211
*CONN
*I *2093:A2 I *D sky130_fd_sc_hd__a21o_1
*I *2092:X O *D sky130_fd_sc_hd__a21bo_1
*CAP
1 *2093:A2 0.000182104
2 *2092:X 0.000369208
3 *378:10 0.000551312
4 *2093:A2 *2093:B1 5.67058e-05
5 *378:10 *2084:B 6.24154e-05
6 *378:10 *2090:A 5.50106e-05
7 *378:10 *421:10 0.000157174
8 *378:10 *601:24 0
9 *378:10 *621:197 0.000178517
10 *2219:A2 *378:10 4.59027e-05
11 *170:48 *2093:A2 0.000221406
12 *248:8 *378:10 3.84797e-05
13 *319:10 *378:10 4.66636e-05
14 *319:12 *378:10 2.04774e-05
15 *370:14 *378:10 0.000246729
*RES
1 *2092:X *378:10 47.9429 
2 *378:10 *2093:A2 42.4329 
*END

*D_NET *379 0.00484275
*CONN
*I *2153:A2 I *D sky130_fd_sc_hd__o211a_1
*I *2151:B I *D sky130_fd_sc_hd__nor2_1
*I *2095:A2 I *D sky130_fd_sc_hd__a21oi_1
*I *2094:X O *D sky130_fd_sc_hd__or4_1
*CAP
1 *2153:A2 2.34823e-05
2 *2151:B 2.34823e-05
3 *2095:A2 0.000175831
4 *2094:X 0.000550719
5 *379:10 0.000420906
6 *379:8 0.000795794
7 *2095:A2 *413:6 0.000831434
8 *379:8 *2094:B 2.93845e-05
9 *379:8 *414:8 7.56391e-05
10 *379:10 *413:6 1.32314e-05
11 *2153:C1 *2153:A2 0
12 *2153:C1 *379:10 5.10353e-05
13 *170:70 *379:10 1.59094e-06
14 *287:14 *379:10 0.000310647
15 *287:21 *379:10 1.56665e-05
16 *287:51 *379:8 2.93747e-05
17 *287:51 *379:10 2.32101e-05
18 *316:16 *379:8 0.000536832
19 *334:68 *2095:A2 3.91386e-05
20 *334:80 *2095:A2 0.000480362
21 *334:80 *379:10 0.000414989
*RES
1 *2094:X *379:8 34.6 
2 *379:8 *379:10 7.29143 
3 *379:10 *2095:A2 32.6943 
4 *379:10 *2151:B 23.4971 
5 *379:8 *2153:A2 23.4971 
*END

*D_NET *380 0.00101214
*CONN
*I *2097:D_N I *D sky130_fd_sc_hd__or4b_1
*I *2096:X O *D sky130_fd_sc_hd__a31o_1
*CAP
1 *2097:D_N 5.74494e-05
2 *2096:X 0.000266965
3 *380:8 0.000324415
4 *2097:D_N *617:86 0.000141954
5 *380:8 *2096:B1 4.6318e-06
6 *326:20 *380:8 0.000216721
7 *335:22 *380:8 0
8 *346:12 *380:8 0
*RES
1 *2096:X *380:8 43.075 
2 *380:8 *2097:D_N 39.5743 
*END

*D_NET *381 0.00104756
*CONN
*I *2099:A I *D sky130_fd_sc_hd__nor2_1
*I *2097:X O *D sky130_fd_sc_hd__or4b_1
*CAP
1 *2099:A 0
2 *2097:X 0.000268437
3 *381:10 0.000268437
4 *381:10 *382:10 8.16149e-05
5 *381:10 *613:53 0.000379403
6 *381:10 *617:71 4.96717e-05
*RES
1 *2097:X *381:10 44.1729 
2 *381:10 *2099:A 38 
*END

*D_NET *382 0.000534524
*CONN
*I *2099:B I *D sky130_fd_sc_hd__nor2_1
*I *2098:Y O *D sky130_fd_sc_hd__xnor2_1
*CAP
1 *2099:B 0
2 *2098:Y 0.000149667
3 *382:10 0.000149667
4 *382:10 *607:51 9.84794e-05
5 *382:10 *617:71 5.50955e-05
6 *381:10 *382:10 8.16149e-05
*RES
1 *2098:Y *382:10 41.3557 
2 *382:10 *2099:B 38 
*END

*D_NET *383 0.00675379
*CONN
*I *2383:A I *D sky130_fd_sc_hd__buf_1
*I *2382:A I *D sky130_fd_sc_hd__clkbuf_2
*I *2099:Y O *D sky130_fd_sc_hd__nor2_1
*CAP
1 *2383:A 0.000566969
2 *2382:A 0.000196873
3 *2099:Y 0.000287191
4 *383:29 0.00154395
5 *383:10 0.00117385
6 *383:8 0.000287191
7 *2382:A *1935:A 0.000185428
8 *2382:A *2132:B 9.84851e-05
9 *2383:A *1936:A 2.93747e-05
10 *2383:A *2328:CLK 4.5707e-05
11 *383:8 *501:21 0
12 *383:8 *610:95 0
13 *383:8 *613:53 0.000193407
14 *383:29 *1935:A 0.000243526
15 *383:29 *2040:A 0
16 *383:29 *2042:A 2.64616e-05
17 *383:29 *500:49 0.000230604
18 *383:29 *500:70 0.000258245
19 *383:29 *500:78 0.000136486
20 *2051:A3 *383:29 0.000185428
21 *2054:B1 *2383:A 0.000392386
22 *2131:A *2382:A 4.95081e-05
23 *274:6 *2382:A 1.72202e-05
24 *275:18 *2383:A 0.000200462
25 *275:18 *383:29 0.000126832
26 *329:42 *2383:A 0.000180218
27 *330:8 *383:29 1.14643e-05
28 *332:8 *383:29 1.01436e-05
29 *336:26 *383:29 5.94125e-05
30 *337:8 *383:29 1.69668e-05
*RES
1 *2099:Y *383:8 43.4271 
2 *383:8 *383:10 15 
3 *383:10 *2382:A 27.4329 
4 *383:10 *383:29 47.2136 
5 *383:29 *2383:A 34.4757 
*END

*D_NET *384 0.000757081
*CONN
*I *2103:B I *D sky130_fd_sc_hd__and3_1
*I *2101:Y O *D sky130_fd_sc_hd__nand2_1
*CAP
1 *2103:B 0.000183017
2 *2101:Y 7.67033e-05
3 *384:8 0.00025972
4 *2103:B *600:32 1.85916e-05
5 *384:8 *2012:A 0.000111045
6 *384:8 *600:44 6.26356e-05
7 *384:8 *622:32 3.39231e-05
8 *145:8 *384:8 1.14452e-05
*RES
1 *2101:Y *384:8 40.9621 
2 *384:8 *2103:B 40.0507 
*END

*D_NET *385 0.000835133
*CONN
*I *2103:C I *D sky130_fd_sc_hd__and3_1
*I *2102:X O *D sky130_fd_sc_hd__or2_1
*CAP
1 *2103:C 7.32344e-05
2 *2102:X 0.000183758
3 *385:8 0.000256993
4 *2103:C *600:32 8.43278e-05
5 *385:8 *466:33 3.98859e-05
6 *385:8 *600:26 0
7 *385:8 *606:23 8.82524e-05
8 *224:10 *385:8 0.000108681
*RES
1 *2102:X *385:8 42.0186 
2 *385:8 *2103:C 38.9632 
*END

*D_NET *386 0.0012897
*CONN
*I *2106:B I *D sky130_fd_sc_hd__and3_1
*I *2104:Y O *D sky130_fd_sc_hd__nand3_1
*CAP
1 *2106:B 8.42453e-05
2 *2104:Y 0.00020085
3 *386:8 0.000285096
4 *2106:B *600:58 3.7122e-06
5 *2106:B *600:65 2.13733e-05
6 *386:8 *387:8 8.85189e-05
7 *386:8 *468:72 0.000101575
8 *386:8 *468:87 6.32688e-05
9 *386:8 *499:24 0.000262226
10 *386:8 *499:41 0.00017884
*RES
1 *2104:Y *386:8 43.7793 
2 *386:8 *2106:B 39.0979 
*END

*D_NET *387 0.000412981
*CONN
*I *2106:C I *D sky130_fd_sc_hd__and3_1
*I *2105:X O *D sky130_fd_sc_hd__a21o_1
*CAP
1 *2106:C 5.24473e-05
2 *2105:X 3.55839e-05
3 *387:8 8.80312e-05
4 *2106:C *600:65 6.21121e-05
5 *387:8 *468:72 8.62876e-05
6 *386:8 *387:8 8.85189e-05
*RES
1 *2105:X *387:8 39.2014 
2 *387:8 *2106:C 38.7043 
*END

*D_NET *388 0.00818246
*CONN
*I *2111:B I *D sky130_fd_sc_hd__or2_1
*I *2110:B I *D sky130_fd_sc_hd__and2_1
*I *2113:C I *D sky130_fd_sc_hd__and3_1
*I *2120:B I *D sky130_fd_sc_hd__and2_1
*I *2125:D I *D sky130_fd_sc_hd__and4_1
*I *2109:A_N I *D sky130_fd_sc_hd__and3b_1
*I *2107:X O *D sky130_fd_sc_hd__and4_1
*CAP
1 *2111:B 0.000216112
2 *2110:B 0.000182641
3 *2113:C 0
4 *2120:B 0
5 *2125:D 0
6 *2109:A_N 0.00015368
7 *2107:X 9.75778e-05
8 *388:57 0.000380733
9 *388:51 0.00103859
10 *388:42 8.2463e-05
11 *388:36 0.00124954
12 *388:29 7.77022e-05
13 *388:23 0.00120005
14 *388:8 0.000830921
15 *2109:A_N *2107:D 0
16 *2109:A_N *507:19 0
17 *2109:A_N *584:8 8.68472e-05
18 *2110:B *2037:C 0
19 *2110:B *510:22 0.000241616
20 *2111:B *2114:B 0.000383976
21 *2111:B *390:10 6.48142e-05
22 *2111:B *391:10 5.50106e-05
23 *2111:B *397:21 7.03317e-05
24 *2111:B *510:57 2.02872e-05
25 *388:8 *584:12 0.000272377
26 *388:23 *2038:A2 0
27 *388:23 *507:48 0
28 *388:23 *584:8 9.48381e-06
29 *388:23 *607:53 0
30 *388:23 *607:63 0
31 *388:23 *611:64 0
32 *388:23 *611:76 0
33 *388:29 *509:48 1.01436e-05
34 *388:29 *607:53 8.92738e-05
35 *388:42 *509:36 0.000191157
36 *388:42 *621:52 0.000118127
37 *388:51 *602:20 0.00022142
38 *388:57 *2121:A_N 4.34173e-05
39 *388:57 *390:10 0.000166522
40 *388:57 *392:10 0
41 *388:57 *397:21 3.31683e-05
42 *388:57 *510:22 6.25714e-05
43 *388:57 *511:35 1.62015e-05
44 *2125:C *388:29 0.00015954
45 *328:8 *388:23 0
46 *336:10 *388:29 3.47781e-05
47 *336:16 *388:23 0.00026808
48 *336:16 *388:36 5.3304e-05
*RES
1 *2107:X *388:8 41.0036 
2 *388:8 *2109:A_N 41.3143 
3 *388:8 *388:23 25.5436 
4 *388:23 *388:29 32.61 
5 *388:29 *2125:D 23 
6 *388:23 *388:36 7.76786 
7 *388:36 *388:42 32.61 
8 *388:42 *2120:B 23 
9 *388:36 *388:51 26.5793 
10 *388:51 *388:57 19.0186 
11 *388:57 *2113:C 23 
12 *388:57 *2110:B 26.2936 
13 *388:51 *2111:B 43.9657 
*END

*D_NET *389 0.000246566
*CONN
*I *2109:B I *D sky130_fd_sc_hd__and3b_1
*I *2108:X O *D sky130_fd_sc_hd__a31o_1
*CAP
1 *2109:B 0.000101319
2 *2108:X 0.000101319
3 *2109:B *2109:C 4.39278e-05
*RES
1 *2108:X *2109:B 48.0714 
*END

*D_NET *390 0.00221189
*CONN
*I *2114:B I *D sky130_fd_sc_hd__or2_1
*I *2112:A_N I *D sky130_fd_sc_hd__and3b_1
*I *2110:X O *D sky130_fd_sc_hd__and2_1
*CAP
1 *2114:B 0.000209638
2 *2112:A_N 0
3 *2110:X 0.000189785
4 *390:10 0.000399423
5 *2114:B *2111:A 5.50106e-05
6 *2114:B *391:10 6.51746e-05
7 *2114:B *397:21 0
8 *2114:B *510:57 0.000446281
9 *390:10 *391:10 0
10 *390:10 *392:6 5.67058e-05
11 *390:10 *509:14 0
12 *390:10 *509:16 4.04303e-05
13 *390:10 *509:26 1.24376e-05
14 *390:10 *510:22 2.32101e-05
15 *390:10 *511:35 9.84794e-05
16 *2111:B *2114:B 0.000383976
17 *2111:B *390:10 6.48142e-05
18 *388:57 *390:10 0.000166522
*RES
1 *2110:X *390:10 42.5364 
2 *390:10 *2112:A_N 38 
3 *390:10 *2114:B 45.5193 
*END

*D_NET *391 0.000874069
*CONN
*I *2112:B I *D sky130_fd_sc_hd__and3b_1
*I *2111:X O *D sky130_fd_sc_hd__or2_1
*CAP
1 *2112:B 0
2 *2111:X 0.000293873
3 *391:10 0.000293873
4 *391:10 *2111:A 0.000160062
5 *391:10 *509:14 6.07611e-06
6 *2111:B *391:10 5.50106e-05
7 *2114:B *391:10 6.51746e-05
8 *390:10 *391:10 0
*RES
1 *2111:X *391:10 43.4893 
2 *391:10 *2112:B 38 
*END

*D_NET *392 0.00276892
*CONN
*I *2115:A_N I *D sky130_fd_sc_hd__and3b_1
*I *2116:B I *D sky130_fd_sc_hd__nand2_1
*I *2119:A2 I *D sky130_fd_sc_hd__a21o_1
*I *2117:B I *D sky130_fd_sc_hd__or2_1
*I *2113:X O *D sky130_fd_sc_hd__and3_1
*CAP
1 *2115:A_N 3.68728e-05
2 *2116:B 0.000110352
3 *2119:A2 0
4 *2117:B 0.000300187
5 *2113:X 2.68374e-05
6 *392:23 0.000110352
7 *392:10 0.000583532
8 *392:6 0.000347056
9 *2115:A_N *2110:A 0.000139357
10 *2115:A_N *509:16 5.50106e-05
11 *2115:A_N *510:22 5.82395e-05
12 *2116:B *2116:A 0.00010018
13 *2116:B *511:25 6.53382e-05
14 *2117:B *2117:A 7.66188e-05
15 *2117:B *468:148 9.04083e-05
16 *2117:B *511:23 4.98718e-06
17 *2117:B *511:35 1.97329e-05
18 *2117:B *512:18 0
19 *392:6 *509:16 0.000141954
20 *392:6 *510:22 6.72872e-05
21 *392:10 *468:148 0.000242225
22 *392:10 *511:35 0.000135682
23 *388:57 *392:10 0
24 *390:10 *392:6 5.67058e-05
*RES
1 *2113:X *392:6 24.5743 
2 *392:6 *392:10 21.4836 
3 *392:10 *2117:B 44.4007 
4 *392:10 *392:23 15 
5 *392:23 *2119:A2 23 
6 *392:23 *2116:B 25.5271 
7 *392:6 *2115:A_N 24.5743 
*END

*D_NET *393 0.00074955
*CONN
*I *2115:B I *D sky130_fd_sc_hd__and3b_1
*I *2114:X O *D sky130_fd_sc_hd__or2_1
*CAP
1 *2115:B 9.12757e-05
2 *2114:X 0.000207851
3 *393:8 0.000299126
4 *2115:B *510:22 3.7122e-06
5 *393:8 *510:22 0.000105154
6 *393:8 *510:40 4.08641e-05
7 *228:10 *2115:B 1.56662e-06
8 *228:10 *393:8 0
*RES
1 *2114:X *393:8 42.0186 
2 *393:8 *2115:B 39.0979 
*END

*D_NET *394 0.000779592
*CONN
*I *2118:B I *D sky130_fd_sc_hd__and3_1
*I *2116:Y O *D sky130_fd_sc_hd__nand2_1
*CAP
1 *2118:B 0
2 *2116:Y 0.000235569
3 *394:10 0.000235569
4 *394:10 *2116:A 1.24376e-05
5 *394:10 *2118:A 0.000296017
6 *394:10 *621:106 0
*RES
1 *2116:Y *394:10 42.64 
2 *394:10 *2118:B 38 
*END

*D_NET *395 0.000281577
*CONN
*I *2118:C I *D sky130_fd_sc_hd__and3_1
*I *2117:X O *D sky130_fd_sc_hd__or2_1
*CAP
1 *2118:C 0.000112436
2 *2117:X 0.000112436
3 *2118:C *2118:A 5.67058e-05
*RES
1 *2117:X *2118:C 47.6571 
*END

*D_NET *396 0.000617489
*CONN
*I *2121:C I *D sky130_fd_sc_hd__and3b_1
*I *2119:X O *D sky130_fd_sc_hd__a21o_1
*CAP
1 *2121:C 3.75247e-05
2 *2119:X 0.000187272
3 *396:10 0.000224797
4 *2121:C *2121:B 1.94693e-05
5 *396:10 *2121:A_N 1.19796e-05
6 *396:10 *468:130 3.7122e-06
7 *396:10 *511:35 3.49587e-05
8 *2324:D *396:10 1.14876e-05
9 *230:8 *396:10 8.62876e-05
*RES
1 *2119:X *396:10 41.2314 
2 *396:10 *2121:C 38.6214 
*END

*D_NET *397 0.00386667
*CONN
*I *2122:B I *D sky130_fd_sc_hd__nand2_1
*I *2123:B I *D sky130_fd_sc_hd__or2_1
*I *2121:A_N I *D sky130_fd_sc_hd__and3b_1
*I *2120:X O *D sky130_fd_sc_hd__and2_1
*CAP
1 *2122:B 0.000207383
2 *2123:B 0.000110208
3 *2121:A_N 0.000269607
4 *2120:X 0.00056753
5 *397:21 0.000554074
6 *397:8 0.00107362
7 *2121:A_N *509:26 0
8 *2121:A_N *511:35 0
9 *2123:B *510:57 0.000272377
10 *397:8 *2047:B 2.80394e-05
11 *397:8 *509:26 0.000401106
12 *2111:B *397:21 7.03317e-05
13 *2114:B *397:21 0
14 *327:8 *397:8 0.000168821
15 *336:10 *397:8 5.50106e-05
16 *388:57 *2121:A_N 4.34173e-05
17 *388:57 *397:21 3.31683e-05
18 *396:10 *2121:A_N 1.19796e-05
*RES
1 *2120:X *397:8 47.1971 
2 *397:8 *2121:A_N 42.7643 
3 *397:8 *397:21 4.72286 
4 *397:21 *2123:B 41.0036 
5 *397:21 *2122:B 41.3143 
*END

*D_NET *398 0.00292505
*CONN
*I *2126:B I *D sky130_fd_sc_hd__nand2_1
*I *2124:B I *D sky130_fd_sc_hd__and3_1
*I *2122:Y O *D sky130_fd_sc_hd__nand2_1
*CAP
1 *2126:B 0.000496641
2 *2124:B 0.000114272
3 *2122:Y 0.000317601
4 *398:8 0.000928514
5 *2124:B *2127:C 5.91383e-05
6 *2124:B *602:14 8.86027e-05
7 *2126:B *2127:C 3.47776e-05
8 *2126:B *2370:A 3.22879e-05
9 *2126:B *469:8 0.000125488
10 *2126:B *469:10 0
11 *2126:B *469:14 0
12 *2126:B *601:36 0.000204949
13 *398:8 *2122:A 3.58687e-05
14 *398:8 *2325:CLK 0.000402806
15 *231:8 *2124:B 8.41012e-05
*RES
1 *2122:Y *398:8 43.3857 
2 *398:8 *2124:B 40.9621 
3 *398:8 *2126:B 48.9371 
*END

*D_NET *399 0.000287647
*CONN
*I *2124:C I *D sky130_fd_sc_hd__and3_1
*I *2123:X O *D sky130_fd_sc_hd__or2_1
*CAP
1 *2124:C 1.52903e-05
2 *2123:X 1.52903e-05
3 *2124:C *2123:A 0.000128533
4 *2124:C *510:57 0.000128533
*RES
1 *2123:X *2124:C 47.4086 
*END

*D_NET *400 0.0111742
*CONN
*I *2127:A_N I *D sky130_fd_sc_hd__and3b_1
*I *2128:B I *D sky130_fd_sc_hd__nand2_1
*I *2129:B I *D sky130_fd_sc_hd__or2_1
*I *2134:D I *D sky130_fd_sc_hd__and4_1
*I *2125:X O *D sky130_fd_sc_hd__and4_1
*CAP
1 *2127:A_N 0
2 *2128:B 0.000277492
3 *2129:B 0
4 *2134:D 0.000119728
5 *2125:X 0
6 *400:55 0.000353372
7 *400:22 0.000119728
8 *400:20 0.00143067
9 *400:14 0.00149986
10 *400:4 0.000700048
11 *2128:B *2136:C 0.000155942
12 *2128:B *2406:A 2.70469e-05
13 *2128:B *407:8 0.000140958
14 *2128:B *500:30 9.84851e-05
15 *2128:B *502:12 6.68793e-05
16 *2128:B *502:30 4.43614e-05
17 *2128:B *600:20 0.000326062
18 *2134:D *2039:D 1.56762e-05
19 *2134:D *2134:C 5.3304e-05
20 *2134:D *500:22 0.00052371
21 *2134:D *501:12 0.000441065
22 *400:14 *2019:A 0.000865406
23 *400:14 *2052:A 9.84794e-05
24 *400:14 *2392:A 9.84851e-05
25 *400:14 *509:48 3.59635e-05
26 *400:14 *509:61 0.000308952
27 *400:14 *510:59 9.67842e-05
28 *400:14 *611:10 8.4047e-05
29 *400:14 *611:52 0.000136298
30 *400:14 *611:64 4.19743e-05
31 *400:20 *600:20 1.6873e-05
32 *400:20 *600:22 1.67942e-05
33 *400:20 *606:23 2.96369e-05
34 *400:20 *610:18 3.04516e-05
35 *400:55 *465:135 0.000394583
36 *400:55 *509:36 0.000222785
37 *400:55 *509:48 0.00014196
38 *400:55 *510:59 1.41129e-05
39 *400:55 *557:18 4.67488e-05
40 *400:55 *559:19 0.000394583
41 *329:16 *400:20 0.0015662
42 *329:20 *400:14 0.000138718
*RES
1 *2125:X *400:4 23 
2 *400:4 *400:14 42.5529 
3 *400:14 *400:20 34.3264 
4 *400:20 *400:22 15 
5 *400:22 *2134:D 28.8621 
6 *400:22 *2129:B 23 
7 *400:20 *2128:B 45.8507 
8 *400:4 *400:55 39.86 
9 *400:55 *2127:A_N 23 
*END

*D_NET *401 0.000210001
*CONN
*I *2127:B I *D sky130_fd_sc_hd__and3b_1
*I *2126:Y O *D sky130_fd_sc_hd__nand2_1
*CAP
1 *2127:B 0
2 *2126:Y 5.61385e-05
3 *401:8 5.61385e-05
4 *401:8 *514:10 1.14452e-05
5 *401:8 *621:52 0
6 *275:29 *401:8 8.62783e-05
*RES
1 *2126:Y *401:8 39.2014 
2 *401:8 *2127:B 38 
*END

*D_NET *402 0.00188958
*CONN
*I *2132:B I *D sky130_fd_sc_hd__nand2_1
*I *2131:B I *D sky130_fd_sc_hd__nor2_1
*I *2130:B I *D sky130_fd_sc_hd__and3_1
*I *2128:Y O *D sky130_fd_sc_hd__nand2_1
*CAP
1 *2132:B 0.00015214
2 *2131:B 1.66608e-05
3 *2130:B 0
4 *2128:Y 5.05377e-05
5 *402:23 0.000199061
6 *402:16 0.000289709
7 *402:6 0.000370506
8 *2131:B *2128:A 1.22308e-05
9 *2131:B *500:49 3.7548e-05
10 *2132:B *500:49 9.21169e-06
11 *2132:B *600:10 5.12254e-05
12 *402:6 *500:30 3.22879e-05
13 *402:6 *500:49 1.22822e-05
14 *402:16 *2136:C 0
15 *402:16 *404:8 0.000138727
16 *402:16 *600:20 0
17 *402:16 *610:95 0
18 *2131:A *2131:B 1.3747e-05
19 *2131:A *2132:B 0.000348512
20 *2382:A *2132:B 9.84851e-05
21 *154:14 *402:16 5.67058e-05
*RES
1 *2128:Y *402:6 24.0979 
2 *402:6 *402:16 35.1371 
3 *402:16 *2130:B 23 
4 *402:6 *402:23 0.704286 
5 *402:23 *2131:B 24.3671 
6 *402:23 *2132:B 27.9921 
*END

*D_NET *403 0.000314046
*CONN
*I *2130:C I *D sky130_fd_sc_hd__and3_1
*I *2129:X O *D sky130_fd_sc_hd__or2_1
*CAP
1 *2130:C 0.000103386
2 *2129:X 0.000103386
3 *2130:C *2130:A 5.50049e-05
4 *2130:C *501:12 5.22692e-05
*RES
1 *2129:X *2130:C 47.6571 
*END

*D_NET *404 0.000614424
*CONN
*I *2133:A_N I *D sky130_fd_sc_hd__and3b_1
*I *2135:B I *D sky130_fd_sc_hd__or2_1
*I *2131:Y O *D sky130_fd_sc_hd__nor2_1
*CAP
1 *2133:A_N 0
2 *2135:B 4.1583e-05
3 *2131:Y 8.85311e-05
4 *404:10 4.1583e-05
5 *404:8 8.85311e-05
6 *2135:B *600:16 7.4416e-05
7 *2135:B *606:118 0.000141052
8 *404:8 *600:10 0
9 *404:8 *610:95 0
10 *402:16 *404:8 0.000138727
*RES
1 *2131:Y *404:8 39.9057 
2 *404:8 *404:10 15 
3 *404:10 *2135:B 24.5743 
4 *404:10 *2133:A_N 23 
*END

*D_NET *405 0.000971444
*CONN
*I *2133:B I *D sky130_fd_sc_hd__and3b_1
*I *2132:Y O *D sky130_fd_sc_hd__nand2_1
*CAP
1 *2133:B 0.000171306
2 *2132:Y 0.000151158
3 *405:8 0.000322464
4 *2133:B *606:118 0.000267167
5 *405:8 *501:19 5.93485e-05
6 *405:8 *613:53 0
*RES
1 *2132:Y *405:8 40.61 
2 *405:8 *2133:B 41.5007 
*END

*D_NET *406 0.00412449
*CONN
*I *2136:A_N I *D sky130_fd_sc_hd__and3b_1
*I *2138:B I *D sky130_fd_sc_hd__or2_1
*I *2137:B I *D sky130_fd_sc_hd__and2_1
*I *2134:X O *D sky130_fd_sc_hd__and4_1
*CAP
1 *2136:A_N 0
2 *2138:B 0
3 *2137:B 0.000528962
4 *2134:X 0
5 *406:38 0.000258688
6 *406:27 0.0002369
7 *406:10 0.00114329
8 *406:4 0.000636118
9 *2137:B *2250:A 0
10 *2137:B *2293:CLK 1.78591e-05
11 *406:10 *2039:C 1.76557e-05
12 *406:10 *2039:D 0.000169857
13 *406:10 *500:22 0
14 *406:27 *2039:C 0
15 *406:27 *503:21 0
16 *406:27 *503:25 5.3304e-05
17 *406:27 *505:34 0
18 *406:27 *611:26 0.000300108
19 *406:38 *2329:CLK 1.22906e-05
20 *406:38 *500:26 0.000434074
21 *406:38 *503:21 0
22 *406:38 *504:49 1.19796e-05
23 *406:38 *505:34 0
24 *2330:D *2137:B 0.000212756
25 *154:14 *2137:B 2.7573e-05
26 *154:14 *406:10 6.30728e-05
*RES
1 *2134:X *406:4 23 
2 *406:4 *406:10 6.50429 
3 *406:10 *2137:B 30.1879 
4 *406:10 *406:27 34.64 
5 *406:27 *2138:B 23 
6 *406:4 *406:38 36.1314 
7 *406:38 *2136:A_N 23 
*END

*D_NET *407 0.00146788
*CONN
*I *2136:B I *D sky130_fd_sc_hd__and3b_1
*I *2135:X O *D sky130_fd_sc_hd__or2_1
*CAP
1 *2136:B 0.000339551
2 *2135:X 9.5045e-05
3 *407:8 0.000434596
4 *2136:B *500:30 0.00023877
5 *407:8 *2406:A 0.000218962
6 *2128:B *407:8 0.000140958
*RES
1 *2135:X *407:8 40.9621 
2 *407:8 *2136:B 42.9093 
*END

*D_NET *408 0.00382827
*CONN
*I *2140:B I *D sky130_fd_sc_hd__nand2_1
*I *2141:B I *D sky130_fd_sc_hd__or2_1
*I *2139:A_N I *D sky130_fd_sc_hd__and3b_1
*I *2137:X O *D sky130_fd_sc_hd__and2_1
*CAP
1 *2140:B 8.4398e-05
2 *2141:B 0.000491043
3 *2139:A_N 0
4 *2137:X 0.000154696
5 *408:21 0.000768234
6 *408:12 0.000255419
7 *408:8 0.000217323
8 *2140:B *409:10 2.3007e-05
9 *2140:B *466:44 0.000269775
10 *2140:B *611:18 5.94125e-05
11 *2141:B *2141:A 5.67058e-05
12 *2141:B *409:10 1.03972e-05
13 *2141:B *410:10 8.4047e-05
14 *2141:B *504:19 0
15 *2141:B *504:36 0
16 *2141:B *519:10 8.4047e-05
17 *2141:B *584:22 0
18 *2141:B *611:18 1.01436e-05
19 *408:8 *616:43 0
20 *408:21 *2139:B 0.000271906
21 *408:21 *410:10 5.3304e-05
22 *151:8 *2140:B 0.000269775
23 *151:8 *408:12 0.000100069
24 *151:8 *408:21 0.000531783
25 *236:10 *408:8 2.23884e-05
26 *237:10 *2141:B 1.03972e-05
*RES
1 *2137:X *408:8 40.61 
2 *408:8 *408:12 16.0979 
3 *408:12 *2139:A_N 23 
4 *408:12 *408:21 20.8621 
5 *408:21 *2141:B 46.8657 
6 *408:21 *2140:B 41.8529 
*END

*D_NET *409 0.00170585
*CONN
*I *2139:B I *D sky130_fd_sc_hd__and3b_1
*I *2138:X O *D sky130_fd_sc_hd__or2_1
*CAP
1 *2139:B 0.000198716
2 *2138:X 0.000406344
3 *409:10 0.00060506
4 *409:10 *2298:CLK 0
5 *409:10 *410:10 1.00084e-05
6 *409:10 *503:25 6.17437e-06
7 *409:10 *503:37 3.05276e-05
8 *409:10 *611:18 1.02133e-05
9 *409:10 *611:26 0.000133495
10 *2140:B *409:10 2.3007e-05
11 *2141:B *409:10 1.03972e-05
12 *408:21 *2139:B 0.000271906
*RES
1 *2138:X *409:10 44.8771 
2 *409:10 *2139:B 41.0036 
*END

*D_NET *410 0.00369291
*CONN
*I *2142:B I *D sky130_fd_sc_hd__and3_1
*I *2143:B I *D sky130_fd_sc_hd__xnor2_1
*I *2140:Y O *D sky130_fd_sc_hd__nand2_1
*CAP
1 *2142:B 0
2 *2143:B 0
3 *2140:Y 0.000315951
4 *410:22 0.00064385
5 *410:14 0.000866691
6 *410:10 0.000538792
7 *410:10 *611:18 0.000272377
8 *410:14 *600:93 0.000305602
9 *410:22 *2025:C 0
10 *410:22 *411:10 0.000291926
11 *410:22 *466:59 3.71611e-05
12 *410:22 *466:61 2.24151e-05
13 *410:22 *466:69 0.000122386
14 *410:22 *600:93 5.3304e-05
15 *410:22 *600:108 5.94125e-05
16 *2141:B *410:10 8.4047e-05
17 *151:8 *410:10 1.56762e-05
18 *408:21 *410:10 5.3304e-05
19 *409:10 *410:10 1.00084e-05
*RES
1 *2140:Y *410:10 43.1579 
2 *410:10 *410:14 18.48 
3 *410:14 *410:22 40.2743 
4 *410:22 *2143:B 23 
5 *410:14 *2142:B 23 
*END

*D_NET *411 0.00115815
*CONN
*I *2142:C I *D sky130_fd_sc_hd__and3_1
*I *2141:X O *D sky130_fd_sc_hd__or2_1
*CAP
1 *2142:C 2.09786e-05
2 *2141:X 0.000249577
3 *411:10 0.000270556
4 *2142:C *600:93 1.40314e-06
5 *2142:C *600:108 3.7122e-06
6 *411:10 *2299:CLK 2.93747e-05
7 *411:10 *466:59 0.000126343
8 *411:10 *466:61 0.000164282
9 *410:22 *411:10 0.000291926
*RES
1 *2141:X *411:10 43.5929 
2 *411:10 *2142:C 38.2279 
*END

*D_NET *412 0.00133482
*CONN
*I *2144:B I *D sky130_fd_sc_hd__and2_1
*I *2143:Y O *D sky130_fd_sc_hd__xnor2_1
*CAP
1 *2144:B 1.75476e-05
2 *2143:Y 0.00036102
3 *412:10 0.000378568
4 *2144:B *524:10 0.000100069
5 *412:10 *2026:C 0
6 *412:10 *466:69 8.4047e-05
7 *412:10 *524:10 3.67885e-05
8 *412:10 *573:14 0.000140935
9 *146:10 *2144:B 0.000101764
10 *238:10 *412:10 0.000114083
*RES
1 *2143:Y *412:10 44.2971 
2 *412:10 *2144:B 39.0979 
*END

*D_NET *413 0.00395964
*CONN
*I *2152:A3 I *D sky130_fd_sc_hd__o31a_1
*I *2151:Y O *D sky130_fd_sc_hd__nor2_1
*CAP
1 *2152:A3 0
2 *2151:Y 0.000912773
3 *413:6 0.000912773
4 *413:6 *677:DIODE 0.000181131
5 *413:6 *1969:B2 8.48502e-06
6 *413:6 *2152:A2 0.000139357
7 *413:6 *2152:B1 2.18409e-05
8 *2095:A2 *413:6 0.000831434
9 *222:10 *413:6 5.67058e-05
10 *334:68 *413:6 0.000871518
11 *334:80 *413:6 1.03955e-05
12 *379:10 *413:6 1.32314e-05
*RES
1 *2151:Y *413:6 44.5843 
2 *413:6 *2152:A3 23 
*END

*D_NET *414 0.00850568
*CONN
*I *2159:B1 I *D sky130_fd_sc_hd__o21a_1
*I *2162:B I *D sky130_fd_sc_hd__and2b_1
*I *2166:B I *D sky130_fd_sc_hd__and3_1
*I *2153:X O *D sky130_fd_sc_hd__o211a_1
*CAP
1 *2159:B1 0
2 *2162:B 0
3 *2166:B 0
4 *2153:X 0.000201692
5 *414:44 0.000800149
6 *414:26 0.000685493
7 *414:16 0.000868627
8 *414:10 0.00154691
9 *414:8 0.000765315
10 *414:10 *2341:CLK 4.75544e-05
11 *414:10 *472:12 3.83778e-05
12 *414:10 *472:14 2.24973e-05
13 *414:10 *615:156 0
14 *414:10 *645:10 9.98109e-05
15 *414:16 *601:24 0
16 *414:16 *615:156 0
17 *414:16 *648:21 5.41385e-05
18 *414:26 *2166:C 6.35797e-06
19 *414:26 *601:24 0
20 *414:26 *621:173 0
21 *414:44 *667:DIODE 1.57571e-05
22 *414:44 *422:10 0.000171734
23 *414:44 *601:24 4.67488e-05
24 *414:44 *615:165 1.40958e-05
25 *414:44 *615:177 0.000796053
26 *2045:A *414:10 0.000362172
27 *2091:C1 *414:26 0
28 *170:48 *414:26 0
29 *170:70 *414:26 0
30 *247:8 *414:10 9.94675e-05
31 *247:8 *414:16 0.000227497
32 *271:16 *414:10 0.000209992
33 *286:69 *414:44 0.00100533
34 *288:31 *414:10 0.00023489
35 *316:8 *414:10 5.97612e-05
36 *366:16 *414:44 4.96265e-05
37 *379:8 *414:8 7.56391e-05
*RES
1 *2153:X *414:8 40.5271 
2 *414:8 *414:10 12.47 
3 *414:10 *414:16 19.4121 
4 *414:16 *414:26 40.8543 
5 *414:26 *2166:B 23 
6 *414:16 *2162:B 23 
7 *414:10 *414:44 34.72 
8 *414:44 *2159:B1 23 
*END

*D_NET *415 0.00255862
*CONN
*I *2157:A2 I *D sky130_fd_sc_hd__o21a_1
*I *2158:B2 I *D sky130_fd_sc_hd__a221o_1
*I *2155:A3 I *D sky130_fd_sc_hd__o31a_1
*I *2154:X O *D sky130_fd_sc_hd__and2_1
*CAP
1 *2157:A2 0.000115675
2 *2158:B2 6.69944e-06
3 *2155:A3 0.000345555
4 *2154:X 8.41293e-05
5 *415:16 0.000480862
6 *415:10 0.000244284
7 *415:8 8.41293e-05
8 *2155:A3 *2155:A2 3.22879e-05
9 *2155:A3 *416:8 2.54046e-05
10 *2155:A3 *417:8 0
11 *2155:A3 *418:10 1.01436e-05
12 *2157:A2 *418:10 8.43466e-05
13 *2158:B2 *2158:A1 6.39489e-06
14 *415:16 *418:10 0.000221533
15 *2089:D_N *2158:B2 1.28818e-05
16 *2163:A1 *415:16 5.50106e-05
17 *282:10 *2157:A2 0.000267173
18 *282:10 *415:16 4.17736e-05
19 *282:27 *415:8 0.000163361
20 *316:34 *415:8 0
21 *316:34 *415:16 4.31366e-05
22 *364:12 *2155:A3 0
23 *364:33 *2155:A3 1.83564e-05
24 *364:33 *415:16 2.24973e-05
25 *373:10 *415:8 0.000187996
26 *373:10 *415:16 4.98718e-06
27 *374:8 *2155:A3 0
*RES
1 *2154:X *415:8 40.61 
2 *415:8 *415:10 15 
3 *415:10 *415:16 18.7079 
4 *415:16 *2155:A3 43.8414 
5 *415:16 *2158:B2 38.1502 
6 *415:10 *2157:A2 26.0036 
*END

*D_NET *416 0.000295833
*CONN
*I *2156:A2 I *D sky130_fd_sc_hd__o21a_1
*I *2155:X O *D sky130_fd_sc_hd__o31a_1
*CAP
1 *2156:A2 4.24857e-05
2 *2155:X 6.52232e-05
3 *416:8 0.000107709
4 *2156:A2 *540:52 5.50106e-05
5 *2155:A3 *416:8 2.54046e-05
6 *364:12 *416:8 0
*RES
1 *2155:X *416:8 39.2014 
2 *416:8 *2156:A2 38.6214 
*END

*D_NET *417 0.000928183
*CONN
*I *2159:A1 I *D sky130_fd_sc_hd__o21a_1
*I *2156:X O *D sky130_fd_sc_hd__o21a_1
*CAP
1 *2159:A1 5.06061e-05
2 *2156:X 0.000194367
3 *417:8 0.000244973
4 *2159:A1 *422:10 5.50049e-05
5 *417:8 *621:199 0.000241355
6 *2155:A3 *417:8 0
7 *286:69 *2159:A1 4.9662e-05
8 *316:34 *417:8 5.93278e-05
9 *364:12 *417:8 3.28876e-05
10 *364:33 *417:8 0
*RES
1 *2156:X *417:8 42.7229 
2 *417:8 *2159:A1 39.0979 
*END

*D_NET *418 0.000763113
*CONN
*I *2158:C1 I *D sky130_fd_sc_hd__a221o_1
*I *2157:X O *D sky130_fd_sc_hd__o21a_1
*CAP
1 *2158:C1 0
2 *2157:X 0.000203118
3 *418:10 0.000203118
4 *418:10 *579:26 0
5 *2155:A3 *418:10 1.01436e-05
6 *2157:A2 *418:10 8.43466e-05
7 *373:10 *418:10 4.08537e-05
8 *374:8 *418:10 0
9 *415:16 *418:10 0.000221533
*RES
1 *2157:X *418:10 41.8321 
2 *418:10 *2158:C1 38 
*END

*D_NET *419 0.000606671
*CONN
*I *2159:A2 I *D sky130_fd_sc_hd__o21a_1
*I *2158:X O *D sky130_fd_sc_hd__a221o_1
*CAP
1 *2159:A2 4.25104e-05
2 *2158:X 0.000143363
3 *419:10 0.000185874
4 *2159:A2 *422:10 5.50049e-05
5 *419:10 *615:177 0
6 *419:10 *621:199 8.4047e-05
7 *364:33 *419:10 9.58714e-05
*RES
1 *2158:X *419:10 40.2993 
2 *419:10 *2159:A2 38.6214 
*END

*D_NET *420 0.00186516
*CONN
*I *2161:A3 I *D sky130_fd_sc_hd__o32a_1
*I *2160:X O *D sky130_fd_sc_hd__or3_1
*CAP
1 *2161:A3 0
2 *2160:X 0.000549413
3 *420:10 0.000549413
4 *420:10 *540:67 0
5 *420:10 *546:23 5.50049e-05
6 *420:10 *546:31 0.000308924
7 *420:10 *554:59 6.07611e-06
8 *2161:A1 *420:10 0.000110116
9 *319:35 *420:10 0
10 *361:18 *420:10 0
11 *367:12 *420:10 9.59831e-05
12 *377:8 *420:10 0.000190227
*RES
1 *2160:X *420:10 48.9786 
2 *420:10 *2161:A3 38 
*END

*D_NET *421 0.00281122
*CONN
*I *2162:A_N I *D sky130_fd_sc_hd__and2b_1
*I *2161:X O *D sky130_fd_sc_hd__o32a_1
*CAP
1 *2162:A_N 0.000157648
2 *2161:X 0.000398099
3 *421:10 0.000555747
4 *2162:A_N *2084:A 4.2573e-05
5 *2162:A_N *2084:B 2.18506e-05
6 *2162:A_N *621:167 0.000443673
7 *2162:A_N *621:197 0.000265472
8 *2162:A_N *648:21 0.000487147
9 *421:10 *601:24 0.00011631
10 *248:8 *421:10 8.85189e-05
11 *286:54 *2162:A_N 5.50049e-05
12 *320:6 *421:10 2.19998e-05
13 *378:10 *421:10 0.000157174
*RES
1 *2161:X *421:10 45.3743 
2 *421:10 *2162:A_N 45.7679 
*END

*D_NET *422 0.00181757
*CONN
*I *2164:B1 I *D sky130_fd_sc_hd__a31o_1
*I *2163:X O *D sky130_fd_sc_hd__a32o_1
*CAP
1 *2164:B1 0
2 *2163:X 0.00044651
3 *422:10 0.00044651
4 *422:10 *615:177 0.000420072
5 *2159:A1 *422:10 5.50049e-05
6 *2159:A2 *422:10 5.50049e-05
7 *286:69 *422:10 4.75937e-05
8 *361:18 *422:10 0.000175143
9 *414:44 *422:10 0.000171734
*RES
1 *2163:X *422:10 48.9371 
2 *422:10 *2164:B1 38 
*END

*D_NET *423 0.000610919
*CONN
*I *2165:B1 I *D sky130_fd_sc_hd__a31o_1
*I *2164:X O *D sky130_fd_sc_hd__a31o_1
*CAP
1 *2165:B1 0
2 *2164:X 0.000146323
3 *423:10 0.000146323
4 *423:10 *2155:A1 1.14452e-05
5 *423:10 *2156:B1 0.000138718
6 *423:10 *540:52 9.58714e-05
7 *423:10 *554:96 1.14452e-05
8 *2082:A *423:10 6.07929e-05
*RES
1 *2164:X *423:10 41.0036 
2 *423:10 *2165:B1 38 
*END

*D_NET *424 0.00368672
*CONN
*I *2166:C I *D sky130_fd_sc_hd__and3_1
*I *2165:X O *D sky130_fd_sc_hd__a31o_1
*CAP
1 *2166:C 0.000831408
2 *2165:X 0.000313677
3 *424:10 0.00114508
4 *424:10 *2155:A1 0
5 *424:10 *2156:B1 9.59112e-05
6 *424:10 *554:96 2.12234e-05
7 *424:10 *615:177 2.11887e-05
8 *2076:B1 *424:10 1.75841e-05
9 *2078:B *424:10 2.24973e-05
10 *2164:A2 *424:10 3.3746e-05
11 *2165:A2 *424:10 8.48502e-06
12 *2165:A3 *424:10 1.24376e-05
13 *2166:A *2166:C 0.000137651
14 *319:43 *424:10 5.94125e-05
15 *355:21 *424:10 8.60079e-05
16 *363:38 *424:10 6.16531e-05
17 *375:12 *2166:C 0.0008124
18 *414:26 *2166:C 6.35797e-06
*RES
1 *2165:X *424:10 43.8207 
2 *424:10 *2166:C 49.6621 
*END

*D_NET *425 0.00092351
*CONN
*I *2170:B1 I *D sky130_fd_sc_hd__a2111o_1
*I *2167:X O *D sky130_fd_sc_hd__a2bb2o_1
*CAP
1 *2170:B1 4.57773e-05
2 *2167:X 0.000120808
3 *425:8 0.000166585
4 *2170:B1 *427:10 5.50106e-05
5 *425:8 *2169:B2 3.83778e-05
6 *425:8 *429:14 0.000194318
7 *425:8 *621:36 0.000296017
8 *425:8 *651:55 6.61686e-06
*RES
1 *2167:X *425:8 42.0186 
2 *425:8 *2170:B1 38.6214 
*END

*D_NET *426 0.000526091
*CONN
*I *2172:B1 I *D sky130_fd_sc_hd__a211o_1
*I *2168:Y O *D sky130_fd_sc_hd__o22ai_1
*CAP
1 *2172:B1 0
2 *2168:Y 0.000136466
3 *426:10 0.000136466
4 *426:10 *429:14 7.22609e-05
5 *426:10 *621:34 0.000161417
6 *2168:B2 *426:10 1.94812e-05
*RES
1 *2168:Y *426:10 40.8793 
2 *426:10 *2172:B1 38 
*END

*D_NET *427 0.000659552
*CONN
*I *2170:C1 I *D sky130_fd_sc_hd__a2111o_1
*I *2169:Y O *D sky130_fd_sc_hd__o22ai_1
*CAP
1 *2170:C1 0
2 *2169:Y 0.00022187
3 *427:10 0.00022187
4 *427:10 *2169:B2 8.87543e-05
5 *427:10 *2170:D1 2.93747e-05
6 *2169:B1 *427:10 4.26727e-05
7 *2170:B1 *427:10 5.50106e-05
*RES
1 *2169:Y *427:10 27.1221 
2 *427:10 *2170:C1 23 
*END

*D_NET *428 0.00045534
*CONN
*I *2171:C1 I *D sky130_fd_sc_hd__a221o_1
*I *2170:X O *D sky130_fd_sc_hd__a2111o_1
*CAP
1 *2171:C1 0
2 *2170:X 0.000201365
3 *428:10 0.000201365
4 *428:10 *465:125 0
5 *428:10 *651:27 0
6 *2171:B1 *428:10 5.26101e-05
*RES
1 *2170:X *428:10 40.8793 
2 *428:10 *2171:C1 38 
*END

*D_NET *429 0.00243897
*CONN
*I *2172:C1 I *D sky130_fd_sc_hd__a211o_1
*I *2171:X O *D sky130_fd_sc_hd__a221o_1
*CAP
1 *2172:C1 0
2 *2171:X 2.73014e-05
3 *429:14 0.000429352
4 *429:8 0.000456653
5 *429:8 *465:169 1.05235e-05
6 *429:8 *651:40 5.50106e-05
7 *429:14 *472:55 2.93747e-05
8 *429:14 *621:34 6.40157e-06
9 *429:14 *621:36 0.000242982
10 *429:14 *651:55 0.000885422
11 *273:42 *429:14 2.93747e-05
12 *425:8 *429:14 0.000194318
13 *426:10 *429:14 7.22609e-05
*RES
1 *2171:X *429:8 38.6214 
2 *429:8 *429:14 27.7393 
3 *429:14 *2172:C1 23 
*END

*D_NET *430 0.00478732
*CONN
*I *2386:A I *D sky130_fd_sc_hd__clkbuf_2
*I *2385:A I *D sky130_fd_sc_hd__buf_2
*I *2172:X O *D sky130_fd_sc_hd__a211o_1
*CAP
1 *2386:A 0
2 *2385:A 0.000169423
3 *2172:X 0
4 *430:25 0.000491389
5 *430:10 0.00162612
6 *430:6 0.000965308
7 *2385:A *604:122 0.000198196
8 *430:10 *490:63 0.000144158
9 *430:10 *521:10 0.000165593
10 *430:10 *621:34 0
11 *430:10 *652:43 0
12 *430:25 *2208:B1 0.000260457
13 *430:25 *603:16 0.000269775
14 *430:25 *604:122 0.00011501
15 *430:25 *605:14 0
16 *430:25 *605:25 1.83667e-05
17 *2000:A2 *430:10 0.000241837
18 *2176:C *430:10 0
19 *169:12 *430:10 2.79167e-05
20 *272:10 *430:10 3.21223e-05
21 *291:99 *430:25 0
22 *296:48 *430:10 6.16439e-05
23 *360:16 *430:10 0
*RES
1 *2172:X *430:6 38 
2 *430:6 *430:10 34.1607 
3 *430:10 *2385:A 26.9564 
4 *430:10 *430:25 41.0821 
5 *430:25 *2386:A 23 
*END

*D_NET *431 0.00154279
*CONN
*I *2187:B I *D sky130_fd_sc_hd__nor2_1
*I *2185:A I *D sky130_fd_sc_hd__or2_1
*I *2173:X O *D sky130_fd_sc_hd__and3_1
*CAP
1 *2187:B 0.000108044
2 *2185:A 0.000374353
3 *2173:X 0
4 *431:6 0.000482397
5 *2185:A *1971:A 6.6869e-05
6 *2185:A *2186:A1 0.000160103
7 *2185:A *440:10 0
8 *2185:A *486:38 6.07611e-06
9 *2185:A *486:49 3.72639e-05
10 *2187:B *2184:A2 5.12254e-05
11 *2187:B *486:38 7.80354e-05
12 *2187:B *486:49 8.16356e-05
13 *2187:B *604:58 9.67842e-05
*RES
1 *2173:X *431:6 38 
2 *431:6 *2185:A 44.4629 
3 *431:6 *2187:B 41.3557 
*END

*D_NET *432 0.00947705
*CONN
*I *2190:B I *D sky130_fd_sc_hd__xnor2_1
*I *2176:D I *D sky130_fd_sc_hd__and4_1
*I *2192:A2 I *D sky130_fd_sc_hd__a21oi_1
*I *2175:C I *D sky130_fd_sc_hd__and3_1
*I *2188:A I *D sky130_fd_sc_hd__or2_1
*I *2174:X O *D sky130_fd_sc_hd__and4_1
*CAP
1 *2190:B 0.00012422
2 *2176:D 0.000451134
3 *2192:A2 1.75705e-05
4 *2175:C 0
5 *2188:A 5.6271e-05
6 *2174:X 0.000236448
7 *432:47 0.000926653
8 *432:36 0.000538047
9 *432:25 0.0012353
10 *432:12 0.00112239
11 *432:10 0.000236448
12 *2176:D *434:14 0.000136088
13 *2176:D *489:14 3.47781e-05
14 *2176:D *489:59 0
15 *2176:D *560:100 0
16 *2188:A *2346:CLK 9.58714e-05
17 *2188:A *443:10 6.17437e-06
18 *2190:B *444:10 0
19 *2190:B *489:14 0.000239775
20 *2190:B *490:55 0
21 *2192:A2 *2175:B 1.14154e-05
22 *432:10 *443:10 0.000133316
23 *432:10 *479:40 0.000111852
24 *432:10 *603:70 0.000188926
25 *432:10 *603:83 0.000164282
26 *432:25 *2346:CLK 5.50106e-05
27 *432:25 *443:10 2.02872e-05
28 *432:25 *488:10 2.64616e-05
29 *432:25 *490:22 0.000172663
30 *432:36 *2175:B 6.6411e-05
31 *432:36 *2192:A1 5.50049e-05
32 *432:36 *490:16 4.34745e-05
33 *432:36 *490:22 0.000107741
34 *432:47 *2175:B 0.000117722
35 *432:47 *2192:A1 0.000125213
36 *432:47 *2201:A 0.000356724
37 *432:47 *2201:B 0.000238626
38 *432:47 *489:16 0.00134192
39 *432:47 *489:59 5.3304e-05
40 *432:47 *490:51 7.2e-05
41 *432:47 *493:12 0.000385158
42 *2176:C *2176:D 5.70419e-05
43 *2346:D *432:25 1.64354e-05
44 *163:18 *432:10 4.38808e-05
45 *169:12 *2190:B 0
46 *291:63 *432:10 5.50049e-05
*RES
1 *2174:X *432:10 43.3443 
2 *432:10 *432:12 15 
3 *432:12 *2188:A 24.0979 
4 *432:12 *432:25 17.255 
5 *432:25 *2175:C 23 
6 *432:25 *432:36 3.72857 
7 *432:36 *2192:A2 23.4971 
8 *432:36 *432:47 31.82 
9 *432:47 *2176:D 46.2857 
10 *432:47 *2190:B 41.3143 
*END

*D_NET *433 0.00438201
*CONN
*I *2193:A I *D sky130_fd_sc_hd__or2_1
*I *2197:C I *D sky130_fd_sc_hd__and3_1
*I *2195:B I *D sky130_fd_sc_hd__xnor2_1
*I *2198:A2 I *D sky130_fd_sc_hd__a21oi_1
*I *2175:X O *D sky130_fd_sc_hd__and3_1
*CAP
1 *2193:A 0.000176751
2 *2197:C 0.000453625
3 *2195:B 0.000249602
4 *2198:A2 7.92878e-05
5 *2175:X 0
6 *433:19 0.000703227
7 *433:8 0.000333618
8 *433:6 0.000431081
9 *2193:A *706:DIODE 7.88926e-05
10 *2193:A *446:10 9.84851e-05
11 *2193:A *465:79 0.000171906
12 *2193:A *490:10 0
13 *2193:A *541:12 0
14 *2195:B *2196:A1 0.000179421
15 *2195:B *2196:A2 9.58444e-05
16 *2195:B *603:47 0.00011537
17 *2197:C *2197:A 1.41077e-05
18 *2197:C *2199:A 0.000139352
19 *2197:C *2200:A2 3.48411e-05
20 *2197:C *603:47 2.33431e-05
21 *2198:A2 *465:79 0.000138708
22 *2198:A2 *490:22 6.68793e-05
23 *433:8 *465:79 0.000561346
24 *433:8 *490:22 0.000216843
25 *433:8 *541:12 0
26 *255:10 *2195:B 1.94812e-05
*RES
1 *2175:X *433:6 38 
2 *433:6 *433:8 7.54 
3 *433:8 *2198:A2 39.9057 
4 *433:8 *433:19 15 
5 *433:19 *2195:B 29.4007 
6 *433:19 *2197:C 28.7275 
7 *433:6 *2193:A 42.6607 
*END

*D_NET *434 0.00522839
*CONN
*I *2211:A3 I *D sky130_fd_sc_hd__a31oi_1
*I *2178:D I *D sky130_fd_sc_hd__and4_1
*I *2177:B I *D sky130_fd_sc_hd__nand2_1
*I *2206:B I *D sky130_fd_sc_hd__or2_1
*I *2204:A_N I *D sky130_fd_sc_hd__nand2b_1
*I *2176:X O *D sky130_fd_sc_hd__and4_1
*CAP
1 *2211:A3 0
2 *2178:D 8.31043e-05
3 *2177:B 8.19414e-05
4 *2206:B 0.000290011
5 *2204:A_N 0
6 *2176:X 0
7 *434:60 0.000201503
8 *434:47 0.000516379
9 *434:25 0.000721153
10 *434:14 0.00033059
11 *434:4 0.000861831
12 *2177:B *2211:A1 2.65879e-05
13 *2177:B *2211:A2 5.50106e-05
14 *2177:B *2212:A2 5.81167e-05
15 *2177:B *2212:B1 0
16 *2177:B *435:10 1.37232e-05
17 *2178:D *2211:A2 8.27285e-05
18 *2178:D *2212:B1 1.43557e-05
19 *2178:D *436:49 1.03934e-05
20 *2178:D *482:12 0
21 *2206:B *2208:B1 0.000166072
22 *2206:B *436:49 3.30843e-07
23 *2206:B *480:44 9.67842e-05
24 *2206:B *483:33 0
25 *2206:B *603:16 0.000162452
26 *434:14 *490:55 0
27 *434:14 *560:100 0
28 *434:25 *2176:A 5.3304e-05
29 *434:25 *458:10 0.000197708
30 *434:25 *605:14 0.000262476
31 *434:47 *2211:A1 5.38807e-05
32 *434:47 *2211:A2 1.03836e-05
33 *434:47 *2212:A2 0.000143655
34 *434:47 *2212:B1 1.24376e-05
35 *434:47 *458:10 0.00016752
36 *434:47 *482:12 5.70367e-05
37 *434:47 *605:25 0
38 *434:60 *2212:B1 6.07611e-06
39 *434:60 *436:49 1.58805e-05
40 *434:60 *483:33 0
41 *2176:C *434:14 7.3367e-05
42 *2176:C *434:25 0.000143655
43 *2176:D *434:14 0.000136088
44 *291:95 *434:14 0.000121856
*RES
1 *2176:X *434:4 23 
2 *434:4 *434:14 37.0636 
3 *434:14 *2204:A_N 23 
4 *434:4 *434:25 11.2686 
5 *434:25 *434:47 21.5768 
6 *434:47 *2206:B 44.6596 
7 *434:47 *434:60 0.631786 
8 *434:60 *2177:B 40.0714 
9 *434:60 *2178:D 39.5536 
10 *434:25 *2211:A3 23 
*END

*D_NET *435 0.00222678
*CONN
*I *2209:B I *D sky130_fd_sc_hd__xor2_1
*I *2207:A I *D sky130_fd_sc_hd__nand2_1
*I *2177:Y O *D sky130_fd_sc_hd__nand2_1
*CAP
1 *2209:B 0
2 *2207:A 0
3 *2177:Y 0.000208696
4 *435:24 0.00037602
5 *435:10 0.000584716
6 *435:10 *2209:A 1.5547e-05
7 *435:10 *2210:A2 0
8 *435:10 *2211:A1 6.28849e-05
9 *435:10 *2212:A2 0
10 *435:10 *481:52 4.08664e-05
11 *435:24 *2070:B 0.000188916
12 *435:24 *2178:B 0.000135304
13 *435:24 *2207:B 2.18162e-05
14 *435:24 *2211:A1 3.47781e-05
15 *435:24 *455:10 1.14762e-05
16 *435:24 *465:189 0.000238317
17 *435:24 *489:75 0.000293719
18 *2177:B *435:10 1.37232e-05
*RES
1 *2177:Y *435:10 26.5214 
2 *435:10 *435:24 39.3214 
3 *435:24 *2207:A 23 
4 *435:10 *2209:B 23 
*END

*D_NET *436 0.00445248
*CONN
*I *2212:A1 I *D sky130_fd_sc_hd__o21a_1
*I *2214:B I *D sky130_fd_sc_hd__xnor2_1
*I *2179:C I *D sky130_fd_sc_hd__and3_1
*I *2216:A2 I *D sky130_fd_sc_hd__a21oi_1
*I *2178:X O *D sky130_fd_sc_hd__and4_1
*CAP
1 *2212:A1 0
2 *2214:B 0.000155307
3 *2179:C 8.03074e-05
4 *2216:A2 0
5 *2178:X 0
6 *436:49 0.000295277
7 *436:14 0.000231747
8 *436:10 0.000907928
9 *436:4 0.000896458
10 *2179:C *2179:B 5.29672e-05
11 *2179:C *2217:B1 7.77682e-05
12 *2179:C *605:49 0.000233274
13 *2214:B *2214:A 9.91701e-05
14 *2214:B *459:8 0.000185095
15 *2214:B *473:48 0.000103637
16 *2214:B *483:21 0
17 *436:10 *438:14 0.000138708
18 *436:10 *459:8 1.14452e-05
19 *436:10 *473:24 4.06849e-05
20 *436:10 *483:23 0
21 *436:10 *605:25 0
22 *436:14 *2179:B 1.94812e-05
23 *436:14 *605:34 9.84851e-05
24 *436:14 *605:49 0.00031495
25 *436:49 *2211:A2 8.27285e-05
26 *436:49 *473:24 4.56951e-05
27 *436:49 *480:16 0.000167387
28 *436:49 *483:23 2.3529e-05
29 *436:49 *483:33 9.69751e-05
30 *2178:D *436:49 1.03934e-05
31 *2206:B *436:49 3.30843e-07
32 *262:8 *2214:B 6.6869e-05
33 *434:60 *436:49 1.58805e-05
*RES
1 *2178:X *436:4 23 
2 *436:4 *436:10 26.455 
3 *436:10 *436:14 19.4329 
4 *436:14 *2216:A2 23 
5 *436:14 *2179:C 26.7286 
6 *436:10 *2214:B 43.0129 
7 *436:4 *436:49 35.7171 
8 *436:49 *2212:A1 23 
*END

*D_NET *437 0.0030943
*CONN
*I *2217:A2 I *D sky130_fd_sc_hd__a211oi_1
*I *2218:A2 I *D sky130_fd_sc_hd__o21ba_1
*I *2180:B I *D sky130_fd_sc_hd__nand2_2
*I *2179:X O *D sky130_fd_sc_hd__and3_1
*CAP
1 *2217:A2 3.83978e-05
2 *2218:A2 0
3 *2180:B 0
4 *2179:X 0.000239829
5 *437:31 0.000474087
6 *437:18 0.000588914
7 *437:12 0.000393053
8 *437:12 *605:49 2.4754e-05
9 *437:12 *605:59 3.80371e-05
10 *437:18 *484:14 5.67058e-05
11 *437:18 *485:14 5.50106e-05
12 *437:18 *605:59 6.16439e-05
13 *437:31 *484:14 0.000434745
14 *437:31 *485:10 0.0001035
15 *437:31 *485:14 0.000446275
16 *437:31 *537:31 0
17 *263:14 *437:12 0.000139352
18 *264:8 *437:31 0
*RES
1 *2179:X *437:12 41.4696 
2 *437:12 *437:18 17.3511 
3 *437:18 *2180:B 23 
4 *437:18 *437:31 43.1536 
5 *437:31 *2218:A2 23 
6 *437:12 *2217:A2 38.6732 
*END

*D_NET *438 0.0100517
*CONN
*I *2212:B1 I *D sky130_fd_sc_hd__o21a_1
*I *2205:A1 I *D sky130_fd_sc_hd__a21oi_1
*I *2210:A1 I *D sky130_fd_sc_hd__a21oi_1
*I *2384:A I *D sky130_fd_sc_hd__buf_2
*I *2215:A1 I *D sky130_fd_sc_hd__a21oi_1
*I *2180:Y O *D sky130_fd_sc_hd__nand2_2
*CAP
1 *2212:B1 8.65024e-05
2 *2205:A1 0
3 *2210:A1 0
4 *2384:A 0.000233747
5 *2215:A1 0
6 *2180:Y 0
7 *438:59 0.00183928
8 *438:49 0.00269142
9 *438:25 0.000278184
10 *438:23 0.00120692
11 *438:14 0.000447772
12 *438:4 0.00084462
13 *2212:B1 *2211:A2 2.93845e-05
14 *2212:B1 *2212:A2 2.97369e-05
15 *2212:B1 *482:12 1.79662e-05
16 *2384:A *2208:B1 3.08966e-05
17 *2384:A *455:10 0.000125904
18 *2384:A *473:107 4.21594e-06
19 *2384:A *481:12 0
20 *2384:A *603:6 0.00010018
21 *438:14 *483:23 0
22 *438:14 *484:14 0.000314157
23 *438:14 *489:75 0.000244801
24 *438:14 *522:14 0.000198196
25 *438:14 *605:34 5.3304e-05
26 *438:23 *2070:B 0
27 *438:23 *455:10 0.000126336
28 *438:23 *465:189 0
29 *438:23 *485:22 0.000676619
30 *438:23 *605:59 5.12487e-05
31 *438:25 *455:10 2.78316e-05
32 *438:25 *473:107 9.20311e-06
33 *438:25 *605:59 2.12147e-05
34 *438:59 *2352:CLK 4.56447e-05
35 *438:59 *471:125 2.38466e-05
36 *438:59 *604:12 1.01436e-05
37 *2177:B *2212:B1 0
38 *2178:D *2212:B1 1.43557e-05
39 *164:12 *438:59 7.23733e-05
40 *258:12 *438:59 2.51385e-05
41 *259:10 *2384:A 1.32939e-05
42 *356:10 *2384:A 0
43 *434:47 *2212:B1 1.24376e-05
44 *434:60 *2212:B1 6.07611e-06
45 *436:10 *438:14 0.000138708
*RES
1 *2180:Y *438:4 23 
2 *438:4 *438:14 41.7243 
3 *438:14 *2215:A1 23 
4 *438:4 *438:23 25.5332 
5 *438:23 *438:25 1.02536 
6 *438:25 *2384:A 43.2614 
7 *438:25 *2210:A1 38 
8 *438:23 *438:49 9.6016 
9 *438:49 *438:59 28.8244 
10 *438:59 *2205:A1 23 
11 *438:49 *2212:B1 47.7918 
*END

*D_NET *439 0.00132476
*CONN
*I *2183:A2 I *D sky130_fd_sc_hd__a21oi_1
*I *2182:Y O *D sky130_fd_sc_hd__xnor2_1
*CAP
1 *2183:A2 0.000337125
2 *2182:Y 6.07341e-05
3 *439:8 0.000397859
4 *2183:A2 *471:36 5.67058e-05
5 *2183:A2 *560:76 1.32302e-05
6 *439:8 *2182:A 0
7 *439:8 *486:25 1.44546e-05
8 *249:8 *439:8 0.000114092
9 *250:10 *2183:A2 0.000330559
*RES
1 *2182:Y *439:8 39.5536 
2 *439:8 *2183:A2 45.4571 
*END

*D_NET *440 0.00115778
*CONN
*I *2185:B I *D sky130_fd_sc_hd__or2_1
*I *2184:Y O *D sky130_fd_sc_hd__a21oi_1
*CAP
1 *2185:B 0
2 *2184:Y 0.000353871
3 *440:10 0.000353871
4 *440:10 *2184:A2 9.41704e-05
5 *440:10 *486:38 3.83778e-05
6 *440:10 *487:40 0
7 *440:10 *560:64 0.00031749
8 *2185:A *440:10 0
*RES
1 *2184:Y *440:10 43.4686 
2 *440:10 *2185:B 38 
*END

*D_NET *441 9.50084e-05
*CONN
*I *2186:A2 I *D sky130_fd_sc_hd__a21oi_1
*I *2185:X O *D sky130_fd_sc_hd__or2_1
*CAP
1 *2186:A2 1.91513e-05
2 *2185:X 1.91513e-05
3 *2186:A2 *2186:A1 5.67058e-05
*RES
1 *2185:X *2186:A2 46.6214 
*END

*D_NET *442 0.000252857
*CONN
*I *2188:B I *D sky130_fd_sc_hd__or2_1
*I *2187:Y O *D sky130_fd_sc_hd__nor2_1
*CAP
1 *2188:B 0
2 *2187:Y 6.31994e-05
3 *442:8 6.31994e-05
4 *442:8 *479:25 0.000116314
5 *442:8 *486:49 1.01436e-05
6 *442:8 *560:64 0
*RES
1 *2187:Y *442:8 39.5536 
2 *442:8 *2188:B 38 
*END

*D_NET *443 0.000542528
*CONN
*I *2189:A2 I *D sky130_fd_sc_hd__a21oi_1
*I *2188:X O *D sky130_fd_sc_hd__or2_1
*CAP
1 *2189:A2 0
2 *2188:X 0.000123602
3 *443:10 0.000123602
4 *2188:A *443:10 6.17437e-06
5 *163:18 *443:10 0.000135547
6 *432:10 *443:10 0.000133316
7 *432:25 *443:10 2.02872e-05
*RES
1 *2188:X *443:10 40.5271 
2 *443:10 *2189:A2 38 
*END

*D_NET *444 0.000501929
*CONN
*I *2191:A2 I *D sky130_fd_sc_hd__a21oi_1
*I *2190:Y O *D sky130_fd_sc_hd__xnor2_1
*CAP
1 *2191:A2 0
2 *2190:Y 0.000181997
3 *444:10 0.000181997
4 *444:10 *473:44 1.94693e-05
5 *444:10 *489:8 5.14746e-06
6 *444:10 *490:55 6.48049e-05
7 *2190:B *444:10 0
8 *169:12 *444:10 4.85126e-05
*RES
1 *2190:Y *444:10 41.3557 
2 *444:10 *2191:A2 38 
*END

*D_NET *445 0.000518312
*CONN
*I *2193:B I *D sky130_fd_sc_hd__or2_1
*I *2192:Y O *D sky130_fd_sc_hd__a21oi_1
*CAP
1 *2193:B 0
2 *2192:Y 0.000117629
3 *445:10 0.000117629
4 *445:10 *2175:B 2.93845e-05
5 *445:10 *490:10 0.000166522
6 *445:10 *490:51 1.01436e-05
7 *168:12 *445:10 7.70038e-05
*RES
1 *2192:Y *445:10 40.8793 
2 *445:10 *2193:B 38 
*END

*D_NET *446 0.000555435
*CONN
*I *2194:A2 I *D sky130_fd_sc_hd__a21oi_1
*I *2193:X O *D sky130_fd_sc_hd__or2_1
*CAP
1 *2194:A2 0
2 *2193:X 0.000228475
3 *446:10 0.000228475
4 *446:10 *490:10 0
5 *446:10 *541:12 0
6 *2193:A *446:10 9.84851e-05
7 *168:12 *446:10 0
*RES
1 *2193:X *446:10 41.48 
2 *446:10 *2194:A2 38 
*END

*D_NET *447 0.000201114
*CONN
*I *2196:A2 I *D sky130_fd_sc_hd__a21oi_1
*I *2195:Y O *D sky130_fd_sc_hd__xnor2_1
*CAP
1 *2196:A2 4.11199e-05
2 *2195:Y 4.11199e-05
3 *2196:A2 *603:47 2.30292e-05
4 *2195:B *2196:A2 9.58444e-05
*RES
1 *2195:Y *2196:A2 47.4707 
*END

*D_NET *448 0.0046357
*CONN
*I *2201:B I *D sky130_fd_sc_hd__xnor2_1
*I *2199:A I *D sky130_fd_sc_hd__or2_1
*I *2203:A2 I *D sky130_fd_sc_hd__a21o_1
*I *2197:X O *D sky130_fd_sc_hd__and3_1
*CAP
1 *2201:B 0.000300574
2 *2199:A 4.26531e-05
3 *2203:A2 0
4 *2197:X 0
5 *448:18 0.000706925
6 *448:8 0.000784941
7 *448:6 0.000335937
8 *2199:A *2197:A 4.5051e-05
9 *2199:A *2200:A2 5.50049e-05
10 *2201:B *2175:B 0.000102573
11 *2201:B *489:29 0.000320651
12 *2201:B *490:51 0.000446803
13 *448:8 *489:29 8.62876e-05
14 *448:18 *489:29 0.000429621
15 *448:18 *604:12 0.000140954
16 *2197:C *2199:A 0.000139352
17 *2350:D *448:18 1.74843e-05
18 *168:12 *2201:B 0.000187331
19 *168:12 *448:8 3.97502e-05
20 *168:12 *448:18 0.000215178
21 *432:47 *2201:B 0.000238626
*RES
1 *2197:X *448:6 38 
2 *448:6 *448:8 1.20143 
3 *448:8 *448:18 30.6186 
4 *448:18 *2203:A2 23 
5 *448:8 *2199:A 39.5743 
6 *448:6 *2201:B 48.8129 
*END

*D_NET *449 0.000604254
*CONN
*I *2199:B I *D sky130_fd_sc_hd__or2_1
*I *2198:Y O *D sky130_fd_sc_hd__a21oi_1
*CAP
1 *2199:B 0
2 *2198:Y 0.000173185
3 *449:10 0.000173185
4 *449:10 *2197:A 0.000110922
5 *449:10 *465:79 0
6 *449:10 *491:30 0.000146963
*RES
1 *2198:Y *449:10 41.1641 
2 *449:10 *2199:B 38 
*END

*D_NET *450 0.000609505
*CONN
*I *2200:A2 I *D sky130_fd_sc_hd__a21oi_1
*I *2199:X O *D sky130_fd_sc_hd__or2_1
*CAP
1 *2200:A2 9.83466e-05
2 *2199:X 9.83466e-05
3 *2200:A2 *2197:A 0.000322966
4 *2197:C *2200:A2 3.48411e-05
5 *2199:A *2200:A2 5.50049e-05
*RES
1 *2199:X *2200:A2 49.0036 
*END

*D_NET *451 0.000847418
*CONN
*I *2202:A2 I *D sky130_fd_sc_hd__a21oi_1
*I *2201:Y O *D sky130_fd_sc_hd__xnor2_1
*CAP
1 *2202:A2 4.11597e-05
2 *2201:Y 0.000191934
3 *451:8 0.000233094
4 *2202:A2 *603:39 2.64616e-05
5 *451:8 *471:123 0
6 *451:8 *471:125 0
7 *164:12 *451:8 0.000354769
*RES
1 *2201:Y *451:8 42.7229 
2 *451:8 *2202:A2 38.6214 
*END

*D_NET *452 0.000806511
*CONN
*I *2204:B I *D sky130_fd_sc_hd__nand2b_1
*I *2203:X O *D sky130_fd_sc_hd__a21o_1
*CAP
1 *2204:B 1.08265e-05
2 *2203:X 0.000140363
3 *452:8 0.000151189
4 *452:8 *494:10 0.000112568
5 *452:8 *560:100 0.000350594
6 *452:8 *620:16 3.71262e-05
7 *291:95 *2204:B 3.84478e-06
*RES
1 *2203:X *452:8 42.7229 
2 *452:8 *2204:B 38.1502 
*END

*D_NET *453 0.000841403
*CONN
*I *2205:A2 I *D sky130_fd_sc_hd__a21oi_1
*I *2204:Y O *D sky130_fd_sc_hd__nand2b_1
*CAP
1 *2205:A2 5.18924e-06
2 *2204:Y 0.000295497
3 *453:10 0.000300687
4 *2205:A2 *2352:CLK 1.51216e-05
5 *453:10 *493:23 0
6 *164:12 *453:10 0.000134552
7 *258:12 *2205:A2 7.05643e-06
8 *258:12 *453:10 6.11038e-05
9 *291:95 *453:10 2.21969e-05
*RES
1 *2204:Y *453:10 42.4329 
2 *453:10 *2205:A2 38.1657 
*END

*D_NET *454 0.00190133
*CONN
*I *2207:B I *D sky130_fd_sc_hd__nand2_1
*I *2206:X O *D sky130_fd_sc_hd__or2_1
*CAP
1 *2207:B 0.000142932
2 *2206:X 0.000257971
3 *454:8 0.000400903
4 *2207:B *2374:A 2.64616e-05
5 *2207:B *455:10 0.000175903
6 *454:8 *455:10 6.07939e-05
7 *454:8 *465:189 0.000519715
8 *356:10 *454:8 0.000294834
9 *435:24 *2207:B 2.18162e-05
*RES
1 *2206:X *454:8 45.1879 
2 *454:8 *2207:B 40.9 
*END

*D_NET *455 0.00195014
*CONN
*I *2208:A2 I *D sky130_fd_sc_hd__a21oi_1
*I *2207:Y O *D sky130_fd_sc_hd__nand2_1
*CAP
1 *2208:A2 0
2 *2207:Y 0.000621179
3 *455:10 0.000621179
4 *2207:B *455:10 0.000175903
5 *2384:A *455:10 0.000125904
6 *356:10 *455:10 0.000179539
7 *435:24 *455:10 1.14762e-05
8 *438:23 *455:10 0.000126336
9 *438:25 *455:10 2.78316e-05
10 *454:8 *455:10 6.07939e-05
*RES
1 *2207:Y *455:10 49.8486 
2 *455:10 *2208:A2 38 
*END

*D_NET *456 0.000335376
*CONN
*I *2210:A2 I *D sky130_fd_sc_hd__a21oi_1
*I *2209:X O *D sky130_fd_sc_hd__xor2_1
*CAP
1 *2210:A2 9.15941e-05
2 *2209:X 9.15941e-05
3 *2210:A2 *481:52 0.000152188
4 *435:10 *2210:A2 0
*RES
1 *2209:X *2210:A2 48.0714 
*END

*D_NET *457 0.000682485
*CONN
*I *2212:A2 I *D sky130_fd_sc_hd__o21a_1
*I *2211:Y O *D sky130_fd_sc_hd__a31oi_1
*CAP
1 *2212:A2 9.94372e-05
2 *2211:Y 9.94372e-05
3 *2212:A2 *2211:A1 0.000244672
4 *2212:A2 *2211:A2 7.43025e-06
5 *2177:B *2212:A2 5.81167e-05
6 *2212:B1 *2212:A2 2.97369e-05
7 *434:47 *2212:A2 0.000143655
8 *435:10 *2212:A2 0
*RES
1 *2211:Y *2212:A2 49.9979 
*END

*D_NET *458 0.00104008
*CONN
*I *2213:B I *D sky130_fd_sc_hd__nor2_1
*I *2212:X O *D sky130_fd_sc_hd__o21a_1
*CAP
1 *2213:B 0
2 *2212:X 0.000195922
3 *458:10 0.000195922
4 *458:10 *2211:A2 0.000228001
5 *458:10 *482:12 5.50049e-05
6 *434:25 *458:10 0.000197708
7 *434:47 *458:10 0.00016752
*RES
1 *2212:X *458:10 29.0279 
2 *458:10 *2213:B 23 
*END

*D_NET *459 0.000398225
*CONN
*I *2215:A2 I *D sky130_fd_sc_hd__a21oi_1
*I *2214:Y O *D sky130_fd_sc_hd__xnor2_1
*CAP
1 *2215:A2 0
2 *2214:Y 0.000100843
3 *459:8 0.000100843
4 *2214:B *459:8 0.000185095
5 *436:10 *459:8 1.14452e-05
*RES
1 *2214:Y *459:8 40.61 
2 *459:8 *2215:A2 38 
*END

*D_NET *460 0.000601598
*CONN
*I *2217:B1 I *D sky130_fd_sc_hd__a211oi_1
*I *2216:Y O *D sky130_fd_sc_hd__a21oi_1
*CAP
1 *2217:B1 0.000139294
2 *2216:Y 0.000139294
3 *2217:B1 *2179:B 0.000143655
4 *2217:B1 *605:49 8.58188e-05
5 *2179:C *2217:B1 7.77682e-05
6 *263:14 *2217:B1 1.5769e-05
*RES
1 *2216:Y *2217:B1 49.9564 
*END

*D_NET *461 0.00210822
*CONN
*I *2224:C1 I *D sky130_fd_sc_hd__o211a_1
*I *2222:B1 I *D sky130_fd_sc_hd__o211a_1
*I *2219:X O *D sky130_fd_sc_hd__o21a_1
*CAP
1 *2224:C1 0
2 *2222:B1 0.000317855
3 *2219:X 0.000435297
4 *461:10 0.000753152
5 *2222:B1 *462:8 0
6 *2222:B1 *462:31 0
7 *2222:B1 *463:16 6.07611e-06
8 *2222:B1 *463:29 0
9 *2222:B1 *557:30 1.14452e-05
10 *2222:B1 *642:24 3.37207e-05
11 *461:10 *463:29 0
12 *461:10 *554:59 3.22879e-05
13 *363:10 *461:10 0.000518381
*RES
1 *2219:X *461:10 47.4664 
2 *461:10 *2222:B1 42.3293 
3 *461:10 *2224:C1 38 
*END

*D_NET *462 0.00199049
*CONN
*I *2221:A2 I *D sky130_fd_sc_hd__o21ai_1
*I *2224:A2 I *D sky130_fd_sc_hd__o211a_1
*I *2220:Y O *D sky130_fd_sc_hd__a21boi_1
*CAP
1 *2221:A2 0
2 *2224:A2 2.55326e-05
3 *2220:Y 7.76579e-05
4 *462:31 0.000263509
5 *462:12 0.000376889
6 *462:8 0.000165506
7 *2224:A2 *2224:B1 1.12173e-05
8 *462:8 *601:24 0
9 *462:12 *559:34 1.40958e-05
10 *462:12 *642:24 0.000140259
11 *462:31 *2222:A1 0
12 *462:31 *2224:B1 0.000103637
13 *462:31 *2360:CLK 4.00259e-06
14 *462:31 *463:29 7.21237e-05
15 *462:31 *469:115 0.000137651
16 *462:31 *557:30 0
17 *462:31 *559:34 1.41077e-05
18 *462:31 *641:16 5.50049e-05
19 *462:31 *642:24 0.00021477
20 *2222:B1 *462:8 0
21 *2222:B1 *462:31 0
22 *2224:A1 *462:12 0.000185434
23 *265:10 *462:31 4.05745e-05
24 *266:8 *462:8 8.85189e-05
25 *289:35 *2224:A2 0
*RES
1 *2220:Y *462:8 39.5536 
2 *462:8 *462:12 17.5271 
3 *462:12 *2224:A2 23.4971 
4 *462:12 *462:31 36.8564 
5 *462:31 *2221:A2 23 
*END

*D_NET *463 0.00172565
*CONN
*I *2223:B I *D sky130_fd_sc_hd__nand2b_1
*I *2222:C1 I *D sky130_fd_sc_hd__o211a_1
*I *2221:Y O *D sky130_fd_sc_hd__o21ai_1
*CAP
1 *2223:B 0
2 *2222:C1 0
3 *2221:Y 0
4 *463:29 0.000183156
5 *463:16 0.000317655
6 *463:4 0.000500812
7 *463:16 *2220:A2 0.00018455
8 *463:16 *2220:B1_N 0
9 *463:16 *557:30 1.44813e-05
10 *463:16 *641:16 0.000104169
11 *463:16 *642:24 6.07611e-06
12 *463:29 *469:123 0.000111852
13 *463:29 *557:30 0
14 *463:29 *559:34 1.27898e-05
15 *463:29 *559:42 4.38375e-05
16 *463:29 *641:14 5.94125e-05
17 *463:29 *642:24 1.27898e-05
18 *2222:B1 *463:16 6.07611e-06
19 *2222:B1 *463:29 0
20 *265:10 *463:16 9.58714e-05
21 *461:10 *463:29 0
22 *462:31 *463:29 7.21237e-05
*RES
1 *2221:Y *463:4 23 
2 *463:4 *463:16 35.9243 
3 *463:16 *2222:C1 23 
4 *463:4 *463:29 33.9668 
5 *463:29 *2223:B 23 
*END

*D_NET *464 0.000421618
*CONN
*I *2224:B1 I *D sky130_fd_sc_hd__o211a_1
*I *2223:Y O *D sky130_fd_sc_hd__nand2b_1
*CAP
1 *2224:B1 6.11185e-05
2 *2223:Y 6.11185e-05
3 *2224:B1 *559:34 0.000184527
4 *2224:A2 *2224:B1 1.12173e-05
5 *462:31 *2224:B1 0.000103637
*RES
1 *2223:Y *2224:B1 48.5479 
*END

*D_NET *465 0.0407587
*CONN
*I *2374:A I *D sky130_fd_sc_hd__clkbuf_16
*I *708:DIODE I *D sky130_fd_sc_hd__diode_2
*I *2373:A I *D sky130_fd_sc_hd__clkbuf_16
*I *707:DIODE I *D sky130_fd_sc_hd__diode_2
*I *2370:A I *D sky130_fd_sc_hd__clkbuf_16
*I *704:DIODE I *D sky130_fd_sc_hd__diode_2
*I *703:DIODE I *D sky130_fd_sc_hd__diode_2
*I *2369:A I *D sky130_fd_sc_hd__clkbuf_16
*I *700:DIODE I *D sky130_fd_sc_hd__diode_2
*I *2371:A I *D sky130_fd_sc_hd__clkbuf_16
*I *2372:A I *D sky130_fd_sc_hd__clkbuf_16
*I *706:DIODE I *D sky130_fd_sc_hd__diode_2
*I *705:DIODE I *D sky130_fd_sc_hd__diode_2
*I *702:DIODE I *D sky130_fd_sc_hd__diode_2
*I *701:DIODE I *D sky130_fd_sc_hd__diode_2
*I *2367:A I *D sky130_fd_sc_hd__clkbuf_16
*I *2368:A I *D sky130_fd_sc_hd__clkbuf_16
*I *2366:X O *D sky130_fd_sc_hd__clkbuf_16
*CAP
1 *2374:A 3.80977e-05
2 *708:DIODE 0
3 *2373:A 0
4 *707:DIODE 0
5 *2370:A 0.00019901
6 *704:DIODE 0
7 *703:DIODE 0
8 *2369:A 8.7285e-05
9 *700:DIODE 0
10 *2371:A 0.000391039
11 *2372:A 0
12 *706:DIODE 0.000195304
13 *705:DIODE 0
14 *702:DIODE 0
15 *701:DIODE 0.000211351
16 *2367:A 0.000308438
17 *2368:A 4.74551e-05
18 *2366:X 0
19 *465:191 3.80977e-05
20 *465:189 0.000982614
21 *465:178 0.00100706
22 *465:171 2.44422e-05
23 *465:169 0.0018328
24 *465:135 0.000814252
25 *465:129 0.00110506
26 *465:125 0.0012749
27 *465:117 0.00305091
28 *465:110 0.00022433
29 *465:81 0.000195304
30 *465:79 0.00186494
31 *465:68 0.00232095
32 *465:64 0.00251128
33 *465:33 0.00183906
34 *465:20 0.00146289
35 *465:18 0.000375502
36 *465:16 0.00394433
37 *465:4 0.00210279
38 *701:DIODE *600:93 0.000314157
39 *2367:A *2407:A 0.000189118
40 *2367:A *466:8 5.50049e-05
41 *2367:A *466:40 6.16531e-05
42 *2367:A *519:10 0.000130341
43 *2367:A *600:93 0.000917572
44 *2368:A *467:148 9.84794e-05
45 *2370:A *601:36 3.03251e-05
46 *2371:A *470:6 0.000155269
47 *2371:A *479:44 0
48 *2371:A *487:40 1.01436e-05
49 *2371:A *560:64 0
50 *465:16 *615:124 0
51 *465:16 *634:21 0.000120171
52 *465:18 *617:142 0
53 *465:18 *640:14 5.56306e-05
54 *465:18 *640:25 0
55 *465:33 *2021:A 0.000330488
56 *465:33 *2308:CLK 0
57 *465:33 *2329:CLK 0.000308927
58 *465:33 *466:40 0.000179712
59 *465:33 *467:159 0
60 *465:33 *500:26 0.000148319
61 *465:33 *622:32 0
62 *465:64 *2034:A 0
63 *465:64 *2034:B 0
64 *465:64 *2034:C 0.000176541
65 *465:64 *479:44 0
66 *465:64 *560:40 0
67 *465:64 *560:64 0
68 *465:64 *608:65 0
69 *465:64 *608:71 0
70 *465:64 *618:139 0
71 *465:64 *636:10 0
72 *465:64 *636:23 0
73 *465:64 *639:10 0.000165593
74 *465:64 *640:25 0
75 *465:79 *2197:A 0
76 *465:79 *490:10 0
77 *465:79 *490:14 0
78 *465:79 *490:22 0.000176961
79 *465:79 *492:8 0
80 *465:79 *492:14 0
81 *465:79 *492:45 0
82 *465:125 *469:101 0
83 *465:125 *559:19 6.4393e-05
84 *465:125 *607:53 0
85 *465:125 *649:86 0
86 *465:125 *651:10 0.00024843
87 *465:125 *651:27 0.000251607
88 *465:129 *601:36 1.1902e-05
89 *465:135 *509:36 0
90 *465:135 *514:18 0
91 *465:135 *559:19 0.000423872
92 *465:135 *621:52 0
93 *465:169 *1947:B 3.34818e-06
94 *465:169 *2171:B2 7.80291e-06
95 *465:169 *2341:CLK 0.000126644
96 *465:169 *472:10 9.27917e-05
97 *465:169 *472:12 4.74809e-05
98 *465:169 *472:14 4.88346e-05
99 *465:169 *648:76 2.37582e-05
100 *465:169 *649:45 0.000399881
101 *465:169 *650:26 0.000197479
102 *465:169 *651:27 2.20818e-05
103 *465:169 *651:40 2.5913e-05
104 *465:189 *2070:B 0.000163352
105 *465:189 *2072:B 0
106 *465:189 *2211:A1 2.60152e-05
107 *465:189 *480:48 0.000404038
108 *465:189 *480:54 0.000222113
109 *465:189 *489:75 5.13205e-05
110 *465:189 *615:212 0.000167452
111 *2080:A1 *465:189 9.88575e-05
112 *2087:A2 *465:189 0
113 *2126:B *2370:A 3.22879e-05
114 *2193:A *706:DIODE 7.88926e-05
115 *2193:A *465:79 0.000171906
116 *2198:A2 *465:79 0.000138708
117 *2207:B *2374:A 2.64616e-05
118 *2294:D *465:135 0
119 *156:8 *465:33 0
120 *157:8 *465:33 3.21223e-05
121 *168:12 *465:79 0
122 *170:21 *465:18 0.000163352
123 *170:21 *465:20 6.16531e-05
124 *170:42 *465:16 0.00101543
125 *170:70 *465:169 0
126 *209:10 *465:64 3.21327e-05
127 *211:8 *465:64 0
128 *235:8 *465:33 3.5664e-05
129 *237:10 *2367:A 4.73609e-05
130 *240:10 *465:125 0
131 *247:8 *465:169 2.79167e-05
132 *275:29 *465:135 0.000211671
133 *277:14 *465:169 7.27694e-06
134 *284:19 *465:169 0.000158474
135 *285:8 *465:169 0
136 *287:25 *465:169 0
137 *288:10 *465:169 0.00031842
138 *289:27 *465:125 0
139 *289:35 *465:125 0
140 *295:101 *465:178 5.41385e-05
141 *295:101 *465:189 0.000312888
142 *299:12 *465:64 0
143 *316:78 *465:169 0
144 *316:78 *465:178 9.84851e-05
145 *316:78 *465:189 0.000185428
146 *335:8 *465:169 0
147 *356:10 *465:189 0.000246273
148 *366:16 *465:189 0.000318429
149 *372:8 *465:189 5.56306e-05
150 *400:55 *465:135 0.000394583
151 *428:10 *465:125 0
152 *429:8 *465:169 1.05235e-05
153 *433:8 *465:79 0.000561346
154 *435:24 *465:189 0.000238317
155 *438:23 *465:189 0
156 *449:10 *465:79 0
157 *454:8 *465:189 0.000519715
*RES
1 *2366:X *465:4 23 
2 *465:4 *465:16 42.3027 
3 *465:16 *465:18 5.25107 
4 *465:18 *465:20 1.55357 
5 *465:20 *2368:A 39.0979 
6 *465:20 *465:33 27.5293 
7 *465:33 *2367:A 49.4964 
8 *465:33 *701:DIODE 41.48 
9 *465:18 *702:DIODE 38 
10 *465:16 *465:64 29.9011 
11 *465:64 *465:68 20.3857 
12 *465:68 *705:DIODE 23 
13 *465:68 *465:79 45.6364 
14 *465:79 *465:81 15 
15 *465:81 *706:DIODE 26.5007 
16 *465:81 *2372:A 23 
17 *465:64 *2371:A 45.7471 
18 *465:4 *465:110 1.595 
19 *465:110 *700:DIODE 23 
20 *465:110 *465:117 1.57429 
21 *465:117 *465:125 38.4486 
22 *465:125 *465:129 17.0507 
23 *465:129 *465:135 47.0479 
24 *465:135 *2369:A 24.595 
25 *465:135 *703:DIODE 23 
26 *465:129 *704:DIODE 23 
27 *465:129 *2370:A 26.0243 
28 *465:117 *465:169 46.1336 
29 *465:169 *465:171 15 
30 *465:171 *707:DIODE 23 
31 *465:171 *465:178 1.09786 
32 *465:178 *2373:A 23 
33 *465:178 *465:189 43.6686 
34 *465:189 *465:191 15 
35 *465:191 *708:DIODE 23 
36 *465:191 *2374:A 23.6214 
*END

*D_NET *466 0.0160961
*CONN
*I *2329:CLK I *D sky130_fd_sc_hd__dfxtp_1
*I *2375:A I *D sky130_fd_sc_hd__clkbuf_8
*I *2298:CLK I *D sky130_fd_sc_hd__dfrtp_1
*I *2293:CLK I *D sky130_fd_sc_hd__dfrtp_1
*I *2330:CLK I *D sky130_fd_sc_hd__dfxtp_1
*I *2331:CLK I *D sky130_fd_sc_hd__dfxtp_1
*I *2299:CLK I *D sky130_fd_sc_hd__dfrtp_1
*I *2332:CLK I *D sky130_fd_sc_hd__dfxtp_1
*I *2286:CLK I *D sky130_fd_sc_hd__dfrtp_1
*I *2300:CLK I *D sky130_fd_sc_hd__dfrtp_1
*I *2290:CLK I *D sky130_fd_sc_hd__dfrtp_1
*I *2285:CLK I *D sky130_fd_sc_hd__dfrtp_1
*I *2318:CLK I *D sky130_fd_sc_hd__dfxtp_1
*I *2367:X O *D sky130_fd_sc_hd__clkbuf_16
*CAP
1 *2329:CLK 0.000398627
2 *2375:A 0
3 *2298:CLK 0.000310397
4 *2293:CLK 0.000170349
5 *2330:CLK 0
6 *2331:CLK 3.45092e-05
7 *2299:CLK 0.000458963
8 *2332:CLK 0
9 *2286:CLK 0
10 *2300:CLK 0.000446535
11 *2290:CLK 0.000328178
12 *2285:CLK 0
13 *2318:CLK 0
14 *2367:X 1.50079e-05
15 *466:128 0.000185363
16 *466:124 0.000529768
17 *466:75 0.000715324
18 *466:69 0.000684016
19 *466:61 0.00100702
20 *466:59 0.000499472
21 *466:57 0.000536487
22 *466:46 0.000365934
23 *466:44 0.000466819
24 *466:40 0.0010052
25 *466:33 0.000415112
26 *466:20 0.000845889
27 *466:8 0.000623298
28 *2293:CLK *2250:A 0.00010655
29 *2298:CLK *503:37 0.000245283
30 *2298:CLK *611:26 0
31 *2299:CLK *2256:A 0.00014196
32 *2300:CLK *2484:A 7.51453e-06
33 *2300:CLK *581:14 0.000105326
34 *2329:CLK *500:26 0.000161121
35 *2329:CLK *504:49 0
36 *2331:CLK *2025:A 2.64616e-05
37 *2331:CLK *584:22 1.59094e-05
38 *466:8 *2407:A 5.50049e-05
39 *466:20 *2101:B 5.3304e-05
40 *466:20 *499:49 0.000222113
41 *466:20 *505:34 0
42 *466:20 *506:12 2.86356e-05
43 *466:20 *506:16 5.50106e-05
44 *466:20 *506:37 1.02387e-05
45 *466:20 *584:12 0.000119477
46 *466:20 *622:32 0
47 *466:33 *506:12 0.0002007
48 *466:33 *584:12 0.000121334
49 *466:33 *600:26 0.000192087
50 *466:33 *606:23 0
51 *466:33 *622:32 0
52 *466:40 *505:34 0
53 *466:44 *504:36 5.3304e-05
54 *466:44 *504:49 9.67842e-05
55 *466:59 *600:108 0.000234094
56 *466:69 *576:28 4.57757e-05
57 *466:75 *2026:B 5.40337e-05
58 *466:75 *2026:C 5.94125e-05
59 *466:75 *2243:A 0
60 *466:75 *576:28 0.000233367
61 *466:124 *503:37 5.58975e-06
62 *2137:B *2293:CLK 1.78591e-05
63 *2140:B *466:44 0.000269775
64 *2318:D *466:33 5.73018e-05
65 *2329:D *2329:CLK 1.13128e-05
66 *2330:D *2293:CLK 4.65414e-05
67 *2330:D *466:128 5.67058e-05
68 *2367:A *466:8 5.50049e-05
69 *2367:A *466:40 6.16531e-05
70 *108:10 *2300:CLK 9.8971e-06
71 *151:8 *2290:CLK 0.000791046
72 *151:8 *466:44 0.0002466
73 *151:8 *466:46 4.78593e-05
74 *154:14 *2293:CLK 0.000275054
75 *154:14 *466:128 1.40958e-05
76 *224:10 *466:33 0
77 *236:10 *2290:CLK 9.2891e-05
78 *236:10 *466:46 5.56356e-05
79 *329:8 *2329:CLK 2.5415e-05
80 *329:16 *466:44 0.000141954
81 *385:8 *466:33 3.98859e-05
82 *406:38 *2329:CLK 1.22906e-05
83 *409:10 *2298:CLK 0
84 *410:22 *466:59 3.71611e-05
85 *410:22 *466:61 2.24151e-05
86 *410:22 *466:69 0.000122386
87 *411:10 *2299:CLK 2.93747e-05
88 *411:10 *466:59 0.000126343
89 *411:10 *466:61 0.000164282
90 *412:10 *466:69 8.4047e-05
91 *465:33 *2329:CLK 0.000308927
92 *465:33 *466:40 0.000179712
*RES
1 *2367:X *466:8 38.6214 
2 *466:8 *466:20 24.2179 
3 *466:20 *2318:CLK 23 
4 *466:20 *466:33 39.3836 
5 *466:33 *2285:CLK 23 
6 *466:8 *466:40 3.66643 
7 *466:40 *466:44 24.6736 
8 *466:44 *466:46 1.09786 
9 *466:46 *2290:CLK 32.2179 
10 *466:46 *466:57 15 
11 *466:57 *466:59 6.13143 
12 *466:59 *466:61 2.96214 
13 *466:61 *466:69 22.4986 
14 *466:69 *466:75 20.4893 
15 *466:75 *2300:CLK 46.0164 
16 *466:75 *2286:CLK 38 
17 *466:69 *2332:CLK 23 
18 *466:61 *2299:CLK 46.2443 
19 *466:59 *2331:CLK 38.6214 
20 *466:57 *466:124 3.02429 
21 *466:124 *466:128 15.6214 
22 *466:128 *2330:CLK 23 
23 *466:128 *2293:CLK 28.8829 
24 *466:124 *2298:CLK 43.9657 
25 *466:44 *2375:A 23 
26 *466:40 *2329:CLK 45.2707 
*END

*D_NET *467 0.0167421
*CONN
*I *2309:CLK I *D sky130_fd_sc_hd__dfxtp_1
*I *2308:CLK I *D sky130_fd_sc_hd__dfxtp_1
*I *2307:CLK I *D sky130_fd_sc_hd__dfxtp_1
*I *2311:CLK I *D sky130_fd_sc_hd__dfrtp_1
*I *2275:CLK I *D sky130_fd_sc_hd__dfrtp_1
*I *2313:CLK I *D sky130_fd_sc_hd__dfrtp_1
*I *2276:CLK I *D sky130_fd_sc_hd__dfrtp_1
*I *2361:CLK I *D sky130_fd_sc_hd__dfxtp_1
*I *2302:CLK I *D sky130_fd_sc_hd__dfrtp_1
*I *2362:CLK I *D sky130_fd_sc_hd__dfxtp_1
*I *2297:CLK I *D sky130_fd_sc_hd__dfrtp_1
*I *2295:CLK I *D sky130_fd_sc_hd__dfrtp_1
*I *2289:CLK I *D sky130_fd_sc_hd__dfrtp_1
*I *2296:CLK I *D sky130_fd_sc_hd__dfrtp_1
*I *2376:A I *D sky130_fd_sc_hd__clkbuf_4
*I *2368:X O *D sky130_fd_sc_hd__clkbuf_16
*CAP
1 *2309:CLK 0
2 *2308:CLK 0.000332026
3 *2307:CLK 0
4 *2311:CLK 0
5 *2275:CLK 0
6 *2313:CLK 0.000142134
7 *2276:CLK 0
8 *2361:CLK 1.97948e-05
9 *2302:CLK 0.00053771
10 *2362:CLK 0
11 *2297:CLK 0.000121938
12 *2295:CLK 0.0001091
13 *2289:CLK 0.000334016
14 *2296:CLK 0
15 *2376:A 0.000112901
16 *2368:X 0
17 *467:159 0.000473014
18 *467:148 0.000607616
19 *467:139 0.000364562
20 *467:114 0.000376077
21 *467:108 0.00057181
22 *467:89 0.000580086
23 *467:76 0.00112151
24 *467:74 0.000858922
25 *467:36 0.0011714
26 *467:32 0.000850221
27 *467:25 0.000636607
28 *467:19 0.000814187
29 *467:17 0.000275993
30 *467:15 0.000231399
31 *467:6 0.000142087
32 *467:4 0.000495814
33 *2289:CLK *616:20 0
34 *2289:CLK *616:24 0
35 *2289:CLK *616:37 9.98891e-05
36 *2295:CLK *616:20 0
37 *2297:CLK *2253:A 1.07335e-05
38 *2302:CLK *617:16 5.29618e-05
39 *2308:CLK *606:17 6.6978e-05
40 *2308:CLK *607:51 0.000269781
41 *2308:CLK *622:32 0.000147976
42 *2361:CLK *615:36 1.94693e-05
43 *467:17 *617:33 0.000186025
44 *467:19 *617:33 0.000341483
45 *467:25 *2023:A 0.000123693
46 *467:25 *2023:B 2.1819e-05
47 *467:25 *586:6 0.000233367
48 *467:25 *617:33 0.000142818
49 *467:25 *617:37 0.000138718
50 *467:25 *617:54 0.000275033
51 *467:36 *2253:A 2.92911e-06
52 *467:36 *587:10 5.27215e-06
53 *467:74 *617:33 0.000178782
54 *467:76 *617:16 9.02099e-06
55 *467:76 *617:20 6.58632e-05
56 *467:76 *617:31 1.03836e-05
57 *467:76 *617:142 5.3304e-05
58 *467:89 *2225:B1 4.6318e-06
59 *467:89 *617:16 0
60 *467:89 *617:31 0
61 *467:89 *617:33 0
62 *467:89 *622:14 0
63 *467:89 *622:28 0
64 *467:108 *2225:B1 4.43148e-05
65 *467:108 *474:10 0
66 *467:108 *615:49 0.000137679
67 *467:114 *615:49 0
68 *467:114 *615:60 0
69 *467:114 *622:14 0.000434065
70 *467:139 *474:10 0
71 *467:139 *617:31 0
72 *467:139 *617:142 0.000231039
73 *467:148 *622:28 7.42621e-05
74 *467:159 *622:28 2.16297e-05
75 *467:159 *622:32 6.63698e-05
76 *2276:D *2313:CLK 0.000173452
77 *2296:D *467:25 7.44354e-05
78 *2297:D *467:36 1.59094e-05
79 *2302:D *2302:CLK 3.87132e-05
80 *2302:RESET_B *467:76 1.93042e-05
81 *2361:D *2361:CLK 5.50049e-05
82 *2368:A *467:148 9.84794e-05
83 *59:21 *467:108 0.000116397
84 *170:21 *2376:A 9.90654e-05
85 *170:21 *467:6 2.18286e-05
86 *170:21 *467:148 0.000963711
87 *198:10 *2289:CLK 0
88 *268:10 *467:17 1.15307e-05
89 *268:10 *467:19 3.87236e-05
90 *291:33 *467:139 0.000264347
91 *465:33 *2308:CLK 0
92 *465:33 *467:159 0
*RES
1 *2368:X *467:4 23 
2 *467:4 *467:6 0.621429 
3 *467:6 *2376:A 25.0507 
4 *467:6 *467:15 15 
5 *467:15 *467:17 2.61 
6 *467:17 *467:19 4.72286 
7 *467:19 *467:25 30.2457 
8 *467:25 *2296:CLK 23 
9 *467:19 *467:32 15 
10 *467:32 *467:36 23.7207 
11 *467:36 *2289:CLK 44.4836 
12 *467:36 *2295:CLK 39.9057 
13 *467:32 *2297:CLK 24.9471 
14 *467:17 *2362:CLK 38 
15 *467:15 *467:74 17.61 
16 *467:74 *467:76 4.90929 
17 *467:76 *2302:CLK 30.6643 
18 *467:76 *467:89 18.6664 
19 *467:89 *2361:CLK 38.6214 
20 *467:89 *467:108 22.2086 
21 *467:108 *467:114 35.7793 
22 *467:114 *2276:CLK 23 
23 *467:114 *2313:CLK 26.48 
24 *467:108 *2275:CLK 23 
25 *467:74 *467:139 36.1936 
26 *467:139 *2311:CLK 23 
27 *467:4 *467:148 12.5529 
28 *467:148 *2307:CLK 23 
29 *467:148 *467:159 18.2314 
30 *467:159 *2308:CLK 46.7829 
31 *467:159 *2309:CLK 38 
*END

*D_NET *468 0.0188213
*CONN
*I *2324:CLK I *D sky130_fd_sc_hd__dfxtp_1
*I *2323:CLK I *D sky130_fd_sc_hd__dfxtp_1
*I *2322:CLK I *D sky130_fd_sc_hd__dfxtp_1
*I *2321:CLK I *D sky130_fd_sc_hd__dfxtp_1
*I *2377:A I *D sky130_fd_sc_hd__clkbuf_4
*I *2294:CLK I *D sky130_fd_sc_hd__dfrtp_1
*I *2320:CLK I *D sky130_fd_sc_hd__dfxtp_1
*I *2317:CLK I *D sky130_fd_sc_hd__dfxtp_1
*I *2327:CLK I *D sky130_fd_sc_hd__dfxtp_1
*I *2319:CLK I *D sky130_fd_sc_hd__dfxtp_1
*I *2287:CLK I *D sky130_fd_sc_hd__dfrtp_1
*I *2292:CLK I *D sky130_fd_sc_hd__dfrtp_1
*I *2291:CLK I *D sky130_fd_sc_hd__dfrtp_1
*I *2288:CLK I *D sky130_fd_sc_hd__dfrtp_1
*I *2369:X O *D sky130_fd_sc_hd__clkbuf_16
*CAP
1 *2324:CLK 0
2 *2323:CLK 0.000420745
3 *2322:CLK 2.04035e-05
4 *2321:CLK 0
5 *2377:A 0
6 *2294:CLK 0.000207641
7 *2320:CLK 0
8 *2317:CLK 0
9 *2327:CLK 0
10 *2319:CLK 0
11 *2287:CLK 0.000213209
12 *2292:CLK 0.000107437
13 *2291:CLK 0
14 *2288:CLK 2.1727e-05
15 *2369:X 0
16 *468:148 0.000742155
17 *468:138 0.00141461
18 *468:130 0.000890917
19 *468:87 0.00071935
20 *468:72 0.0010013
21 *468:57 0.000562742
22 *468:53 0.000365239
23 *468:49 0.000686979
24 *468:33 0.000901482
25 *468:20 0.00103933
26 *468:14 0.000757631
27 *468:12 0.000488956
28 *468:10 0.00074343
29 *468:4 0.00122566
30 *2287:CLK *533:8 9.48381e-06
31 *2287:CLK *610:26 0
32 *2322:CLK *510:6 2.4754e-05
33 *2323:CLK *511:8 0.00014196
34 *2323:CLK *621:100 0.00052371
35 *468:10 *559:19 0
36 *468:12 *559:19 0
37 *468:12 *621:64 0
38 *468:14 *559:19 0
39 *468:14 *621:64 0
40 *468:20 *559:19 0
41 *468:20 *581:10 3.06338e-05
42 *468:20 *621:64 0
43 *468:33 *581:10 5.14746e-06
44 *468:49 *2014:A 9.5877e-05
45 *468:49 *2415:A 0.000484539
46 *468:49 *499:18 6.17437e-06
47 *468:49 *508:10 0.000246682
48 *468:49 *611:76 0.000162409
49 *468:49 *611:83 0.000148363
50 *468:53 *2100:A_N 0
51 *468:53 *499:10 7.88828e-05
52 *468:53 *499:18 0.000373837
53 *468:57 *2013:A 0.000137651
54 *468:57 *499:18 9.45591e-05
55 *468:57 *600:73 5.50106e-05
56 *468:72 *499:24 2.1199e-05
57 *468:72 *533:8 3.98859e-05
58 *468:72 *600:73 0
59 *468:72 *610:26 0
60 *468:87 *499:41 2.82307e-05
61 *468:87 *610:26 0
62 *468:87 *610:95 0
63 *468:87 *613:53 4.21594e-06
64 *468:87 *613:57 5.50106e-05
65 *468:130 *512:12 8.26032e-05
66 *468:130 *512:38 0
67 *468:138 *511:35 1.06693e-05
68 *468:138 *512:18 0.000136486
69 *468:138 *531:8 8.1796e-05
70 *468:138 *621:100 0.000352421
71 *468:148 *2111:A 0.000117254
72 *468:148 *2118:A 0
73 *468:148 *509:14 8.4047e-05
74 *468:148 *510:6 0.000443679
75 *468:148 *511:23 0.000136486
76 *468:148 *602:33 0.000183733
77 *468:148 *602:35 0
78 *2117:B *468:148 9.04083e-05
79 *2288:D *2288:CLK 4.00259e-06
80 *2288:D *468:33 9.72057e-06
81 *2294:D *468:10 9.98788e-05
82 *2294:D *468:12 9.88678e-05
83 *2294:RESET_B *2294:CLK 6.71188e-05
84 *2317:D *468:53 0.000110285
85 *2317:D *468:57 1.76557e-05
86 *2320:D *468:49 1.64354e-05
87 *2323:D *2323:CLK 1.64354e-05
88 *2324:D *468:130 0.000127305
89 *147:10 *2287:CLK 3.21223e-05
90 *154:8 *468:87 7.05498e-05
91 *225:10 *468:72 3.31683e-05
92 *227:8 *468:148 0.00052967
93 *230:8 *468:130 0
94 *230:8 *468:138 1.01436e-05
95 *233:16 *468:87 6.21658e-05
96 *386:8 *468:72 0.000101575
97 *386:8 *468:87 6.32688e-05
98 *387:8 *468:72 8.62876e-05
99 *392:10 *468:148 0.000242225
100 *396:10 *468:130 3.7122e-06
*RES
1 *2369:X *468:4 23 
2 *468:4 *468:10 23.9486 
3 *468:10 *468:12 3.31429 
4 *468:12 *468:14 2.25786 
5 *468:14 *468:20 18.3557 
6 *468:20 *2288:CLK 23.4971 
7 *468:20 *468:33 11.02 
8 *468:33 *2291:CLK 23 
9 *468:33 *2292:CLK 25.0507 
10 *468:14 *468:49 27.5321 
11 *468:49 *468:53 9.21786 
12 *468:53 *468:57 17.5271 
13 *468:57 *2287:CLK 41.7286 
14 *468:57 *468:72 5.77929 
15 *468:72 *2319:CLK 38 
16 *468:72 *468:87 28.2571 
17 *468:87 *2327:CLK 23 
18 *468:53 *2317:CLK 23 
19 *468:49 *2320:CLK 23 
20 *468:12 *2294:CLK 41.3764 
21 *468:10 *2377:A 38 
22 *468:4 *468:130 40.1707 
23 *468:130 *468:138 36.5664 
24 *468:138 *468:148 49.5543 
25 *468:148 *2321:CLK 23 
26 *468:148 *2322:CLK 23.6214 
27 *468:138 *2323:CLK 33.4814 
28 *468:130 *2324:CLK 23 
*END

*D_NET *469 0.0194409
*CONN
*I *2360:CLK I *D sky130_fd_sc_hd__dfxtp_1
*I *2359:CLK I *D sky130_fd_sc_hd__dfxtp_1
*I *2337:CLK I *D sky130_fd_sc_hd__dfxtp_1
*I *2310:CLK I *D sky130_fd_sc_hd__dfxtp_1
*I *2342:CLK I *D sky130_fd_sc_hd__dfxtp_1
*I *2315:CLK I *D sky130_fd_sc_hd__dfxtp_2
*I *2334:CLK I *D sky130_fd_sc_hd__dfxtp_1
*I *2378:A I *D sky130_fd_sc_hd__bufinv_16
*I *2326:CLK I *D sky130_fd_sc_hd__dfxtp_1
*I *2325:CLK I *D sky130_fd_sc_hd__dfxtp_1
*I *2328:CLK I *D sky130_fd_sc_hd__dfxtp_1
*I *2370:X O *D sky130_fd_sc_hd__clkbuf_16
*CAP
1 *2360:CLK 6.6286e-05
2 *2359:CLK 0
3 *2337:CLK 0
4 *2310:CLK 0
5 *2342:CLK 0.000185233
6 *2315:CLK 0.000215793
7 *2334:CLK 0.000237859
8 *2378:A 4.31643e-05
9 *2326:CLK 9.40212e-05
10 *2325:CLK 0.00024073
11 *2328:CLK 0.00107212
12 *2370:X 0
13 *469:123 0.000184631
14 *469:115 0.00107861
15 *469:101 0.000767685
16 *469:93 0.00141422
17 *469:76 0.0010658
18 *469:60 0.000453652
19 *469:58 0.000493043
20 *469:47 0.000402065
21 *469:14 0.00140763
22 *469:10 0.000399628
23 *469:8 0.000574318
24 *469:4 0.00109129
25 *2325:CLK *2122:A 8.50506e-05
26 *2325:CLK *602:8 4.94073e-05
27 *2326:CLK *2127:C 5.18869e-05
28 *2326:CLK *514:10 8.46456e-05
29 *2328:CLK *1936:A 5.50049e-05
30 *2328:CLK *2015:C 3.9889e-05
31 *2328:CLK *500:78 5.3304e-05
32 *2328:CLK *513:10 0.000600233
33 *2328:CLK *602:8 4.74355e-05
34 *2328:CLK *606:118 9.00922e-05
35 *2328:CLK *606:131 2.98648e-05
36 *2360:CLK *559:42 5.50049e-05
37 *2378:A *559:8 0.000182826
38 *469:8 *601:36 1.3109e-05
39 *469:10 *621:52 0.000155029
40 *469:14 *2127:C 3.31683e-05
41 *469:14 *513:43 3.47781e-05
42 *469:14 *621:52 4.49946e-05
43 *469:47 *621:52 6.07929e-05
44 *469:58 *621:46 9.39159e-05
45 *469:58 *621:52 0.000118797
46 *469:76 *621:46 0.000217562
47 *469:76 *643:8 0
48 *469:93 *1940:A 5.67058e-05
49 *469:93 *2149:A 0.000485446
50 *469:93 *2149:B 4.00259e-06
51 *469:93 *621:42 9.84794e-05
52 *469:93 *621:46 0.000138082
53 *469:93 *621:158 8.43466e-05
54 *469:101 *1960:D_N 0.000112612
55 *469:101 *498:6 0.000126781
56 *469:101 *498:81 1.5769e-05
57 *469:101 *615:102 0
58 *469:101 *615:124 0
59 *469:101 *634:21 5.50049e-05
60 *469:101 *634:31 0.00019944
61 *469:115 *2220:A2 0.000121413
62 *469:115 *601:36 0.000239929
63 *469:115 *641:16 7.42621e-05
64 *469:123 *559:42 1.58805e-05
65 *469:123 *641:14 6.31304e-05
66 *469:123 *641:53 0
67 *2054:B1 *2328:CLK 8.10047e-05
68 *2054:C1 *2328:CLK 4.00259e-06
69 *2126:B *469:8 0.000125488
70 *2126:B *469:10 0
71 *2126:B *469:14 0
72 *2310:D *469:101 5.92579e-05
73 *2325:D *2325:CLK 0.000189687
74 *2326:D *2326:CLK 0.000128184
75 *2334:D *2334:CLK 1.64354e-05
76 *2337:D *469:93 0.000126899
77 *2342:D *2342:CLK 0.000128189
78 *2360:D *2360:CLK 0.000150773
79 *2360:D *469:115 0.000521108
80 *2383:A *2328:CLK 4.5707e-05
81 *170:48 *469:76 0
82 *265:10 *2360:CLK 1.03955e-05
83 *265:10 *469:123 7.91596e-05
84 *275:18 *2328:CLK 0.000641105
85 *276:8 *469:76 0
86 *276:8 *469:93 0
87 *278:10 *469:93 5.67058e-05
88 *289:35 *2378:A 0.000182826
89 *329:24 *2328:CLK 0.000507968
90 *329:42 *2328:CLK 7.44161e-06
91 *334:39 *2342:CLK 0.000146436
92 *398:8 *2325:CLK 0.000402806
93 *462:31 *2360:CLK 4.00259e-06
94 *462:31 *469:115 0.000137651
95 *463:29 *469:123 0.000111852
96 *465:125 *469:101 0
*RES
1 *2370:X *469:4 23 
2 *469:4 *469:8 18.9564 
3 *469:8 *469:10 4.37071 
4 *469:10 *469:14 16.9057 
5 *469:14 *2328:CLK 47.6086 
6 *469:14 *2325:CLK 30.3121 
7 *469:10 *2326:CLK 41.0243 
8 *469:8 *469:47 1.90571 
9 *469:47 *2378:A 40.0507 
10 *469:47 *469:58 5.77929 
11 *469:58 *469:60 15 
12 *469:60 *2334:CLK 26.9564 
13 *469:60 *2315:CLK 26.9564 
14 *469:58 *469:76 5.77929 
15 *469:76 *2342:CLK 42.4329 
16 *469:76 *469:93 31.2193 
17 *469:93 *469:101 45.1421 
18 *469:101 *2310:CLK 23 
19 *469:93 *2337:CLK 23 
20 *469:4 *469:115 19.2229 
21 *469:115 *469:123 33.9357 
22 *469:123 *2359:CLK 23 
23 *469:115 *2360:CLK 25.0714 
*END

*D_NET *470 0.0192038
*CONN
*I *2379:A I *D sky130_fd_sc_hd__clkinv_2
*I *2345:CLK I *D sky130_fd_sc_hd__dfxtp_1
*I *2270:CLK I *D sky130_fd_sc_hd__dfrtp_1
*I *2305:CLK I *D sky130_fd_sc_hd__dfrtp_1
*I *2306:CLK I *D sky130_fd_sc_hd__dfrtp_1
*I *2271:CLK I *D sky130_fd_sc_hd__dfrtp_1
*I *2314:CLK I *D sky130_fd_sc_hd__dfrtp_1
*I *2363:CLK I *D sky130_fd_sc_hd__dfrtp_1
*I *2304:CLK I *D sky130_fd_sc_hd__dfrtp_1
*I *2339:CLK I *D sky130_fd_sc_hd__dfxtp_1
*I *2312:CLK I *D sky130_fd_sc_hd__dfrtp_1
*I *2269:CLK I *D sky130_fd_sc_hd__dfrtp_1
*I *2371:X O *D sky130_fd_sc_hd__clkbuf_16
*CAP
1 *2379:A 4.01155e-05
2 *2345:CLK 3.06633e-05
3 *2270:CLK 0.00024259
4 *2305:CLK 0
5 *2306:CLK 0
6 *2271:CLK 0
7 *2314:CLK 7.70667e-05
8 *2363:CLK 0
9 *2304:CLK 0
10 *2339:CLK 0
11 *2312:CLK 0.000107769
12 *2269:CLK 0.000116039
13 *2371:X 0.000211935
14 *470:139 0.000391291
15 *470:125 0.000446722
16 *470:115 0.00096242
17 *470:96 0.000988912
18 *470:92 0.000699266
19 *470:69 0.00121865
20 *470:54 0.00103948
21 *470:39 0.00122382
22 *470:37 0.00172803
23 *470:22 0.000673315
24 *470:18 0.000401262
25 *470:12 0.000605808
26 *470:10 0.000546482
27 *470:6 0.000438587
28 *2269:CLK *697:DIODE 1.08287e-05
29 *2312:CLK *517:10 3.87236e-05
30 *2312:CLK *618:91 3.04568e-05
31 *470:6 *487:40 6.88885e-05
32 *470:6 *628:10 9.88574e-06
33 *470:10 *2428:A 4.67488e-05
34 *470:10 *628:10 2.7237e-05
35 *470:12 *477:8 3.67805e-05
36 *470:12 *618:30 0
37 *470:18 *630:8 0.000144209
38 *470:22 *630:8 9.41891e-05
39 *470:37 *1946:B1_N 8.16277e-05
40 *470:37 *475:12 9.1906e-05
41 *470:37 *556:48 1.24376e-05
42 *470:54 *1975:A1 3.83498e-05
43 *470:54 *1975:B2 0.000688877
44 *470:54 *492:14 2.32101e-05
45 *470:54 *517:10 0.000269775
46 *470:54 *613:12 0.000178517
47 *470:54 *637:29 1.21972e-05
48 *470:69 *2403:A 1.21972e-05
49 *470:92 *618:30 0
50 *470:115 *618:43 7.30978e-05
51 *470:115 *622:14 1.5884e-05
52 *470:125 *2461:A 0.000397596
53 *470:139 *618:24 0
54 *470:139 *618:30 0
55 group_error *470:125 3.89972e-05
56 *736:DIODE *470:125 0
57 *2032:B *470:125 2.93747e-05
58 *2304:RESET_B *470:69 0.000219685
59 *2305:D *470:125 7.24484e-05
60 *2371:A *470:6 0.000155269
61 *138:14 *2269:CLK 4.84129e-06
62 *138:14 *470:18 9.49263e-06
63 *138:14 *470:22 4.22774e-05
64 *149:18 *2270:CLK 0.000265903
65 *149:18 *2345:CLK 5.3304e-05
66 *160:6 *470:6 0.000788866
67 *160:6 *470:10 0.000486727
68 *160:12 *470:115 4.83778e-05
69 *218:10 *470:37 3.54728e-05
70 *218:10 *470:39 3.04568e-05
71 *269:10 *470:37 2.82356e-05
72 *273:10 *470:115 0
73 *273:18 *470:54 0.000955853
74 *273:18 *470:69 0.000205531
75 *291:29 *2312:CLK 0
76 *291:29 *470:12 0.000386144
77 *291:29 *470:18 0.000138082
78 *291:29 *470:22 3.16171e-05
79 *291:29 *470:37 0
80 *291:29 *470:39 0
81 *291:29 *470:92 0.000192077
82 *291:29 *470:139 0.000192087
83 *291:63 *2345:CLK 3.7122e-06
84 *292:31 *470:54 5.50106e-05
85 *292:44 *470:54 0.000140103
86 *324:22 *470:125 0
*RES
1 *2371:X *470:6 31.7207 
2 *470:6 *470:10 20.3857 
3 *470:10 *470:12 6.48357 
4 *470:12 *470:18 6.54571 
5 *470:18 *470:22 18.3143 
6 *470:22 *2269:CLK 25.0714 
7 *470:22 *470:37 23.3271 
8 *470:37 *470:39 1.55357 
9 *470:39 *2312:CLK 40.2579 
10 *470:39 *470:54 38.5107 
11 *470:54 *2339:CLK 23 
12 *470:37 *470:69 32.4829 
13 *470:69 *2304:CLK 23 
14 *470:18 *2363:CLK 38 
15 *470:12 *2314:CLK 39.0979 
16 *470:10 *470:92 2.61 
17 *470:92 *470:96 22.7679 
18 *470:96 *2271:CLK 23 
19 *470:96 *470:115 40.2743 
20 *470:115 *470:125 40.005 
21 *470:125 *2306:CLK 23 
22 *470:115 *2305:CLK 23 
23 *470:92 *470:139 17.61 
24 *470:139 *2270:CLK 28.8829 
25 *470:139 *2345:CLK 23.6214 
26 *470:6 *2379:A 23.8493 
*END

*D_NET *471 0.0190659
*CONN
*I *2273:CLK I *D sky130_fd_sc_hd__dfrtp_1
*I *2351:CLK I *D sky130_fd_sc_hd__dfxtp_1
*I *2352:CLK I *D sky130_fd_sc_hd__dfxtp_1
*I *2349:CLK I *D sky130_fd_sc_hd__dfxtp_1
*I *2350:CLK I *D sky130_fd_sc_hd__dfxtp_1
*I *2277:CLK I *D sky130_fd_sc_hd__dfrtp_1
*I *2272:CLK I *D sky130_fd_sc_hd__dfrtp_1
*I *2344:CLK I *D sky130_fd_sc_hd__dfxtp_1
*I *2343:CLK I *D sky130_fd_sc_hd__dfxtp_1
*I *2303:CLK I *D sky130_fd_sc_hd__dfrtp_1
*I *2301:CLK I *D sky130_fd_sc_hd__dfrtp_1
*I *2346:CLK I *D sky130_fd_sc_hd__dfxtp_1
*I *2274:CLK I *D sky130_fd_sc_hd__dfrtp_1
*I *2348:CLK I *D sky130_fd_sc_hd__dfxtp_1
*I *2372:X O *D sky130_fd_sc_hd__clkbuf_16
*CAP
1 *2273:CLK 0
2 *2351:CLK 9.37145e-05
3 *2352:CLK 0.00018139
4 *2349:CLK 0.000712852
5 *2350:CLK 7.72871e-05
6 *2277:CLK 0
7 *2272:CLK 0
8 *2344:CLK 2.95294e-05
9 *2343:CLK 0
10 *2303:CLK 0
11 *2301:CLK 0
12 *2346:CLK 0.000396412
13 *2274:CLK 0
14 *2348:CLK 0.000305347
15 *2372:X 7.71254e-05
16 *471:136 0.000894241
17 *471:125 0.000643955
18 *471:123 0.00116654
19 *471:115 0.00103518
20 *471:108 0.00109899
21 *471:71 0.000490358
22 *471:63 0.00147319
23 *471:48 0.00151565
24 *471:46 0.000315769
25 *471:42 0.000421825
26 *471:36 0.000853686
27 *471:21 0.000640754
28 *471:19 0.000646191
29 *471:8 0.000458686
30 *2346:CLK *479:25 0
31 *2346:CLK *560:64 6.63698e-05
32 *2348:CLK *603:89 0.000568892
33 *2349:CLK *2198:B1 7.88828e-05
34 *2349:CLK *491:21 7.3309e-05
35 *2349:CLK *491:30 0.000115888
36 *2349:CLK *604:18 5.41288e-05
37 *2350:CLK *604:12 7.03766e-05
38 *2352:CLK *604:18 5.12254e-05
39 *471:8 *542:12 7.81176e-05
40 *471:19 *542:12 0.000114656
41 *471:36 *2181:A2 5.0135e-05
42 *471:36 *2183:B1 5.3304e-05
43 *471:36 *525:8 0
44 *471:36 *558:14 5.67058e-05
45 *471:42 *2181:A2 0.000357631
46 *471:42 *525:8 8.62783e-05
47 *471:46 *2413:A 0
48 *471:46 *560:64 6.34286e-05
49 *471:48 *2413:A 0
50 *471:48 *479:25 0
51 *471:48 *560:64 6.25948e-05
52 *471:63 *475:8 0.000242647
53 *471:71 *1963:A_N 0.000240435
54 *471:71 *550:10 5.41385e-05
55 *471:71 *552:10 0
56 *471:71 *553:10 0.000193388
57 *471:71 *618:12 7.32258e-05
58 *471:71 *622:14 0.000163047
59 *471:108 *2027:A 0.000180224
60 *471:108 *2027:B 2.93747e-05
61 *471:108 *2231:A 9.84851e-05
62 *471:108 *542:10 1.22803e-05
63 *471:108 *542:12 9.53705e-05
64 *471:108 *558:14 0
65 *471:123 *603:39 0
66 *471:125 *603:39 0
67 *471:125 *604:12 3.0647e-05
68 *471:125 *604:18 9.74235e-05
69 *471:125 *604:33 0.000138185
70 *2183:A2 *471:36 5.67058e-05
71 *2188:A *2346:CLK 9.58714e-05
72 *2205:A2 *2352:CLK 1.51216e-05
73 *2301:RESET_B *471:71 0.000130498
74 *2303:D *471:63 7.59794e-05
75 *2303:RESET_B *471:63 0.000124402
76 *2348:D *2348:CLK 4.5051e-05
77 *133:8 *471:71 0
78 *137:10 *471:71 5.08795e-05
79 *164:12 *2350:CLK 0
80 *164:12 *471:123 0
81 *164:12 *471:125 0
82 *168:12 *471:115 7.44257e-05
83 *175:10 *471:108 1.5769e-05
84 *178:10 *471:123 0
85 *249:8 *471:42 0
86 *249:8 *471:46 0
87 *250:10 *2344:CLK 5.50049e-05
88 *250:10 *471:36 2.88036e-05
89 *256:8 *2350:CLK 5.61311e-05
90 *256:8 *471:125 1.52362e-05
91 *258:12 *2352:CLK 2.72836e-05
92 *290:18 *471:8 0.000165593
93 *290:18 *471:19 0.00021382
94 *290:18 *471:36 0.000141954
95 *323:16 *471:42 0.000328338
96 *323:16 *471:108 4.5051e-05
97 *432:25 *2346:CLK 5.50106e-05
98 *438:59 *2352:CLK 4.56447e-05
99 *438:59 *471:125 2.38466e-05
100 *451:8 *471:123 0
101 *451:8 *471:125 0
*RES
1 *2372:X *471:8 40.2579 
2 *471:8 *2348:CLK 45.2914 
3 *471:8 *471:19 2.96214 
4 *471:19 *471:21 15 
5 *471:21 *2274:CLK 23 
6 *471:21 *471:36 41.9521 
7 *471:36 *471:42 21.9186 
8 *471:42 *471:46 3.58357 
9 *471:46 *471:48 2.96214 
10 *471:48 *2346:CLK 45.5193 
11 *471:48 *471:63 33.7257 
12 *471:63 *471:71 42.4286 
13 *471:71 *2301:CLK 23 
14 *471:63 *2303:CLK 23 
15 *471:46 *2343:CLK 38 
16 *471:42 *2344:CLK 38.6214 
17 *471:36 *2272:CLK 23 
18 *471:19 *471:108 26.2064 
19 *471:108 *2277:CLK 23 
20 *471:108 *471:115 9.67357 
21 *471:115 *471:123 24.715 
22 *471:123 *471:125 11.7657 
23 *471:125 *2350:CLK 40.2579 
24 *471:125 *471:136 15 
25 *471:136 *2349:CLK 35.5736 
26 *471:136 *2352:CLK 26.6457 
27 *471:123 *2351:CLK 39.5743 
28 *471:115 *2273:CLK 23 
*END

*D_NET *472 0.0187825
*CONN
*I *2279:CLK I *D sky130_fd_sc_hd__dfrtp_1
*I *2280:CLK I *D sky130_fd_sc_hd__dfrtp_1
*I *2380:A I *D sky130_fd_sc_hd__clkinvlp_4
*I *2338:CLK I *D sky130_fd_sc_hd__dfxtp_1
*I *2316:CLK I *D sky130_fd_sc_hd__dfxtp_1
*I *2333:CLK I *D sky130_fd_sc_hd__dfxtp_1
*I *2335:CLK I *D sky130_fd_sc_hd__dfxtp_1
*I *2340:CLK I *D sky130_fd_sc_hd__dfxtp_1
*I *2336:CLK I *D sky130_fd_sc_hd__dfxtp_1
*I *2341:CLK I *D sky130_fd_sc_hd__dfxtp_1
*I *2373:X O *D sky130_fd_sc_hd__clkbuf_16
*CAP
1 *2279:CLK 0.000110334
2 *2280:CLK 0
3 *2380:A 0
4 *2338:CLK 4.01156e-05
5 *2316:CLK 0.000268883
6 *2333:CLK 9.06929e-05
7 *2335:CLK 0.00025143
8 *2340:CLK 0.000107437
9 *2336:CLK 0
10 *2341:CLK 0.000315733
11 *2373:X 0
12 *472:120 0.000175348
13 *472:114 0.00141728
14 *472:61 0.000522822
15 *472:59 0.000658395
16 *472:55 0.00164605
17 *472:39 0.000771449
18 *472:14 0.00118303
19 *472:12 0.00167009
20 *472:10 0.000629974
21 *472:4 0.00169188
22 *2316:CLK *498:81 0
23 *2316:CLK *556:33 0
24 *2316:CLK *648:48 0.000111852
25 *2316:CLK *651:91 5.50049e-05
26 *2333:CLK *650:50 0.000221997
27 *2335:CLK *615:142 0.000196914
28 *2335:CLK *648:48 2.24608e-05
29 *2338:CLK *556:33 0
30 *2341:CLK *650:26 6.48142e-05
31 *472:14 *650:26 0.000130433
32 *472:39 *1932:A 1.24376e-05
33 *472:39 *613:85 0.00121739
34 *472:39 *650:18 0
35 *472:55 *1949:A 2.93845e-05
36 *472:55 *647:8 7.88828e-05
37 *472:59 *556:33 0.000210265
38 *472:61 *498:81 0
39 *472:61 *615:142 6.6006e-05
40 *472:61 *615:226 9.86551e-06
41 *472:61 *615:239 4.21344e-05
42 *472:61 *648:48 0.000295773
43 *472:114 *2003:A2 1.32939e-05
44 *472:114 *2004:A 2.93845e-05
45 *472:114 *480:70 0.00011048
46 *472:114 *613:113 8.4047e-05
47 *472:120 *620:66 0
48 *472:120 *620:84 0
49 *472:120 *621:199 0.00035793
50 *2004:B *472:114 6.64697e-05
51 *2045:A *472:14 0.000352958
52 *2045:A *472:55 4.95081e-05
53 *2045:B *472:55 3.40295e-05
54 *2279:D *2279:CLK 2.65879e-05
55 *2279:D *472:114 2.54193e-05
56 *2336:D *472:39 8.15899e-06
57 *2338:D *472:55 0.000155567
58 *2341:D *2341:CLK 5.73018e-05
59 *222:10 *2316:CLK 8.51329e-05
60 *247:8 *2341:CLK 1.14452e-05
61 *271:16 *2341:CLK 0.000231713
62 *271:16 *472:14 1.14452e-05
63 *271:53 *472:39 0.000776739
64 *273:34 *2333:CLK 7.56391e-05
65 *273:42 *472:55 4.65062e-05
66 *284:19 *472:14 0.000158474
67 *285:12 *472:55 0.000253865
68 *285:20 *472:55 6.75241e-05
69 *286:46 *2341:CLK 9.39339e-05
70 *288:14 *472:55 5.3304e-05
71 *288:25 *472:55 9.67842e-05
72 *295:101 *472:10 0.00033936
73 *295:101 *472:114 0.00033935
74 *316:8 *472:10 0
75 *316:8 *472:12 0
76 *316:78 *472:10 0
77 *414:10 *2341:CLK 4.75544e-05
78 *414:10 *472:12 3.83778e-05
79 *414:10 *472:14 2.24973e-05
80 *429:14 *472:55 2.93747e-05
81 *465:169 *2341:CLK 0.000126644
82 *465:169 *472:10 9.27917e-05
83 *465:169 *472:12 4.74809e-05
84 *465:169 *472:14 4.88346e-05
*RES
1 *2373:X *472:4 23 
2 *472:4 *472:10 24.425 
3 *472:10 *472:12 1.55357 
4 *472:12 *472:14 5.77929 
5 *472:14 *2341:CLK 45.395 
6 *472:14 *472:39 32.8557 
7 *472:39 *2336:CLK 23 
8 *472:39 *2340:CLK 25.0507 
9 *472:12 *472:55 34.6786 
10 *472:55 *472:59 18.0036 
11 *472:59 *472:61 4.01857 
12 *472:61 *2335:CLK 43.4271 
13 *472:61 *2333:CLK 40.5271 
14 *472:59 *2316:CLK 43.6964 
15 *472:55 *2338:CLK 23.8493 
16 *472:10 *2380:A 38 
17 *472:4 *472:114 46.7371 
18 *472:114 *472:120 34.7229 
19 *472:120 *2280:CLK 23 
20 *472:114 *2279:CLK 24.9471 
*END

*D_NET *473 0.0158487
*CONN
*I *2284:CLK I *D sky130_fd_sc_hd__dfrtp_1
*I *2283:CLK I *D sky130_fd_sc_hd__dfrtp_1
*I *2282:CLK I *D sky130_fd_sc_hd__dfrtp_1
*I *2281:CLK I *D sky130_fd_sc_hd__dfrtp_1
*I *2353:CLK I *D sky130_fd_sc_hd__dfxtp_2
*I *2354:CLK I *D sky130_fd_sc_hd__dfxtp_1
*I *2381:A I *D sky130_fd_sc_hd__clkbuf_8
*I *2355:CLK I *D sky130_fd_sc_hd__dfxtp_1
*I *2347:CLK I *D sky130_fd_sc_hd__dfxtp_2
*I *2278:CLK I *D sky130_fd_sc_hd__dfrtp_1
*I *2358:CLK I *D sky130_fd_sc_hd__dfxtp_1
*I *2357:CLK I *D sky130_fd_sc_hd__dfxtp_1
*I *2356:CLK I *D sky130_fd_sc_hd__dfxtp_1
*I *2374:X O *D sky130_fd_sc_hd__clkbuf_16
*CAP
1 *2284:CLK 0
2 *2283:CLK 0.000310088
3 *2282:CLK 4.24211e-05
4 *2281:CLK 0
5 *2353:CLK 0
6 *2354:CLK 0
7 *2381:A 0
8 *2355:CLK 0
9 *2347:CLK 0
10 *2278:CLK 8.68551e-05
11 *2358:CLK 0
12 *2357:CLK 0
13 *2356:CLK 2.34823e-05
14 *2374:X 0.000141729
15 *473:129 0.000501186
16 *473:123 0.000808157
17 *473:121 0.000574638
18 *473:119 0.000367787
19 *473:107 0.000114423
20 *473:67 0.000246678
21 *473:59 0.00081713
22 *473:48 0.00126402
23 *473:44 0.0011263
24 *473:38 0.000912467
25 *473:24 0.00125027
26 *473:16 0.00091465
27 *473:14 0.000484659
28 *473:10 0.00053054
29 *473:8 0.000141729
30 *2278:CLK *621:10 7.55491e-05
31 *2283:CLK *522:25 0
32 *2283:CLK *609:53 0
33 *2283:CLK *620:122 0
34 *2356:CLK *2214:A 0
35 *473:8 *605:59 0
36 *473:8 *613:135 0
37 *473:14 *480:10 7.63668e-05
38 *473:16 *480:10 1.79538e-05
39 *473:16 *485:22 0.000267178
40 *473:24 *2070:C 9.5877e-05
41 *473:24 *2178:B 6.74169e-05
42 *473:24 *480:10 3.22364e-05
43 *473:24 *480:16 6.53382e-05
44 *473:24 *482:23 0.000332492
45 *473:24 *482:30 5.3304e-05
46 *473:24 *482:43 5.3304e-05
47 *473:24 *485:22 0.000136738
48 *473:38 *489:8 0.000267167
49 *473:38 *603:16 0.000348067
50 *473:38 *603:31 0.000166573
51 *473:38 *604:130 1.28427e-05
52 *473:38 *621:34 0
53 *473:44 *489:8 4.66047e-05
54 *473:44 *489:14 0
55 *473:44 *620:188 0
56 *473:44 *621:10 1.83667e-05
57 *473:48 *2214:A 2.47815e-05
58 *473:48 *621:30 6.343e-05
59 *473:59 *2214:A 6.00878e-05
60 *473:59 *483:6 0.000107001
61 *473:67 *1931:A 0.000143655
62 *473:67 *2218:B1_N 6.53445e-05
63 *473:107 *481:10 0
64 *473:107 *481:12 0
65 *473:107 *605:59 0.000138718
66 *473:119 *480:10 0.000215083
67 *473:123 *609:53 0
68 *473:123 *620:122 0
69 *473:123 *621:199 0.000130424
70 *473:129 *620:100 0
71 *473:129 *620:122 0
72 *473:129 *621:199 0.000438165
73 *2214:B *473:48 0.000103637
74 *2281:RESET_B *473:129 3.76692e-06
75 *2284:D *473:119 0.000228903
76 *2347:D *473:38 1.64354e-05
77 *2353:D *473:119 1.64354e-05
78 *2355:D *473:24 5.92579e-05
79 *2356:D *473:59 8.90341e-05
80 *2384:A *473:107 4.21594e-06
81 *141:10 *473:129 8.1796e-05
82 *142:6 *473:129 0.000387304
83 *142:12 *473:129 0
84 *143:10 *2283:CLK 3.56537e-05
85 *144:8 *2283:CLK 0
86 *169:12 *2278:CLK 4.59027e-05
87 *169:12 *473:44 0.000141645
88 *253:10 *473:38 5.36457e-05
89 *259:10 *473:107 0
90 *263:14 *473:67 0.000160875
91 *291:95 *473:24 3.16665e-05
92 *356:10 *473:16 4.08664e-05
93 *356:10 *473:24 5.3304e-05
94 *436:10 *473:24 4.06849e-05
95 *436:49 *473:24 4.56951e-05
96 *438:25 *473:107 9.20311e-06
97 *444:10 *473:44 1.94693e-05
*RES
1 *2374:X *473:8 40.2579 
2 *473:8 *473:10 15 
3 *473:10 *473:14 3.50071 
4 *473:14 *473:16 3.95643 
5 *473:16 *473:24 15.5771 
6 *473:24 *473:38 43.2157 
7 *473:38 *473:44 22.2293 
8 *473:44 *473:48 27.0557 
9 *473:48 *2356:CLK 23.4971 
10 *473:48 *473:59 10.9993 
11 *473:59 *473:67 36.09 
12 *473:67 *2357:CLK 23 
13 *473:59 *2358:CLK 23 
14 *473:44 *2278:CLK 40.2579 
15 *473:38 *2347:CLK 23 
16 *473:24 *2355:CLK 23 
17 *473:16 *2381:A 23 
18 *473:14 *473:107 32.2579 
19 *473:107 *2354:CLK 23 
20 *473:10 *2353:CLK 23 
21 *473:10 *473:119 8.72071 
22 *473:119 *473:121 15 
23 *473:121 *473:123 5.42714 
24 *473:123 *473:129 28.5471 
25 *473:129 *2281:CLK 23 
26 *473:123 *2282:CLK 38.6214 
27 *473:121 *2283:CLK 43.7793 
28 *473:119 *2284:CLK 23 
*END

*D_NET *474 0.00123486
*CONN
*I *2425:A I *D sky130_fd_sc_hd__dlygate4sd3_1
*I *2302:Q O *D sky130_fd_sc_hd__dfrtp_1
*CAP
1 *2425:A 0.000110765
2 *2302:Q 0.000397476
3 *474:10 0.000508242
4 *474:10 *617:20 2.47321e-05
5 *474:10 *617:31 7.53384e-06
6 *2302:RESET_B *474:10 0.000102389
7 *59:21 *2425:A 8.37178e-05
8 *291:33 *474:10 0
9 *467:108 *474:10 0
10 *467:139 *474:10 0
*RES
1 *2302:Q *474:10 44.2971 
2 *474:10 *2425:A 40.5271 
*END

*D_NET *475 0.00499472
*CONN
*I *1954:B1_N I *D sky130_fd_sc_hd__o21ba_1
*I *2303:Q O *D sky130_fd_sc_hd__dfrtp_1
*CAP
1 *1954:B1_N 0
2 *2303:Q 0.000338061
3 *475:12 0.00127409
4 *475:8 0.00161215
5 *475:12 *2034:A 0
6 *475:12 *486:25 0.00030233
7 *475:12 *487:25 0
8 *475:12 *556:58 0.000214666
9 *475:12 *560:64 0
10 *475:12 *604:58 0.000195848
11 *475:12 *628:10 7.23822e-05
12 *475:12 *633:10 4.21594e-06
13 *475:12 *636:23 0
14 *475:12 *638:8 0
15 *149:10 *475:12 0
16 *220:10 *475:12 0.000183898
17 *251:10 *475:12 0.000110913
18 *269:10 *475:12 0.000351617
19 *291:29 *475:12 0
20 *470:37 *475:12 9.1906e-05
21 *471:63 *475:8 0.000242647
*RES
1 *2303:Q *475:8 42.9093 
2 *475:8 *475:12 45.4293 
3 *475:12 *1954:B1_N 23 
*END

*D_NET *476 0.000243848
*CONN
*I *2403:A I *D sky130_fd_sc_hd__dlygate4sd3_1
*I *2304:Q O *D sky130_fd_sc_hd__dfrtp_1
*CAP
1 *2403:A 5.0112e-05
2 *2304:Q 5.0112e-05
3 *2304:RESET_B *2403:A 5.41288e-05
4 *273:18 *2403:A 7.72976e-05
5 *470:69 *2403:A 1.21972e-05
*RES
1 *2304:Q *2403:A 47.5743 
*END

*D_NET *477 0.000615992
*CONN
*I *2428:A I *D sky130_fd_sc_hd__dlygate4sd3_1
*I *2305:Q O *D sky130_fd_sc_hd__dfrtp_1
*CAP
1 *2428:A 0.000147733
2 *2305:Q 9.6485e-05
3 *477:8 0.000244218
4 *160:6 *2428:A 4.40271e-05
5 *470:10 *2428:A 4.67488e-05
6 *470:12 *477:8 3.67805e-05
*RES
1 *2305:Q *477:8 39.9057 
2 *477:8 *2428:A 40.5271 
*END

*D_NET *478 0.000323192
*CONN
*I *2430:A I *D sky130_fd_sc_hd__dlygate4sd3_1
*I *2306:Q O *D sky130_fd_sc_hd__dfrtp_1
*CAP
1 *2430:A 0.000161596
2 *2306:Q 0.000161596
*RES
1 *2306:Q *2430:A 49.0036 
*END

*D_NET *479 0.0093401
*CONN
*I *2413:A I *D sky130_fd_sc_hd__dlygate4sd3_1
*I *2173:C I *D sky130_fd_sc_hd__and3_1
*I *2174:D I *D sky130_fd_sc_hd__and4_1
*I *1966:A I *D sky130_fd_sc_hd__and3_1
*I *2184:A2 I *D sky130_fd_sc_hd__a21oi_1
*I *2182:B I *D sky130_fd_sc_hd__xnor2_1
*I *2343:Q O *D sky130_fd_sc_hd__dfxtp_1
*CAP
1 *2413:A 0.000153335
2 *2173:C 0.000151157
3 *2174:D 0
4 *1966:A 0
5 *2184:A2 0.000387534
6 *2182:B 0
7 *2343:Q 0.000174094
8 *479:53 0.000182875
9 *479:44 0.000555118
10 *479:40 0.000795927
11 *479:25 0.000919163
12 *479:21 0.00111291
13 *479:12 0.00028224
14 *479:6 0.00109338
15 *2173:C *2174:C 0.00014196
16 *2173:C *487:25 1.21033e-05
17 *2173:C *487:32 7.0478e-05
18 *2173:C *488:73 5.50106e-05
19 *2184:A2 *487:25 6.83591e-06
20 *2184:A2 *488:73 2.64616e-05
21 *2184:A2 *604:58 0.000145026
22 *2413:A *603:83 5.09173e-05
23 *2413:A *603:96 5.90103e-05
24 *479:12 *2182:A 0.000138727
25 *479:12 *486:25 0.000177822
26 *479:25 *486:49 1.78655e-05
27 *479:25 *488:73 6.25829e-05
28 *479:25 *560:64 0
29 *479:25 *603:70 4.18957e-05
30 *479:25 *603:83 0.000267106
31 *479:40 *488:63 0.000112468
32 *479:40 *488:73 6.17437e-06
33 *479:40 *603:70 2.91142e-05
34 *479:44 *2186:A1 6.68793e-05
35 *479:44 *487:40 0
36 *479:44 *603:70 2.96051e-05
37 *479:53 *603:53 9.67842e-05
38 *2187:B *2184:A2 5.12254e-05
39 *2343:D *479:21 0.000102477
40 *2346:CLK *479:25 0
41 *2371:A *479:44 0
42 *163:18 *479:40 0.000188926
43 *163:18 *479:44 0.000148691
44 *249:8 *479:12 0
45 *291:63 *2173:C 0.00022677
46 *291:63 *479:53 4.5051e-05
47 *299:12 *479:44 0.000832068
48 *432:10 *479:40 0.000111852
49 *440:10 *2184:A2 9.41704e-05
50 *442:8 *479:25 0.000116314
51 *465:64 *479:44 0
52 *471:46 *2413:A 0
53 *471:48 *2413:A 0
54 *471:48 *479:25 0
*RES
1 *2343:Q *479:6 25.0507 
2 *479:6 *479:12 36.8357 
3 *479:12 *2182:B 23 
4 *479:6 *479:21 23.2443 
5 *479:21 *479:25 23.2443 
6 *479:25 *2184:A2 30.1879 
7 *479:25 *479:40 19.6607 
8 *479:40 *479:44 28.5264 
9 *479:44 *1966:A 23 
10 *479:40 *479:53 16.0979 
11 *479:53 *2174:D 23 
12 *479:53 *2173:C 28.3443 
13 *479:21 *2413:A 41.6664 
*END

*D_NET *480 0.0113712
*CONN
*I *2177:A I *D sky130_fd_sc_hd__nand2_1
*I *2206:A I *D sky130_fd_sc_hd__or2_1
*I *2079:B1 I *D sky130_fd_sc_hd__a41o_1
*I *2075:A1 I *D sky130_fd_sc_hd__a31o_1
*I *2087:A1 I *D sky130_fd_sc_hd__o31a_1
*I *2003:A1 I *D sky130_fd_sc_hd__a22o_1
*I *2178:C I *D sky130_fd_sc_hd__and4_1
*I *2211:A2 I *D sky130_fd_sc_hd__a31oi_1
*I *2353:Q O *D sky130_fd_sc_hd__dfxtp_2
*CAP
1 *2177:A 0
2 *2206:A 0
3 *2079:B1 0
4 *2075:A1 3.33024e-05
5 *2087:A1 0
6 *2003:A1 0
7 *2178:C 0
8 *2211:A2 0.000344339
9 *2353:Q 0.00118025
10 *480:70 0.000613679
11 *480:58 0.000763127
12 *480:54 0.000355048
13 *480:48 0.000325657
14 *480:44 0.000302712
15 *480:38 0.000277981
16 *480:16 0.000523158
17 *480:10 0.0014877
18 *2075:A1 *609:29 1.5769e-05
19 *480:10 *2070:B 5.50106e-05
20 *480:10 *2070:C 4.2573e-05
21 *480:10 *485:22 0.000148529
22 *480:16 *2070:C 5.3304e-05
23 *480:38 *482:43 0.000159008
24 *480:38 *483:23 3.47781e-05
25 *480:38 *483:33 0.000196832
26 *480:38 *489:75 3.3746e-05
27 *480:44 *2208:B1 2.98648e-05
28 *480:44 *482:43 0.000221184
29 *480:44 *483:33 0.000273623
30 *480:44 *489:75 2.35393e-05
31 *480:44 *603:16 0.000182826
32 *480:48 *489:75 0.000194335
33 *480:54 *2072:B 0
34 *480:54 *489:75 3.20914e-05
35 *480:54 *489:79 6.93449e-05
36 *480:54 *609:29 5.62429e-05
37 *480:58 *2005:A1 0
38 *480:70 *2003:A2 6.10963e-05
39 *480:70 *2005:A1 0
40 *480:70 *2005:B2 0
41 *480:70 *554:123 0
42 *480:70 *613:113 0
43 *2003:B2 *480:70 0.000397954
44 *2075:A3 *2075:A1 8.34394e-05
45 *2075:A3 *480:54 0.000185428
46 *2080:A1 *480:54 5.67058e-05
47 *2080:B1 *2075:A1 5.3304e-05
48 *2080:B1 *480:54 9.84794e-05
49 *2087:A2 *480:58 0.000164291
50 *2177:B *2211:A2 5.50106e-05
51 *2178:D *2211:A2 8.27285e-05
52 *2206:B *480:44 9.67842e-05
53 *2212:A2 *2211:A2 7.43025e-06
54 *2212:B1 *2211:A2 2.93845e-05
55 *2284:D *480:10 5.41385e-05
56 *286:93 *480:70 2.45255e-06
57 *316:16 *480:70 5.3304e-05
58 *316:24 *480:70 3.47781e-05
59 *319:76 *480:70 4.5051e-05
60 *358:12 *480:58 6.7177e-06
61 *360:29 *480:54 0.000141052
62 *366:16 *480:58 0
63 *366:16 *480:70 0
64 *434:47 *2211:A2 1.03836e-05
65 *436:49 *2211:A2 8.27285e-05
66 *436:49 *480:16 0.000167387
67 *458:10 *2211:A2 0.000228001
68 *465:189 *480:48 0.000404038
69 *465:189 *480:54 0.000222113
70 *472:114 *480:70 0.00011048
71 *473:14 *480:10 7.63668e-05
72 *473:16 *480:10 1.79538e-05
73 *473:24 *480:10 3.22364e-05
74 *473:24 *480:16 6.53382e-05
75 *473:119 *480:10 0.000215083
*RES
1 *2353:Q *480:10 40.4621 
2 *480:10 *480:16 18.6043 
3 *480:16 *2211:A2 43.6343 
4 *480:16 *2178:C 38 
5 *480:10 *480:38 18.3143 
6 *480:38 *480:44 20.7171 
7 *480:44 *480:48 20.4271 
8 *480:48 *480:54 21.4421 
9 *480:54 *480:58 17.9621 
10 *480:58 *480:70 28.7336 
11 *480:70 *2003:A1 23 
12 *480:58 *2087:A1 38 
13 *480:54 *2075:A1 24.0979 
14 *480:48 *2079:B1 38 
15 *480:44 *2206:A 23 
16 *480:38 *2177:A 38 
*END

*D_NET *481 0.00834135
*CONN
*I *2178:B I *D sky130_fd_sc_hd__and4_1
*I *2211:A1 I *D sky130_fd_sc_hd__a31oi_1
*I *2209:A I *D sky130_fd_sc_hd__xor2_1
*I *2071:A I *D sky130_fd_sc_hd__or2_1
*I *2005:A1 I *D sky130_fd_sc_hd__a22o_1
*I *2354:Q O *D sky130_fd_sc_hd__dfxtp_1
*CAP
1 *2178:B 0.000292173
2 *2211:A1 0.000579053
3 *2209:A 1.10869e-05
4 *2071:A 0.000100182
5 *2005:A1 0.00053377
6 *2354:Q 0.000358745
7 *481:61 0.000871225
8 *481:52 0.000553047
9 *481:12 0.00109215
10 *481:10 0.0013589
11 *2005:A1 *2005:B2 5.67058e-05
12 *2005:A1 *613:124 1.5769e-05
13 *2005:A1 *613:135 0
14 *2178:B *482:23 9.67842e-05
15 *2178:B *482:30 4.08664e-05
16 *2178:B *482:43 4.08664e-05
17 *2178:B *489:75 0.00012608
18 *2211:A1 *489:75 8.9458e-05
19 *2211:A1 *605:14 1.37232e-05
20 *481:12 *613:135 0
21 *2177:B *2211:A1 2.65879e-05
22 *2210:A2 *481:52 0.000152188
23 *2212:A2 *2211:A1 0.000244672
24 *2354:D *481:52 0.000160765
25 *2384:A *481:12 0
26 *141:10 *2071:A 0.000533224
27 *142:6 *2071:A 0.000213682
28 *259:10 *481:10 3.0647e-05
29 *259:10 *481:12 8.26569e-05
30 *295:101 *2005:A1 6.89706e-05
31 *357:10 *2005:A1 0
32 *358:12 *2005:A1 0
33 *361:18 *2005:A1 0.000160682
34 *434:47 *2211:A1 5.38807e-05
35 *435:10 *2209:A 1.5547e-05
36 *435:10 *2211:A1 6.28849e-05
37 *435:10 *481:52 4.08664e-05
38 *435:24 *2178:B 0.000135304
39 *435:24 *2211:A1 3.47781e-05
40 *465:189 *2211:A1 2.60152e-05
41 *473:24 *2178:B 6.74169e-05
42 *473:107 *481:10 0
43 *473:107 *481:12 0
44 *480:58 *2005:A1 0
45 *480:70 *2005:A1 0
*RES
1 *2354:Q *481:10 42.8057 
2 *481:10 *481:12 8.94857 
3 *481:12 *2005:A1 47.9429 
4 *481:12 *2071:A 43.8621 
5 *481:10 *481:52 26.2893 
6 *481:52 *2209:A 23.1812 
7 *481:52 *481:61 15 
8 *481:61 *2211:A1 47.3421 
9 *481:61 *2178:B 42.9093 
*END

*D_NET *482 0.00267205
*CONN
*I *2422:A I *D sky130_fd_sc_hd__dlygate4sd3_1
*I *2070:D I *D sky130_fd_sc_hd__or4_1
*I *2178:A I *D sky130_fd_sc_hd__and4_1
*I *2211:B1 I *D sky130_fd_sc_hd__a31oi_1
*I *2355:Q O *D sky130_fd_sc_hd__dfxtp_1
*CAP
1 *2422:A 0
2 *2070:D 0
3 *2178:A 0
4 *2211:B1 0
5 *2355:Q 0
6 *482:43 0.000201586
7 *482:30 0.000222142
8 *482:23 0.000236151
9 *482:12 0.000151582
10 *482:4 0.000367178
11 *482:12 *605:25 0
12 *482:43 *489:75 0.000365595
13 *2178:B *482:23 9.67842e-05
14 *2178:B *482:30 4.08664e-05
15 *2178:B *482:43 4.08664e-05
16 *2178:D *482:12 0
17 *2212:B1 *482:12 1.79662e-05
18 *434:47 *482:12 5.70367e-05
19 *458:10 *482:12 5.50049e-05
20 *473:24 *482:23 0.000332492
21 *473:24 *482:30 5.3304e-05
22 *473:24 *482:43 5.3304e-05
23 *480:38 *482:43 0.000159008
24 *480:44 *482:43 0.000221184
*RES
1 *2355:Q *482:4 23 
2 *482:4 *482:12 32.5271 
3 *482:12 *2211:B1 23 
4 *482:4 *482:23 4.59857 
5 *482:23 *2178:A 23 
6 *482:23 *482:30 0.621429 
7 *482:30 *2070:D 23 
8 *482:30 *482:43 35.6964 
9 *482:43 *2422:A 23 
*END

*D_NET *483 0.00749421
*CONN
*I *2179:B I *D sky130_fd_sc_hd__and3_1
*I *2216:A1 I *D sky130_fd_sc_hd__a21oi_1
*I *2070:C I *D sky130_fd_sc_hd__or4_1
*I *2008:A1 I *D sky130_fd_sc_hd__o221a_1
*I *2214:A I *D sky130_fd_sc_hd__xnor2_1
*I *2356:Q O *D sky130_fd_sc_hd__dfxtp_1
*CAP
1 *2179:B 0.000215915
2 *2216:A1 6.93947e-05
3 *2070:C 3.28208e-05
4 *2008:A1 0
5 *2214:A 0.000496003
6 *2356:Q 0.000247911
7 *483:33 0.00065722
8 *483:23 0.00114987
9 *483:21 0.000643596
10 *483:19 0.000410663
11 *483:6 0.00082429
12 *2216:A1 *605:49 9.84851e-05
13 *483:23 *489:75 0.000227851
14 *483:33 *2079:A1 2.98648e-05
15 *483:33 *489:75 0.000109512
16 *483:33 *534:10 0.000104515
17 *2007:B2 *483:33 1.92034e-05
18 *2008:B2 *483:33 5.46392e-06
19 *2179:C *2179:B 5.29672e-05
20 *2206:B *483:33 0
21 *2214:B *2214:A 9.91701e-05
22 *2214:B *483:21 0
23 *2217:B1 *2179:B 0.000143655
24 *2356:CLK *2214:A 0
25 *2356:D *2214:A 3.32987e-05
26 *141:10 *483:33 5.67058e-05
27 *142:6 *483:33 0.000441065
28 *262:8 *483:19 0
29 *262:8 *483:21 0
30 *280:100 *483:33 0.000274078
31 *359:18 *483:33 2.18506e-05
32 *434:60 *483:33 0
33 *436:10 *483:23 0
34 *436:14 *2179:B 1.94812e-05
35 *436:49 *483:23 2.3529e-05
36 *436:49 *483:33 9.69751e-05
37 *438:14 *483:23 0
38 *473:24 *2070:C 9.5877e-05
39 *473:48 *2214:A 2.47815e-05
40 *473:59 *2214:A 6.00878e-05
41 *473:59 *483:6 0.000107001
42 *480:10 *2070:C 4.2573e-05
43 *480:16 *2070:C 5.3304e-05
44 *480:38 *483:23 3.47781e-05
45 *480:38 *483:33 0.000196832
46 *480:44 *483:33 0.000273623
*RES
1 *2356:Q *483:6 26.9564 
2 *483:6 *2214:A 30.54 
3 *483:6 *483:19 16.2014 
4 *483:19 *483:21 1.90571 
5 *483:21 *483:23 10.3571 
6 *483:23 *483:33 33.0111 
7 *483:33 *2008:A1 23 
8 *483:23 *2070:C 39.0979 
9 *483:21 *2216:A1 39.0979 
10 *483:19 *2179:B 41.48 
*END

*D_NET *484 0.00460711
*CONN
*I *2410:A I *D sky130_fd_sc_hd__dlygate4sd3_1
*I *2179:A I *D sky130_fd_sc_hd__and3_1
*I *2070:B I *D sky130_fd_sc_hd__or4_1
*I *2357:Q O *D sky130_fd_sc_hd__dfxtp_1
*CAP
1 *2410:A 0.000160642
2 *2179:A 0.000126956
3 *2070:B 0.000323798
4 *2357:Q 0.000103366
5 *484:14 0.00106463
6 *484:10 0.000774515
7 *484:8 0.000103366
8 *2070:B *489:75 0.000191557
9 *2179:A *489:75 3.36638e-05
10 *2179:A *522:14 0.000110922
11 *2179:A *605:59 0
12 *2410:A *522:6 3.7122e-06
13 *484:8 *485:42 3.62323e-05
14 *484:8 *522:25 9.03784e-05
15 *484:14 *485:14 0.0001164
16 *484:14 *485:42 0.000119313
17 *484:14 *522:6 1.21972e-05
18 *484:14 *522:14 2.25809e-05
19 *435:24 *2070:B 0.000188916
20 *437:18 *484:14 5.67058e-05
21 *437:31 *484:14 0.000434745
22 *438:14 *484:14 0.000314157
23 *438:23 *2070:B 0
24 *465:189 *2070:B 0.000163352
25 *480:10 *2070:B 5.50106e-05
*RES
1 *2357:Q *484:8 40.2579 
2 *484:8 *484:10 15 
3 *484:10 *484:14 29.9143 
4 *484:14 *2070:B 46.1614 
5 *484:14 *2179:A 40.61 
6 *484:10 *2410:A 26.0036 
*END

*D_NET *485 0.00676872
*CONN
*I *2411:A I *D sky130_fd_sc_hd__dlygate4sd3_1
*I *2426:A I *D sky130_fd_sc_hd__dlygate4sd3_1
*I *2180:A I *D sky130_fd_sc_hd__nand2_2
*I *2070:A I *D sky130_fd_sc_hd__or4_1
*I *2358:Q O *D sky130_fd_sc_hd__dfxtp_1
*CAP
1 *2411:A 0.000247457
2 *2426:A 0
3 *2180:A 0
4 *2070:A 0
5 *2358:Q 0
6 *485:42 0.000404532
7 *485:22 0.000350233
8 *485:14 0.000510457
9 *485:10 0.000724388
10 *485:4 0.000407088
11 *485:10 *523:8 0.000169683
12 *485:10 *537:16 6.6869e-05
13 *485:14 *522:14 0.000699309
14 *485:22 *605:59 0.00067886
15 *485:42 *522:14 0.000224605
16 *485:42 *522:25 3.47781e-05
17 *485:42 *523:8 0
18 *485:42 *537:6 3.22879e-05
19 *485:42 *537:16 9.40245e-05
20 *485:42 *537:31 1.83564e-05
21 *437:18 *485:14 5.50106e-05
22 *437:31 *485:10 0.0001035
23 *437:31 *485:14 0.000446275
24 *438:23 *485:22 0.000676619
25 *473:16 *485:22 0.000267178
26 *473:24 *485:22 0.000136738
27 *480:10 *485:22 0.000148529
28 *484:8 *485:42 3.62323e-05
29 *484:14 *485:14 0.0001164
30 *484:14 *485:42 0.000119313
*RES
1 *2358:Q *485:4 23 
2 *485:4 *485:10 34.3707 
3 *485:10 *485:14 8.265 
4 *485:14 *485:22 43.3814 
5 *485:22 *2070:A 23 
6 *485:14 *2180:A 23 
7 *485:10 *485:42 39.57 
8 *485:42 *2426:A 23 
9 *485:4 *2411:A 27.3293 
*END

*D_NET *486 0.00671035
*CONN
*I *2174:C I *D sky130_fd_sc_hd__and4_1
*I *1971:A I *D sky130_fd_sc_hd__and3_1
*I *2173:B I *D sky130_fd_sc_hd__and3_1
*I *2184:A1 I *D sky130_fd_sc_hd__a21oi_1
*I *2182:A I *D sky130_fd_sc_hd__xnor2_1
*I *2344:Q O *D sky130_fd_sc_hd__dfxtp_1
*CAP
1 *2174:C 4.84246e-05
2 *1971:A 0.0005424
3 *2173:B 0
4 *2184:A1 0
5 *2182:A 8.46553e-05
6 *2344:Q 0.000276108
7 *486:49 0.000871714
8 *486:38 0.000119531
9 *486:32 0.000588029
10 *486:25 0.000795563
11 *486:8 0.000968718
12 *1971:A *1971:C 6.25657e-05
13 *1971:A *1973:B1 0.000223441
14 *1971:A *2186:A1 9.91798e-05
15 *1971:A *487:40 3.83778e-05
16 *1971:A *603:70 0
17 *2174:C *487:32 5.12254e-05
18 *486:8 *560:76 2.77929e-05
19 *486:25 *560:64 0
20 *486:25 *604:58 0.000143655
21 *486:32 *604:58 0.000256544
22 *486:38 *560:64 4.06408e-05
23 *486:49 *488:73 0.000188926
24 *486:49 *604:58 0.000171296
25 *2173:C *2174:C 0.00014196
26 *2185:A *1971:A 6.6869e-05
27 *2185:A *486:38 6.07611e-06
28 *2185:A *486:49 3.72639e-05
29 *2187:B *486:38 7.80354e-05
30 *2187:B *486:49 8.16356e-05
31 *249:8 *2182:A 0
32 *249:8 *486:25 0
33 *439:8 *2182:A 0
34 *439:8 *486:25 1.44546e-05
35 *440:10 *486:38 3.83778e-05
36 *442:8 *486:49 1.01436e-05
37 *475:12 *486:25 0.00030233
38 *479:12 *2182:A 0.000138727
39 *479:12 *486:25 0.000177822
40 *479:25 *486:49 1.78655e-05
*RES
1 *2344:Q *486:8 41.48 
2 *486:8 *2182:A 39.9057 
3 *486:8 *486:25 28.6093 
4 *486:25 *2184:A1 23 
5 *486:25 *486:32 3.00357 
6 *486:32 *486:38 32.9621 
7 *486:38 *2173:B 23 
8 *486:32 *486:49 21.0693 
9 *486:49 *1971:A 46.7414 
10 *486:49 *2174:C 39.5743 
*END

*D_NET *487 0.00384971
*CONN
*I *2174:B I *D sky130_fd_sc_hd__and4_1
*I *1974:A I *D sky130_fd_sc_hd__and3_1
*I *2184:B1 I *D sky130_fd_sc_hd__a21oi_1
*I *2173:A I *D sky130_fd_sc_hd__and3_1
*I *2345:Q O *D sky130_fd_sc_hd__dfxtp_1
*CAP
1 *2174:B 0
2 *1974:A 0
3 *2184:B1 0
4 *2173:A 0
5 *2345:Q 4.63305e-05
6 *487:40 0.000783073
7 *487:32 0.00105982
8 *487:25 0.000222951
9 *487:8 0.000246433
10 *487:6 0.000346558
11 *487:25 *560:64 0.000241355
12 *487:25 *604:58 1.37702e-05
13 *487:40 *1974:B 2.20111e-05
14 *487:40 *1974:C 0.000340871
15 *487:40 *1976:B1 5.50106e-05
16 *487:40 *2186:A1 6.4393e-05
17 *487:40 *560:64 0
18 *1971:A *487:40 3.83778e-05
19 *1976:A1 *487:40 3.22879e-05
20 *2173:C *487:25 1.21033e-05
21 *2173:C *487:32 7.0478e-05
22 *2174:C *487:32 5.12254e-05
23 *2184:A2 *487:25 6.83591e-06
24 *2371:A *487:40 1.01436e-05
25 *149:18 *487:25 6.17437e-06
26 *160:6 *487:40 6.40973e-05
27 *291:63 *487:25 2.81066e-05
28 *291:63 *487:32 1.842e-05
29 *440:10 *487:40 0
30 *470:6 *487:40 6.88885e-05
31 *475:12 *487:25 0
32 *479:44 *487:40 0
*RES
1 *2345:Q *487:6 23.6214 
2 *487:6 *487:8 0.497143 
3 *487:8 *2173:A 23 
4 *487:8 *487:25 35.0698 
5 *487:25 *2184:B1 23 
6 *487:6 *487:32 3.95643 
7 *487:32 *487:40 45.1007 
8 *487:40 *1974:A 23 
9 *487:32 *2174:B 23 
*END

*D_NET *488 0.0148271
*CONN
*I *2187:A I *D sky130_fd_sc_hd__nor2_1
*I *2174:A I *D sky130_fd_sc_hd__and4_1
*I *2086:A2 I *D sky130_fd_sc_hd__o211a_1
*I *2079:A3 I *D sky130_fd_sc_hd__a41o_1
*I *1977:A I *D sky130_fd_sc_hd__and3_1
*I *2346:Q O *D sky130_fd_sc_hd__dfxtp_1
*CAP
1 *2187:A 0
2 *2174:A 0
3 *2086:A2 0
4 *2079:A3 0
5 *1977:A 0
6 *2346:Q 0.000159483
7 *488:73 0.000144495
8 *488:63 0.000467773
9 *488:45 0.000170958
10 *488:37 0.00246066
11 *488:16 0.00304775
12 *488:10 0.00124081
13 *488:16 *1971:C 0
14 *488:16 *1973:B1 0
15 *488:16 *542:22 1.39431e-05
16 *488:16 *542:24 2.45549e-06
17 *488:16 *608:10 0
18 *488:37 *1943:A 5.50106e-05
19 *488:37 *1968:A 1.22822e-05
20 *488:37 *1968:B 6.07175e-05
21 *488:37 *493:52 9.84851e-05
22 *488:37 *542:22 5.86556e-05
23 *488:37 *542:61 7.15126e-05
24 *488:37 *542:82 2.82066e-05
25 *488:37 *560:10 1.22822e-05
26 *488:45 *2072:B 1.14452e-05
27 *488:45 *2079:A1 5.50106e-05
28 *488:45 *489:79 3.46241e-05
29 *488:63 *2189:A1 9.8355e-05
30 *488:63 *604:35 0.000274012
31 *488:63 *604:44 1.03836e-05
32 *488:63 *604:58 8.64461e-05
33 *488:73 *603:70 3.71198e-05
34 *488:73 *604:58 5.3304e-05
35 *1979:A1 *488:37 0
36 *2173:C *488:73 5.50106e-05
37 *2184:A2 *488:73 2.64616e-05
38 *2389:A *488:16 0
39 *280:6 *488:37 0.000185428
40 *280:25 *488:37 0.000341684
41 *281:10 *488:37 1.57571e-05
42 *286:22 *488:37 0.000528927
43 *290:18 *488:10 0.000164291
44 *290:18 *488:16 0.00121297
45 *291:63 *488:73 5.3304e-05
46 *291:89 *488:16 0
47 *291:89 *488:63 0.000150242
48 *296:6 *488:37 8.99384e-05
49 *296:15 *488:37 0.000408609
50 *296:40 *488:37 0.000341684
51 *301:12 *488:16 0
52 *305:10 *488:37 0.000356724
53 *359:18 *488:45 2.95366e-05
54 *360:16 *488:37 0.00164011
55 *360:29 *488:37 6.36678e-05
56 *432:25 *488:10 2.64616e-05
57 *479:25 *488:73 6.25829e-05
58 *479:40 *488:63 0.000112468
59 *479:40 *488:73 6.17437e-06
60 *486:49 *488:73 0.000188926
*RES
1 *2346:Q *488:10 40.8793 
2 *488:10 *488:16 31.965 
3 *488:16 *1977:A 23 
4 *488:16 *488:37 48.4093 
5 *488:37 *488:45 32.5271 
6 *488:45 *2079:A3 23 
7 *488:37 *2086:A2 23 
8 *488:10 *488:63 24.3629 
9 *488:63 *488:73 33.8529 
10 *488:73 *2174:A 23 
11 *488:63 *2187:A 23 
*END

*D_NET *489 0.0181642
*CONN
*I *2079:A2 I *D sky130_fd_sc_hd__a41o_1
*I *2086:A1 I *D sky130_fd_sc_hd__o211a_1
*I *2072:B I *D sky130_fd_sc_hd__or2_1
*I *2190:A I *D sky130_fd_sc_hd__xnor2_1
*I *2176:B I *D sky130_fd_sc_hd__and4_1
*I *2175:B I *D sky130_fd_sc_hd__and3_1
*I *1980:A I *D sky130_fd_sc_hd__or2_1
*I *2192:A1 I *D sky130_fd_sc_hd__a21oi_1
*I *2347:Q O *D sky130_fd_sc_hd__dfxtp_2
*CAP
1 *2079:A2 0
2 *2086:A1 0
3 *2072:B 0.000249377
4 *2190:A 0
5 *2176:B 0
6 *2175:B 0.000263964
7 *1980:A 0
8 *2192:A1 0.000145942
9 *2347:Q 0
10 *489:79 0.000412667
11 *489:75 0.00159793
12 *489:59 0.000448162
13 *489:29 0.000647312
14 *489:25 0.000911276
15 *489:16 0.00105896
16 *489:14 0.00151407
17 *489:8 0.00094392
18 *489:4 0.00222568
19 *2072:B *2072:A 5.50049e-05
20 *2175:B *490:16 2.93747e-05
21 *2175:B *490:22 5.70419e-05
22 *2175:B *490:51 6.29685e-05
23 *489:14 *493:8 5.26308e-05
24 *489:14 *560:100 0
25 *489:29 *2197:B 0.000228051
26 *489:29 *491:32 0.000503803
27 *489:29 *491:48 0.000372152
28 *489:29 *492:14 0
29 *489:29 *603:39 0
30 *489:59 *490:51 4.79612e-05
31 *489:59 *490:55 0.00051152
32 *489:75 *522:14 1.01436e-05
33 *489:75 *534:10 0
34 *2070:B *489:75 0.000191557
35 *2176:D *489:14 3.47781e-05
36 *2176:D *489:59 0
37 *2178:B *489:75 0.00012608
38 *2179:A *489:75 3.36638e-05
39 *2190:B *489:14 0.000239775
40 *2192:A2 *2175:B 1.14154e-05
41 *2201:B *2175:B 0.000102573
42 *2201:B *489:29 0.000320651
43 *2211:A1 *489:75 8.9458e-05
44 *168:12 *489:29 0.000101075
45 *169:12 *489:14 0
46 *281:27 *489:29 3.3746e-05
47 *291:95 *489:29 3.3746e-05
48 *313:10 *489:29 0.000141879
49 *359:18 *489:75 0
50 *372:8 *2072:B 3.81391e-05
51 *432:36 *2175:B 6.6411e-05
52 *432:36 *2192:A1 5.50049e-05
53 *432:47 *2175:B 0.000117722
54 *432:47 *2192:A1 0.000125213
55 *432:47 *489:16 0.00134192
56 *432:47 *489:59 5.3304e-05
57 *435:24 *489:75 0.000293719
58 *438:14 *489:75 0.000244801
59 *444:10 *489:8 5.14746e-06
60 *445:10 *2175:B 2.93845e-05
61 *448:8 *489:29 8.62876e-05
62 *448:18 *489:29 0.000429621
63 *465:189 *2072:B 0
64 *465:189 *489:75 5.13205e-05
65 *473:38 *489:8 0.000267167
66 *473:44 *489:8 4.66047e-05
67 *473:44 *489:14 0
68 *480:38 *489:75 3.3746e-05
69 *480:44 *489:75 2.35393e-05
70 *480:48 *489:75 0.000194335
71 *480:54 *2072:B 0
72 *480:54 *489:75 3.20914e-05
73 *480:54 *489:79 6.93449e-05
74 *482:43 *489:75 0.000365595
75 *483:23 *489:75 0.000227851
76 *483:33 *489:75 0.000109512
77 *488:45 *2072:B 1.14452e-05
78 *488:45 *489:79 3.46241e-05
*RES
1 *2347:Q *489:4 23 
2 *489:4 *489:8 10.9993 
3 *489:8 *489:14 34.0186 
4 *489:14 *489:16 14.9143 
5 *489:16 *2192:A1 25.0507 
6 *489:16 *489:25 15 
7 *489:25 *489:29 33.8086 
8 *489:29 *1980:A 23 
9 *489:25 *2175:B 44.7736 
10 *489:14 *489:59 39.3629 
11 *489:59 *2176:B 23 
12 *489:8 *2190:A 23 
13 *489:4 *489:75 45.3464 
14 *489:75 *489:79 3.00357 
15 *489:79 *2072:B 42.2879 
16 *489:79 *2086:A1 38 
17 *489:75 *2079:A2 38 
*END

*D_NET *490 0.0151724
*CONN
*I *2176:A I *D sky130_fd_sc_hd__and4_1
*I *2079:A1 I *D sky130_fd_sc_hd__a41o_1
*I *2086:C1 I *D sky130_fd_sc_hd__o211a_1
*I *2072:A I *D sky130_fd_sc_hd__or2_1
*I *2192:B1 I *D sky130_fd_sc_hd__a21oi_1
*I *2175:A I *D sky130_fd_sc_hd__and3_1
*I *1983:A I *D sky130_fd_sc_hd__and3_1
*I *2348:Q O *D sky130_fd_sc_hd__dfxtp_1
*CAP
1 *2176:A 4.09526e-05
2 *2079:A1 0.000215967
3 *2086:C1 1.49804e-05
4 *2072:A 0.000363074
5 *2192:B1 0
6 *2175:A 0
7 *1983:A 0
8 *2348:Q 0.00058489
9 *490:67 0.000501969
10 *490:65 0.000462997
11 *490:63 0.00129079
12 *490:55 0.00146526
13 *490:51 0.00142504
14 *490:22 0.000843307
15 *490:16 0.000856439
16 *490:14 6.37846e-05
17 *490:10 0.00180394
18 *2086:C1 *609:25 5.50106e-05
19 *490:22 *492:14 0
20 *490:22 *541:12 0
21 *490:22 *542:82 0
22 *490:22 *604:110 0.000271373
23 *490:22 *614:10 0
24 *490:51 *2191:A1 2.45549e-06
25 *490:51 *2201:A 0.000198196
26 *490:51 *493:12 0.00021558
27 *490:65 *534:10 0.000163343
28 *711:DIODE *490:63 5.26733e-06
29 *2072:B *2072:A 5.50049e-05
30 *2175:B *490:16 2.93747e-05
31 *2175:B *490:22 5.70419e-05
32 *2175:B *490:51 6.29685e-05
33 *2176:C *490:55 0
34 *2176:C *490:63 0
35 *2190:B *490:55 0
36 *2193:A *490:10 0
37 *2198:A2 *490:22 6.68793e-05
38 *2201:B *490:51 0.000446803
39 *141:10 *2079:A1 9.45591e-05
40 *168:12 *490:10 4.16661e-05
41 *168:12 *490:14 2.03256e-05
42 *168:12 *490:51 5.02657e-05
43 *169:12 *490:55 0.000724706
44 *169:12 *490:63 0.000460587
45 *255:10 *490:22 8.68184e-05
46 *286:22 *2072:A 0
47 *286:22 *490:65 0
48 *286:22 *490:67 0
49 *359:18 *2079:A1 9.84851e-05
50 *359:18 *490:65 1.22906e-05
51 *359:18 *490:67 9.20483e-05
52 *360:16 *2086:C1 5.50106e-05
53 *430:10 *490:63 0.000144158
54 *432:25 *490:22 0.000172663
55 *432:36 *490:16 4.34745e-05
56 *432:36 *490:22 0.000107741
57 *432:47 *490:51 7.2e-05
58 *433:8 *490:22 0.000216843
59 *434:14 *490:55 0
60 *434:25 *2176:A 5.3304e-05
61 *444:10 *490:55 6.48049e-05
62 *445:10 *490:10 0.000166522
63 *445:10 *490:51 1.01436e-05
64 *446:10 *490:10 0
65 *465:79 *490:10 0
66 *465:79 *490:14 0
67 *465:79 *490:22 0.000176961
68 *483:33 *2079:A1 2.98648e-05
69 *488:45 *2079:A1 5.50106e-05
70 *489:59 *490:51 4.79612e-05
71 *489:59 *490:55 0.00051152
*RES
1 *2348:Q *490:10 47.4561 
2 *490:10 *490:14 16.0254 
3 *490:14 *490:16 0.621429 
4 *490:16 *490:22 35.0514 
5 *490:22 *1983:A 38 
6 *490:16 *2175:A 23 
7 *490:14 *2192:B1 23 
8 *490:10 *490:51 37.0918 
9 *490:51 *490:55 24.6529 
10 *490:55 *490:63 48.6636 
11 *490:63 *490:65 2.61 
12 *490:65 *490:67 2.25786 
13 *490:67 *2072:A 44.3179 
14 *490:67 *2086:C1 38.6214 
15 *490:65 *2079:A1 42.4536 
16 *490:55 *2176:A 38.6214 
*END

*D_NET *491 0.0111789
*CONN
*I *2197:B I *D sky130_fd_sc_hd__and3_1
*I *2074:D I *D sky130_fd_sc_hd__and4_1
*I *1987:B2 I *D sky130_fd_sc_hd__a22o_1
*I *2198:A1 I *D sky130_fd_sc_hd__a21oi_1
*I *2195:A I *D sky130_fd_sc_hd__xnor2_1
*I *2349:Q O *D sky130_fd_sc_hd__dfxtp_1
*CAP
1 *2197:B 0.000154803
2 *2074:D 0.000565313
3 *1987:B2 0
4 *2198:A1 0
5 *2195:A 0
6 *2349:Q 0.000288358
7 *491:48 0.00149691
8 *491:32 0.00232755
9 *491:30 0.000679171
10 *491:21 0.000723903
11 *491:12 8.72744e-05
12 *491:6 0.000840487
13 *2074:D *492:25 0.000392469
14 *2074:D *494:16 9.41704e-05
15 *2197:B *603:39 0
16 *491:6 *1971:B 5.6667e-05
17 *491:12 *541:12 0.000135557
18 *491:30 *2198:B1 0.000141954
19 *491:48 *677:DIODE 1.4471e-05
20 *491:48 *1972:B2 2.18506e-05
21 *491:48 *492:14 0
22 *491:48 *498:81 0
23 *491:48 *555:51 6.68793e-05
24 *491:48 *613:27 0.000104392
25 *491:48 *613:34 0.00010018
26 *491:48 *613:47 0.000356724
27 *491:48 *650:50 0.000644266
28 *2349:CLK *491:21 7.3309e-05
29 *2349:CLK *491:30 0.000115888
30 *2349:D *491:21 4.87475e-05
31 *165:10 *491:12 0.000138727
32 *239:10 *491:48 0
33 *256:8 *2197:B 0
34 *256:8 *491:32 0
35 *280:51 *491:48 0
36 *291:95 *2197:B 1.14452e-05
37 *305:10 *491:48 0
38 *334:68 *491:48 0.000246479
39 *347:32 *491:48 0
40 *449:10 *491:30 0.000146963
41 *489:29 *2197:B 0.000228051
42 *489:29 *491:32 0.000503803
43 *489:29 *491:48 0.000372152
*RES
1 *2349:Q *491:6 26.48 
2 *491:6 *491:12 31.9057 
3 *491:12 *2195:A 23 
4 *491:6 *491:21 6.35929 
5 *491:21 *2198:A1 23 
6 *491:21 *491:30 20.3857 
7 *491:30 *491:32 6.83571 
8 *491:32 *491:48 45.8436 
9 *491:48 *1987:B2 23 
10 *491:32 *2074:D 49.7657 
11 *491:30 *2197:B 41.3143 
*END

*D_NET *492 0.00965534
*CONN
*I *2197:A I *D sky130_fd_sc_hd__and3_1
*I *2198:B1 I *D sky130_fd_sc_hd__a21oi_1
*I *2074:C I *D sky130_fd_sc_hd__and4_1
*I *2073:C I *D sky130_fd_sc_hd__and3_1
*I *1990:B2 I *D sky130_fd_sc_hd__a22o_1
*I *2350:Q O *D sky130_fd_sc_hd__dfxtp_1
*CAP
1 *2197:A 0.00031283
2 *2198:B1 3.08984e-05
3 *2074:C 0
4 *2073:C 0
5 *1990:B2 0
6 *2350:Q 0
7 *492:45 0.000496837
8 *492:33 0.000339171
9 *492:25 0.00105409
10 *492:14 0.00114583
11 *492:8 0.00192991
12 *492:6 0.00022227
13 *2197:A *2200:A1 8.00931e-05
14 *2197:A *603:47 0.00033669
15 *492:14 *677:DIODE 3.3746e-05
16 *492:14 *1975:B2 0.000219383
17 *492:14 *1981:B1 6.07929e-05
18 *492:14 *555:10 0.000289542
19 *492:14 *556:8 1.58805e-05
20 *492:14 *556:16 9.67842e-05
21 *492:14 *556:48 0.000176174
22 *492:14 *614:10 5.31444e-05
23 *492:14 *615:245 8.68903e-05
24 *492:14 *638:36 0.000268221
25 *492:25 *2074:B 9.41704e-05
26 *492:33 *2073:A 5.50049e-05
27 *492:33 *493:52 0.000153784
28 *492:33 *494:16 6.16531e-05
29 *492:33 *560:10 6.25714e-05
30 *492:33 *560:100 9.95011e-05
31 *492:33 *620:16 0.00013837
32 *2074:D *492:25 0.000392469
33 *2197:C *2197:A 1.41077e-05
34 *2199:A *2197:A 4.5051e-05
35 *2200:A2 *2197:A 0.000322966
36 *2339:D *492:14 0.000104433
37 *2349:CLK *2198:B1 7.88828e-05
38 *168:12 *2197:A 0.000105165
39 *168:12 *492:8 5.56306e-05
40 *168:12 *492:14 9.98891e-05
41 *168:12 *492:45 0.000155417
42 *280:25 *492:14 5.94125e-05
43 *281:27 *492:14 2.1199e-05
44 *296:40 *492:33 1.03955e-05
45 *313:10 *492:14 0
46 *449:10 *2197:A 0.000110922
47 *465:79 *2197:A 0
48 *465:79 *492:8 0
49 *465:79 *492:14 0
50 *465:79 *492:45 0
51 *470:54 *492:14 2.32101e-05
52 *489:29 *492:14 0
53 *490:22 *492:14 0
54 *491:30 *2198:B1 0.000141954
55 *491:48 *492:14 0
*RES
1 *2350:Q *492:6 38 
2 *492:6 *492:8 1.55357 
3 *492:8 *492:14 40.6443 
4 *492:14 *1990:B2 23 
5 *492:8 *492:25 28.5057 
6 *492:25 *492:33 36.7321 
7 *492:33 *2073:C 23 
8 *492:25 *2074:C 23 
9 *492:6 *492:45 4.01857 
10 *492:45 *2198:B1 39.5743 
11 *492:45 *2197:A 47.8186 
*END

*D_NET *493 0.00773259
*CONN
*I *2203:A1 I *D sky130_fd_sc_hd__a21o_1
*I *2074:B I *D sky130_fd_sc_hd__and4_1
*I *2073:B I *D sky130_fd_sc_hd__and3_1
*I *1992:A1 I *D sky130_fd_sc_hd__a21o_1
*I *2201:A I *D sky130_fd_sc_hd__xnor2_1
*I *2351:Q O *D sky130_fd_sc_hd__dfxtp_1
*CAP
1 *2203:A1 0
2 *2074:B 8.81957e-05
3 *2073:B 0
4 *1992:A1 0.000154883
5 *2201:A 7.78155e-05
6 *2351:Q 0.000113255
7 *493:52 0.000334273
8 *493:33 0.000740716
9 *493:25 0.000420338
10 *493:23 0.000547138
11 *493:12 0.000646233
12 *493:8 0.000215117
13 *1992:A1 *1999:A1 6.17437e-06
14 *1992:A1 *1999:B1 0.000617571
15 *1992:A1 *560:24 3.34129e-05
16 *1992:A1 *614:103 3.91386e-05
17 *493:8 *560:100 0
18 *493:23 *620:16 0.000850118
19 *493:25 *620:16 0.000141879
20 *493:33 *494:20 0.000161121
21 *493:33 *620:16 7.40317e-05
22 *493:52 *1999:A1 7.65379e-05
23 *493:52 *1999:B1 0.000219383
24 *493:52 *560:10 0.000143681
25 *493:52 *560:100 3.77305e-05
26 *493:52 *620:16 8.35638e-06
27 *493:52 *620:18 4.9996e-05
28 *1999:B2 *493:52 5.50049e-05
29 *164:12 *493:23 0
30 *164:12 *493:25 0
31 *164:12 *493:33 0
32 *258:12 *493:23 2.04639e-05
33 *280:62 *1992:A1 0.000294908
34 *280:68 *1992:A1 1.03836e-05
35 *296:40 *493:52 0
36 *432:47 *2201:A 0.000356724
37 *432:47 *493:12 0.000385158
38 *453:10 *493:23 0
39 *488:37 *493:52 9.84851e-05
40 *489:14 *493:8 5.26308e-05
41 *490:51 *2201:A 0.000198196
42 *490:51 *493:12 0.00021558
43 *492:25 *2074:B 9.41704e-05
44 *492:33 *493:52 0.000153784
*RES
1 *2351:Q *493:8 40.2579 
2 *493:8 *493:12 19.4329 
3 *493:12 *2201:A 26.9564 
4 *493:12 *493:23 26.4136 
5 *493:23 *493:25 1.90571 
6 *493:25 *493:33 19.4329 
7 *493:33 *1992:A1 30.3121 
8 *493:33 *493:52 37.6436 
9 *493:52 *2073:B 23 
10 *493:25 *2074:B 39.0979 
11 *493:23 *2203:A1 38 
*END

*D_NET *494 0.0036666
*CONN
*I *2203:B1 I *D sky130_fd_sc_hd__a21o_1
*I *2074:A I *D sky130_fd_sc_hd__and4_1
*I *1998:A I *D sky130_fd_sc_hd__or2_1
*I *2073:A I *D sky130_fd_sc_hd__and3_1
*I *2352:Q O *D sky130_fd_sc_hd__dfxtp_1
*CAP
1 *2203:B1 0
2 *2074:A 0
3 *1998:A 0
4 *2073:A 0.000190475
5 *2352:Q 0.000494691
6 *494:20 0.000278981
7 *494:16 0.000276581
8 *494:10 0.000682767
9 *2073:A *556:33 0.000137238
10 *2073:A *620:16 0.000159655
11 *494:10 *560:100 2.72055e-05
12 *494:10 *620:16 0.000294741
13 *494:16 *560:100 5.75972e-05
14 *494:16 *620:16 0.000243587
15 *494:20 *620:16 0.000186448
16 *2074:D *494:16 9.41704e-05
17 *2176:C *494:10 5.12254e-05
18 *164:12 *494:20 0
19 *296:15 *2073:A 2.93747e-05
20 *296:40 *2073:A 7.15126e-05
21 *452:8 *494:10 0.000112568
22 *492:33 *2073:A 5.50049e-05
23 *492:33 *494:16 6.16531e-05
24 *493:33 *494:20 0.000161121
*RES
1 *2352:Q *494:10 46.9279 
2 *494:10 *494:16 19.4121 
3 *494:16 *494:20 17.61 
4 *494:20 *2073:A 42.3086 
5 *494:20 *1998:A 38 
6 *494:16 *2074:A 23 
7 *494:10 *2203:B1 38 
*END

*D_NET *495 0.00368938
*CONN
*I *2036:D_N I *D sky130_fd_sc_hd__or4b_2
*I *1958:A I *D sky130_fd_sc_hd__or4b_4
*I *1984:B2 I *D sky130_fd_sc_hd__a22o_1
*I *1960:A I *D sky130_fd_sc_hd__or4b_2
*I *2049:A I *D sky130_fd_sc_hd__or4b_2
*I *2307:Q O *D sky130_fd_sc_hd__dfxtp_1
*CAP
1 *2036:D_N 0
2 *1958:A 0
3 *1984:B2 0.000358652
4 *1960:A 0
5 *2049:A 4.51627e-05
6 *2307:Q 0.000112524
7 *495:64 0.000187154
8 *495:51 0.000248404
9 *495:25 0.00047907
10 *495:21 0.000268748
11 *495:10 0.000132244
12 *495:8 0.000112524
13 *1984:B2 *1986:A 5.40322e-05
14 *1984:B2 *496:41 8.50956e-05
15 *1984:B2 *635:40 5.50049e-05
16 *2049:A *2049:C 5.41288e-05
17 *495:8 *497:8 1.14452e-05
18 *495:8 *497:19 7.48331e-05
19 *495:8 *497:30 5.15096e-05
20 *495:8 *497:41 2.55642e-05
21 *495:8 *615:96 0
22 *495:21 *1958:D_N 2.18506e-05
23 *495:21 *2049:C 8.48502e-06
24 *495:21 *2049:D_N 0.000230604
25 *495:25 *496:41 0.000159186
26 *495:25 *497:41 0
27 *495:51 *2049:D_N 4.17736e-05
28 *495:51 *498:46 1.03955e-05
29 *495:64 *496:8 0
30 *495:64 *496:21 3.90229e-05
31 *495:64 *496:30 2.11827e-05
32 *495:64 *498:46 9.84794e-05
33 *495:64 *613:53 0
34 *1984:B1 *1984:B2 5.50049e-05
35 *290:12 *1984:B2 5.61019e-05
36 *290:12 *495:25 0
37 *308:10 *1984:B2 7.56417e-05
38 *338:10 *495:21 0.000313249
39 *338:10 *495:51 0.000135016
40 *338:10 *495:64 6.72872e-05
*RES
1 *2307:Q *495:8 40.2579 
2 *495:8 *495:10 15 
3 *495:10 *2049:A 24.0979 
4 *495:10 *495:21 3.97714 
5 *495:21 *495:25 17.2579 
6 *495:25 *1960:A 38 
7 *495:25 *1984:B2 45.6436 
8 *495:21 *495:51 1.94714 
9 *495:51 *1958:A 23 
10 *495:51 *495:64 34.06 
11 *495:64 *2036:D_N 23 
*END

*D_NET *496 0.00351355
*CONN
*I *2098:A I *D sky130_fd_sc_hd__xnor2_1
*I *1986:A I *D sky130_fd_sc_hd__and2_1
*I *1960:B I *D sky130_fd_sc_hd__or4b_2
*I *2049:D_N I *D sky130_fd_sc_hd__or4b_2
*I *1958:B I *D sky130_fd_sc_hd__or4b_4
*I *2036:A I *D sky130_fd_sc_hd__or4b_2
*I *2308:Q O *D sky130_fd_sc_hd__dfxtp_1
*CAP
1 *2098:A 0.000103328
2 *1986:A 0.000100911
3 *1960:B 5.43738e-05
4 *2049:D_N 6.19353e-05
5 *1958:B 0
6 *2036:A 0
7 *2308:Q 0
8 *496:41 0.000369052
9 *496:30 0.00034808
10 *496:21 0.000234835
11 *496:8 0.000641712
12 *496:4 0.000582582
13 *1960:B *634:21 2.64616e-05
14 *1986:A *613:53 0
15 *2049:D_N *1958:D_N 5.67058e-05
16 *2049:D_N *2049:C 4.6595e-05
17 *2049:D_N *498:46 2.93747e-05
18 *2049:D_N *498:48 5.41385e-05
19 *2098:A *607:51 8.93893e-05
20 *496:8 *497:8 0
21 *496:8 *498:63 6.07611e-06
22 *496:8 *617:71 0
23 *496:21 *498:63 5.063e-05
24 *496:30 *497:41 0
25 *496:30 *498:63 7.75329e-06
26 *496:30 *613:53 0
27 *496:41 *497:41 0
28 *496:41 *613:53 0
29 *1984:B2 *1986:A 5.40322e-05
30 *1984:B2 *496:41 8.50956e-05
31 *214:8 *496:8 0
32 *290:33 *496:41 1.8722e-05
33 *348:21 *496:8 0
34 *495:21 *2049:D_N 0.000230604
35 *495:25 *496:41 0.000159186
36 *495:51 *2049:D_N 4.17736e-05
37 *495:64 *496:8 0
38 *495:64 *496:21 3.90229e-05
39 *495:64 *496:30 2.11827e-05
*RES
1 *2308:Q *496:4 23 
2 *496:4 *496:8 23.9486 
3 *496:8 *2036:A 38 
4 *496:8 *496:21 3.02429 
5 *496:21 *1958:B 38 
6 *496:21 *496:30 1.20143 
7 *496:30 *2049:D_N 41.0036 
8 *496:30 *496:41 3.66643 
9 *496:41 *1960:B 38.6214 
10 *496:41 *1986:A 40.2579 
11 *496:4 *2098:A 25.4236 
*END

*D_NET *497 0.00334205
*CONN
*I *1989:A I *D sky130_fd_sc_hd__and2_1
*I *1960:C I *D sky130_fd_sc_hd__or4b_2
*I *1958:D_N I *D sky130_fd_sc_hd__or4b_4
*I *2049:B I *D sky130_fd_sc_hd__or4b_2
*I *2036:B I *D sky130_fd_sc_hd__or4b_2
*I *2309:Q O *D sky130_fd_sc_hd__dfxtp_1
*CAP
1 *1989:A 0.00020982
2 *1960:C 5.12495e-05
3 *1958:D_N 2.28088e-05
4 *2049:B 0.000107693
5 *2036:B 0.000161462
6 *2309:Q 0.000171296
7 *497:41 0.00044507
8 *497:30 0.000247616
9 *497:19 0.000210775
10 *497:8 0.000395032
11 *1958:D_N *2049:C 9.84851e-05
12 *1960:C *634:21 0.000139352
13 *2036:B *615:96 0.000226306
14 *2049:B *2049:C 0.000139346
15 *497:8 *498:63 0
16 *497:8 *615:96 0
17 *1986:B *1989:A 8.60475e-05
18 *2049:D_N *1958:D_N 5.67058e-05
19 *290:12 *1960:C 5.41385e-05
20 *290:12 *1989:A 0.000215538
21 *290:12 *497:41 6.48049e-05
22 *295:49 *1989:A 5.3304e-05
23 *495:8 *497:8 1.14452e-05
24 *495:8 *497:19 7.48331e-05
25 *495:8 *497:30 5.15096e-05
26 *495:8 *497:41 2.55642e-05
27 *495:21 *1958:D_N 2.18506e-05
28 *495:25 *497:41 0
29 *496:8 *497:8 0
30 *496:30 *497:41 0
31 *496:41 *497:41 0
*RES
1 *2309:Q *497:8 40.9621 
2 *497:8 *2036:B 40.5271 
3 *497:8 *497:19 1.20143 
4 *497:19 *2049:B 39.5743 
5 *497:19 *497:30 0.849286 
6 *497:30 *1958:D_N 39.0979 
7 *497:30 *497:41 2.96214 
8 *497:41 *1960:C 39.5743 
9 *497:41 *1989:A 42.5364 
*END

*D_NET *498 0.0113394
*CONN
*I *1993:A1 I *D sky130_fd_sc_hd__o211a_1
*I *1958:C I *D sky130_fd_sc_hd__or4b_4
*I *2036:C I *D sky130_fd_sc_hd__or4b_2
*I *2049:C I *D sky130_fd_sc_hd__or4b_2
*I *2096:B1 I *D sky130_fd_sc_hd__a31o_1
*I *1960:D_N I *D sky130_fd_sc_hd__or4b_2
*I *2310:Q O *D sky130_fd_sc_hd__dfxtp_1
*CAP
1 *1993:A1 0
2 *1958:C 0
3 *2036:C 0
4 *2049:C 0.000233057
5 *2096:B1 0.000302396
6 *1960:D_N 0.00061887
7 *2310:Q 0
8 *498:81 0.00121957
9 *498:63 0.000177811
10 *498:48 0.000459829
11 *498:46 0.000659759
12 *498:21 0.00116191
13 *498:6 0.0011456
14 *498:4 0.00149758
15 *1960:D_N *634:21 0.000166135
16 *2049:C *615:96 1.24376e-05
17 *498:21 *634:31 0
18 *498:21 *635:60 0
19 *498:81 *555:51 0
20 *498:81 *556:33 0
21 *498:81 *608:26 7.8128e-05
22 *498:81 *615:124 0.000178946
23 *498:81 *615:142 0.000274199
24 *498:81 *615:226 7.37814e-06
25 *498:81 *615:239 3.82852e-05
26 *1958:D_N *2049:C 9.84851e-05
27 *2049:A *2049:C 5.41288e-05
28 *2049:B *2049:C 0.000139346
29 *2049:D_N *2049:C 4.6595e-05
30 *2049:D_N *498:46 2.93747e-05
31 *2049:D_N *498:48 5.41385e-05
32 *2058:C *498:46 0.00020956
33 *2316:CLK *498:81 0
34 *164:12 *498:81 0
35 *289:6 *498:46 5.67058e-05
36 *289:17 *498:46 0.000169507
37 *305:10 *498:81 0
38 *326:8 *2096:B1 4.00259e-06
39 *334:10 *498:21 0.000290473
40 *334:16 *2096:B1 6.74034e-05
41 *334:16 *498:21 1.89075e-05
42 *334:31 *2096:B1 0.000107449
43 *335:22 *2096:B1 0
44 *338:10 *498:46 4.04303e-05
45 *345:6 *2096:B1 1.76557e-05
46 *345:25 *498:21 2.14619e-05
47 *346:6 *498:46 9.58714e-05
48 *346:12 *2096:B1 0
49 *347:32 *498:81 0.000925232
50 *352:29 *2096:B1 0.000129757
51 *352:29 *498:21 8.94487e-05
52 *380:8 *2096:B1 4.6318e-06
53 *469:101 *1960:D_N 0.000112612
54 *469:101 *498:6 0.000126781
55 *469:101 *498:81 1.5769e-05
56 *472:61 *498:81 0
57 *491:48 *498:81 0
58 *495:21 *2049:C 8.48502e-06
59 *495:51 *498:46 1.03955e-05
60 *495:64 *498:46 9.84794e-05
61 *496:8 *498:63 6.07611e-06
62 *496:21 *498:63 5.063e-05
63 *496:30 *498:63 7.75329e-06
64 *497:8 *498:63 0
*RES
1 *2310:Q *498:4 23 
2 *498:4 *498:6 3.95643 
3 *498:6 *1960:D_N 32.4457 
4 *498:6 *498:21 20.3443 
5 *498:21 *2096:B1 43.6757 
6 *498:21 *498:46 25.3157 
7 *498:46 *498:48 1.09786 
8 *498:48 *2049:C 28.2821 
9 *498:48 *498:63 32.61 
10 *498:63 *2036:C 23 
11 *498:46 *1958:C 23 
12 *498:4 *498:81 41.5143 
13 *498:81 *1993:A1 38 
*END

*D_NET *499 0.00844482
*CONN
*I *2107:D I *D sky130_fd_sc_hd__and4_1
*I *2108:A3 I *D sky130_fd_sc_hd__a31o_1
*I *2100:A_N I *D sky130_fd_sc_hd__and2b_1
*I *2104:C I *D sky130_fd_sc_hd__nand3_1
*I *2102:B I *D sky130_fd_sc_hd__or2_1
*I *2101:B I *D sky130_fd_sc_hd__nand2_1
*I *2011:A I *D sky130_fd_sc_hd__and3_1
*I *2105:A2 I *D sky130_fd_sc_hd__a21o_1
*I *2317:Q O *D sky130_fd_sc_hd__dfxtp_1
*CAP
1 *2107:D 0.000175771
2 *2108:A3 0
3 *2100:A_N 4.01155e-05
4 *2104:C 0
5 *2102:B 0
6 *2101:B 3.36605e-05
7 *2011:A 0.000158683
8 *2105:A2 6.80123e-05
9 *2317:Q 0.000178334
10 *499:92 0.000276659
11 *499:49 0.000411074
12 *499:43 0.000641542
13 *499:41 0.000560416
14 *499:24 0.000484153
15 *499:18 0.000972349
16 *499:10 0.000932918
17 *2011:A *2011:B 2.45549e-06
18 *2011:A *2012:A 6.87093e-05
19 *2011:A *505:34 0
20 *2011:A *606:31 0
21 *2011:A *606:58 1.39317e-05
22 *2011:A *610:49 3.47781e-05
23 *2011:A *610:57 5.50049e-05
24 *2105:A2 *506:56 2.4754e-05
25 *2105:A2 *506:69 5.67058e-05
26 *2105:A2 *584:12 3.71251e-05
27 *2105:A2 *610:26 0
28 *2107:D *2107:C 6.17437e-06
29 *2107:D *506:79 1.99391e-05
30 *2107:D *507:19 1.14452e-05
31 *2107:D *507:27 0.000165583
32 *2107:D *584:12 1.94812e-05
33 *499:18 *2013:A 1.03836e-05
34 *499:18 *508:10 0.000141954
35 *499:18 *600:73 5.3304e-05
36 *499:24 *2013:A 4.06849e-05
37 *499:24 *610:26 0
38 *499:41 *610:26 0
39 *499:43 *2104:B 0.000948631
40 *499:43 *506:37 9.58714e-05
41 *499:49 *2012:A 4.6318e-06
42 *499:49 *505:34 0
43 *499:49 *506:37 0.000257249
44 *499:92 *506:79 2.5343e-05
45 *499:92 *508:10 3.65571e-05
46 *2109:A_N *2107:D 0
47 *226:8 *499:10 2.8936e-05
48 *226:8 *499:92 3.21327e-05
49 *386:8 *499:24 0.000262226
50 *386:8 *499:41 0.00017884
51 *466:20 *2101:B 5.3304e-05
52 *466:20 *499:49 0.000222113
53 *468:49 *499:18 6.17437e-06
54 *468:53 *2100:A_N 0
55 *468:53 *499:10 7.88828e-05
56 *468:53 *499:18 0.000373837
57 *468:57 *499:18 9.45591e-05
58 *468:72 *499:24 2.1199e-05
59 *468:87 *499:41 2.82307e-05
*RES
1 *2317:Q *499:10 41.1279 
2 *499:10 *499:18 27.2214 
3 *499:18 *499:24 20.6446 
4 *499:24 *2105:A2 40.0404 
5 *499:24 *499:41 18.4904 
6 *499:41 *499:43 11.5793 
7 *499:43 *499:49 20.8414 
8 *499:49 *2011:A 41.6457 
9 *499:49 *2101:B 38.6214 
10 *499:43 *2102:B 23 
11 *499:41 *2104:C 23 
12 *499:18 *2100:A_N 23.8493 
13 *499:10 *499:92 2.25786 
14 *499:92 *2108:A3 38 
15 *499:92 *2107:D 41.5836 
*END

*D_NET *500 0.0125541
*CONN
*I *2129:A I *D sky130_fd_sc_hd__or2_1
*I *2134:C I *D sky130_fd_sc_hd__and4_1
*I *2021:A I *D sky130_fd_sc_hd__and3_1
*I *2041:B I *D sky130_fd_sc_hd__or3_1
*I *2054:A1 I *D sky130_fd_sc_hd__a311o_1
*I *2040:A I *D sky130_fd_sc_hd__nor2_1
*I *2128:A I *D sky130_fd_sc_hd__nand2_1
*I *2327:Q O *D sky130_fd_sc_hd__dfxtp_1
*CAP
1 *2129:A 0
2 *2134:C 3.43352e-05
3 *2021:A 0.000334395
4 *2041:B 0.000102555
5 *2054:A1 0
6 *2040:A 2.34823e-05
7 *2128:A 1.66799e-05
8 *2327:Q 0.000119011
9 *500:78 0.000141985
10 *500:70 0.000708253
11 *500:49 0.00116798
12 *500:30 0.00103705
13 *500:26 0.00084661
14 *500:22 0.000748616
15 *500:16 0.000574942
16 *500:12 0.000152302
17 *2021:A *610:107 0.000212712
18 *2041:B *2042:A 2.02872e-05
19 *2134:C *2039:D 9.41704e-05
20 *500:12 *2130:A 2.76611e-06
21 *500:12 *501:12 0.000359332
22 *500:12 *600:20 6.16531e-05
23 *500:16 *501:12 5.3304e-05
24 *500:22 *2039:D 0
25 *500:22 *501:12 3.88766e-05
26 *500:30 *2136:C 0.000252883
27 *500:49 *1935:A 5.50106e-05
28 *2040:B *500:70 0
29 *2042:B *2041:B 5.50106e-05
30 *2042:B *500:70 5.50049e-05
31 *2051:A1 *500:49 4.55711e-05
32 *2051:A1 *500:70 8.45476e-05
33 *2054:B1 *500:78 5.50049e-05
34 *2128:B *500:30 9.84851e-05
35 *2131:A *2128:A 9.43467e-06
36 *2131:A *500:49 0.000446768
37 *2131:B *2128:A 1.22308e-05
38 *2131:B *500:49 3.7548e-05
39 *2132:B *500:49 9.21169e-06
40 *2134:D *2134:C 5.3304e-05
41 *2134:D *500:22 0.00052371
42 *2136:B *500:30 0.00023877
43 *2328:CLK *500:78 5.3304e-05
44 *2329:CLK *500:26 0.000161121
45 *150:8 *500:70 0.000111852
46 *154:8 *500:12 7.82647e-05
47 *154:14 *500:12 0.000228909
48 *233:16 *500:22 0
49 *274:6 *500:49 0.000509299
50 *275:18 *2041:B 0.000168693
51 *275:18 *500:70 0.000216536
52 *326:26 *500:70 0.000120333
53 *330:8 *500:70 0.000182826
54 *331:6 *2041:B 8.43466e-05
55 *332:8 *500:78 4.85126e-05
56 *337:8 *500:78 0.000118889
57 *340:10 *500:70 4.6318e-06
58 *383:29 *2040:A 0
59 *383:29 *500:49 0.000230604
60 *383:29 *500:70 0.000258245
61 *383:29 *500:78 0.000136486
62 *402:6 *500:30 3.22879e-05
63 *402:6 *500:49 1.22822e-05
64 *406:10 *500:22 0
65 *406:38 *500:26 0.000434074
66 *465:33 *2021:A 0.000330488
67 *465:33 *500:26 0.000148319
*RES
1 *2327:Q *500:12 43.3029 
2 *500:12 *500:16 15.6214 
3 *500:16 *500:22 8.63786 
4 *500:22 *500:26 21.1314 
5 *500:26 *500:30 23.7207 
6 *500:30 *2128:A 23.4971 
7 *500:30 *500:49 45.805 
8 *500:49 *2040:A 23.4971 
9 *500:49 *500:70 40.585 
10 *500:70 *500:78 33.9357 
11 *500:78 *2054:A1 23 
12 *500:70 *2041:B 26.0243 
13 *500:26 *2021:A 46.9486 
14 *500:22 *2134:C 24.0979 
15 *500:16 *2129:A 23 
*END

*D_NET *501 0.010798
*CONN
*I *1935:A I *D sky130_fd_sc_hd__inv_2
*I *2418:A I *D sky130_fd_sc_hd__dlygate4sd3_1
*I *2053:A I *D sky130_fd_sc_hd__or3_1
*I *2041:A I *D sky130_fd_sc_hd__or3_1
*I *2134:B I *D sky130_fd_sc_hd__and4_1
*I *2328:Q O *D sky130_fd_sc_hd__dfxtp_1
*CAP
1 *1935:A 0.000337763
2 *2418:A 0.000119968
3 *2053:A 0.000145264
4 *2041:A 0
5 *2134:B 0
6 *2328:Q 0
7 *501:31 0.000200059
8 *501:25 0.00148145
9 *501:21 0.00165545
10 *501:19 0.000585979
11 *501:12 0.000362925
12 *501:6 0.000502313
13 *2053:A *2042:A 0.000134601
14 *2418:A *610:95 0.000140291
15 *501:12 *2039:D 0.00010018
16 *501:12 *2130:A 5.50049e-05
17 *501:12 *502:12 0.000299111
18 *501:12 *610:95 0.000166522
19 *501:19 *610:95 0.000256785
20 *501:21 *610:95 0.000153218
21 *501:31 *607:53 0.000139647
22 *2130:C *501:12 5.22692e-05
23 *2134:D *501:12 0.000441065
24 *2382:A *1935:A 0.000185428
25 *150:14 *2418:A 0.000269769
26 *150:14 *501:25 0.00117323
27 *154:8 *501:12 4.39488e-05
28 *154:14 *501:12 8.0995e-05
29 *233:16 *501:12 0.000228001
30 *274:6 *1935:A 0.000483643
31 *329:42 *2053:A 5.50049e-05
32 *343:8 *501:31 0.000138718
33 *383:8 *501:21 0
34 *383:29 *1935:A 0.000243526
35 *405:8 *501:19 5.93485e-05
36 *500:12 *501:12 0.000359332
37 *500:16 *501:12 5.3304e-05
38 *500:22 *501:12 3.88766e-05
39 *500:49 *1935:A 5.50106e-05
*RES
1 *2328:Q *501:6 38 
2 *501:6 *501:12 28.8371 
3 *501:12 *2134:B 23 
4 *501:6 *501:19 3.66643 
5 *501:19 *501:21 2.25786 
6 *501:21 *501:25 35.6314 
7 *501:25 *501:31 31.9057 
8 *501:31 *2041:A 23 
9 *501:31 *2053:A 26.48 
10 *501:21 *2418:A 41.8529 
11 *501:19 *1935:A 45.9129 
*END

*D_NET *502 0.00430992
*CONN
*I *2406:A I *D sky130_fd_sc_hd__dlygate4sd3_1
*I *2135:A I *D sky130_fd_sc_hd__or2_1
*I *2134:A I *D sky130_fd_sc_hd__and4_1
*I *2039:D I *D sky130_fd_sc_hd__or4_1
*I *2329:Q O *D sky130_fd_sc_hd__dfxtp_1
*CAP
1 *2406:A 0.000304282
2 *2135:A 8.08612e-05
3 *2134:A 0
4 *2039:D 0.000173537
5 *2329:Q 0
6 *502:30 0.000422369
7 *502:12 0.000313882
8 *502:6 0.000177571
9 *2039:D *2039:C 5.50049e-05
10 *2135:A *600:16 6.17437e-06
11 *2135:A *606:118 0.000137651
12 *2406:A *2022:A 7.15126e-05
13 *2406:A *606:17 2.71291e-05
14 *2406:A *606:19 0.000164833
15 *2406:A *610:95 3.11099e-05
16 *2406:A *610:107 7.74909e-05
17 *502:12 *606:23 6.68793e-05
18 *502:30 *606:19 1.83667e-05
19 *502:30 *606:23 2.70366e-05
20 *2128:B *2406:A 2.70469e-05
21 *2128:B *502:12 6.68793e-05
22 *2128:B *502:30 4.43614e-05
23 *2134:C *2039:D 9.41704e-05
24 *2134:D *2039:D 1.56762e-05
25 *150:14 *2406:A 0.000354116
26 *154:14 *2039:D 0.000453226
27 *154:14 *502:12 0.000310641
28 *406:10 *2039:D 0.000169857
29 *407:8 *2406:A 0.000218962
30 *500:22 *2039:D 0
31 *501:12 *2039:D 0.00010018
32 *501:12 *502:12 0.000299111
*RES
1 *2329:Q *502:6 38 
2 *502:6 *502:12 20.3857 
3 *502:12 *2039:D 29.5043 
4 *502:12 *2134:A 23 
5 *502:6 *502:30 1.20143 
6 *502:30 *2135:A 39.5743 
7 *502:30 *2406:A 47.3836 
*END

*D_NET *503 0.00227277
*CONN
*I *2432:A I *D sky130_fd_sc_hd__dlygate4sd3_1
*I *2138:A I *D sky130_fd_sc_hd__or2_1
*I *2137:A I *D sky130_fd_sc_hd__and2_1
*I *2039:C I *D sky130_fd_sc_hd__or4_1
*I *2330:Q O *D sky130_fd_sc_hd__dfxtp_1
*CAP
1 *2432:A 3.62665e-05
2 *2138:A 0
3 *2137:A 0
4 *2039:C 7.0454e-05
5 *2330:Q 0
6 *503:37 0.000391783
7 *503:25 0.000649606
8 *503:21 0.000401138
9 *503:6 0.000177503
10 *2039:C *505:34 2.96154e-05
11 *503:21 *505:34 6.07611e-06
12 *2039:D *2039:C 5.50049e-05
13 *2298:CLK *503:37 0.000245283
14 *154:14 *2039:C 9.67842e-05
15 *406:10 *2039:C 1.76557e-05
16 *406:27 *2039:C 0
17 *406:27 *503:21 0
18 *406:27 *503:25 5.3304e-05
19 *406:38 *503:21 0
20 *409:10 *503:25 6.17437e-06
21 *409:10 *503:37 3.05276e-05
22 *466:124 *503:37 5.58975e-06
*RES
1 *2330:Q *503:6 38 
2 *503:6 *2039:C 39.9471 
3 *503:6 *503:21 16.9057 
4 *503:21 *503:25 4.45357 
5 *503:25 *503:37 37.5607 
6 *503:37 *2137:A 23 
7 *503:25 *2138:A 23 
8 *503:21 *2432:A 23.6214 
*END

*D_NET *504 0.00413099
*CONN
*I *2039:A I *D sky130_fd_sc_hd__or4_1
*I *2140:A I *D sky130_fd_sc_hd__nand2_1
*I *2407:A I *D sky130_fd_sc_hd__dlygate4sd3_1
*I *2141:A I *D sky130_fd_sc_hd__or2_1
*I *2331:Q O *D sky130_fd_sc_hd__dfxtp_1
*CAP
1 *2039:A 0
2 *2140:A 0
3 *2407:A 0.00024185
4 *2141:A 0.000365835
5 *2331:Q 0
6 *504:49 0.00014607
7 *504:36 0.000345627
8 *504:19 0.000563189
9 *504:6 0.000487618
10 *2141:A *505:34 0.000194318
11 *2141:A *584:12 1.39317e-05
12 *2141:A *584:22 8.4047e-05
13 *2407:A *519:10 0.000355023
14 *2407:A *600:93 8.82787e-05
15 *504:19 *505:34 0.00024989
16 *504:36 *505:34 0.000262829
17 *504:49 *505:34 8.68903e-05
18 *2141:B *2141:A 5.67058e-05
19 *2141:B *504:19 0
20 *2141:B *504:36 0
21 *2329:CLK *504:49 0
22 *2367:A *2407:A 0.000189118
23 *151:8 *504:36 5.3304e-05
24 *151:8 *504:49 8.60475e-05
25 *329:8 *504:49 4.334e-05
26 *406:38 *504:49 1.19796e-05
27 *466:8 *2407:A 5.50049e-05
28 *466:44 *504:36 5.3304e-05
29 *466:44 *504:49 9.67842e-05
*RES
1 *2331:Q *504:6 38 
2 *504:6 *2141:A 45.5193 
3 *504:6 *504:19 3.31429 
4 *504:19 *2407:A 45.3121 
5 *504:19 *504:36 19.2879 
6 *504:36 *2140:A 23 
7 *504:36 *504:49 33.7079 
8 *504:49 *2039:A 23 
*END

*D_NET *505 0.00495078
*CONN
*I *2039:B I *D sky130_fd_sc_hd__or4_1
*I *2143:A I *D sky130_fd_sc_hd__xnor2_1
*I *2412:A I *D sky130_fd_sc_hd__dlygate4sd3_1
*I *2332:Q O *D sky130_fd_sc_hd__dfxtp_1
*CAP
1 *2039:B 0
2 *2143:A 0.000161884
3 *2412:A 0.000277264
4 *2332:Q 0.000105388
5 *505:34 0.00075887
6 *505:21 0.00105658
7 *505:8 0.000518473
8 *2143:A *573:14 0.000391454
9 *2143:A *606:58 0.000361514
10 *2143:A *610:57 0.000193575
11 *2412:A *2012:B 0
12 *2412:A *573:8 4.6318e-06
13 *2412:A *576:18 0
14 *2412:A *600:44 0.000187129
15 *505:8 *576:28 5.47808e-05
16 *505:21 *573:8 4.96264e-05
17 *505:21 *606:58 0
18 *505:21 *610:49 0
19 *505:34 *610:49 0
20 *505:34 *611:18 0
21 *505:34 *611:26 0
22 *2011:A *505:34 0
23 *2039:C *505:34 2.96154e-05
24 *2141:A *505:34 0.000194318
25 *406:27 *505:34 0
26 *406:38 *505:34 0
27 *466:20 *505:34 0
28 *466:40 *505:34 0
29 *499:49 *505:34 0
30 *503:21 *505:34 6.07611e-06
31 *504:19 *505:34 0.00024989
32 *504:36 *505:34 0.000262829
33 *504:49 *505:34 8.68903e-05
*RES
1 *2332:Q *505:8 39.5743 
2 *505:8 *2412:A 43.7171 
3 *505:8 *505:21 2.25786 
4 *505:21 *2143:A 45.7679 
5 *505:21 *505:34 29.935 
6 *505:34 *2039:B 23 
*END

*D_NET *506 0.00975312
*CONN
*I *2107:C I *D sky130_fd_sc_hd__and4_1
*I *2108:A2 I *D sky130_fd_sc_hd__a31o_1
*I *2105:A1 I *D sky130_fd_sc_hd__a21o_1
*I *2101:A I *D sky130_fd_sc_hd__nand2_1
*I *2104:B I *D sky130_fd_sc_hd__nand3_1
*I *2102:A I *D sky130_fd_sc_hd__or2_1
*I *2012:A I *D sky130_fd_sc_hd__and3_1
*I *2318:Q O *D sky130_fd_sc_hd__dfxtp_1
*CAP
1 *2107:C 9.40466e-05
2 *2108:A2 0
3 *2105:A1 0
4 *2101:A 0
5 *2104:B 0.000519397
6 *2102:A 0
7 *2012:A 0.000327642
8 *2318:Q 0
9 *506:79 0.000108937
10 *506:69 0.00100091
11 *506:56 0.00107292
12 *506:37 0.000825622
13 *506:16 0.000657227
14 *506:12 0.000611755
15 *506:4 0.000863392
16 *2012:A *2012:B 1.47563e-05
17 *2012:A *2012:C 8.4047e-05
18 *2012:A *600:44 5.67058e-05
19 *2012:A *610:49 0.000355699
20 *2012:A *622:32 0
21 *2107:C *2107:A 3.7122e-06
22 *2107:C *507:17 8.06804e-06
23 *2107:C *584:12 2.03764e-06
24 *506:12 *584:12 3.30471e-05
25 *506:37 *622:32 0
26 *506:56 *584:12 3.38187e-05
27 *506:69 *2105:B1 0.000532885
28 *506:69 *2107:A 1.59094e-05
29 *506:69 *507:17 6.0606e-05
30 *506:69 *584:12 7.43025e-06
31 *506:79 *507:27 0.000110913
32 *506:79 *508:10 2.5343e-05
33 *506:79 *508:23 0.000163352
34 *2011:A *2012:A 6.87093e-05
35 *2105:A2 *506:56 2.4754e-05
36 *2105:A2 *506:69 5.67058e-05
37 *2107:D *2107:C 6.17437e-06
38 *2107:D *506:79 1.99391e-05
39 *2318:D *506:12 5.73018e-05
40 *2319:D *506:69 1.64354e-05
41 *145:8 *2012:A 0.000140949
42 *186:10 *2012:A 3.46181e-05
43 *384:8 *2012:A 0.000111045
44 *466:20 *506:12 2.86356e-05
45 *466:20 *506:16 5.50106e-05
46 *466:20 *506:37 1.02387e-05
47 *466:33 *506:12 0.0002007
48 *499:43 *2104:B 0.000948631
49 *499:43 *506:37 9.58714e-05
50 *499:49 *2012:A 4.6318e-06
51 *499:49 *506:37 0.000257249
52 *499:92 *506:79 2.5343e-05
*RES
1 *2318:Q *506:4 23 
2 *506:4 *506:12 8.90714 
3 *506:12 *506:16 15.6214 
4 *506:16 *2012:A 47.28 
5 *506:16 *506:37 21.1936 
6 *506:37 *2102:A 23 
7 *506:37 *2104:B 34.5793 
8 *506:12 *2101:A 23 
9 *506:4 *506:56 3.95643 
10 *506:56 *2105:A1 23 
11 *506:56 *506:69 13.6714 
12 *506:69 *506:79 33.3764 
13 *506:79 *2108:A2 23 
14 *506:69 *2107:C 24.0979 
*END

*D_NET *507 0.00534498
*CONN
*I *2038:A2 I *D sky130_fd_sc_hd__o211ai_1
*I *2104:A I *D sky130_fd_sc_hd__nand3_1
*I *2107:B I *D sky130_fd_sc_hd__and4_1
*I *2108:A1 I *D sky130_fd_sc_hd__a31o_1
*I *2421:A I *D sky130_fd_sc_hd__dlygate4sd3_1
*I *2105:B1 I *D sky130_fd_sc_hd__a21o_1
*I *2319:Q O *D sky130_fd_sc_hd__dfxtp_1
*CAP
1 *2038:A2 8.38392e-05
2 *2104:A 0.000603799
3 *2107:B 0
4 *2108:A1 0
5 *2421:A 0.000201279
6 *2105:B1 0.000238663
7 *2319:Q 0
8 *507:48 0.000799634
9 *507:27 0.000320427
10 *507:19 0.000153695
11 *507:17 0.000227567
12 *507:4 0.000319687
13 *2038:A2 *2048:A1 1.14452e-05
14 *2038:A2 *508:34 0.000187335
15 *2038:A2 *611:64 3.55887e-05
16 *2105:B1 *584:12 0.00030335
17 *2421:A *2109:C 0.000272448
18 *507:17 *2107:A 5.50049e-05
19 *507:17 *584:12 0.000313244
20 *507:19 *508:23 2.55642e-05
21 *507:19 *508:34 3.47781e-05
22 *507:27 *2109:C 2.93845e-05
23 *507:27 *508:23 4.03799e-05
24 *507:48 *508:34 0.000181934
25 *2107:C *507:17 8.06804e-06
26 *2107:D *507:19 1.14452e-05
27 *2107:D *507:27 0.000165583
28 *2109:A_N *507:19 0
29 *2319:D *2105:B1 1.64354e-05
30 *388:23 *2038:A2 0
31 *388:23 *507:48 0
32 *506:69 *2105:B1 0.000532885
33 *506:69 *507:17 6.0606e-05
34 *506:79 *507:27 0.000110913
*RES
1 *2319:Q *507:4 23 
2 *507:4 *2105:B1 32.57 
3 *507:4 *507:17 18.48 
4 *507:17 *507:19 0.849286 
5 *507:19 *507:27 18.3764 
6 *507:27 *2421:A 28.3857 
7 *507:27 *2108:A1 23 
8 *507:19 *2107:B 38 
9 *507:17 *507:48 2.61 
10 *507:48 *2104:A 48.6264 
11 *507:48 *2038:A2 40.61 
*END

*D_NET *508 0.00564739
*CONN
*I *2415:A I *D sky130_fd_sc_hd__dlygate4sd3_1
*I *2048:A1 I *D sky130_fd_sc_hd__o211a_1
*I *2038:A1 I *D sky130_fd_sc_hd__o211ai_1
*I *2107:A I *D sky130_fd_sc_hd__and4_1
*I *2108:B1 I *D sky130_fd_sc_hd__a31o_1
*I *2320:Q O *D sky130_fd_sc_hd__dfxtp_1
*CAP
1 *2415:A 0.000182095
2 *2048:A1 0.000303157
3 *2038:A1 0
4 *2107:A 3.02249e-05
5 *2108:B1 0
6 *2320:Q 0
7 *508:34 0.000527287
8 *508:23 0.000437717
9 *508:10 0.000840499
10 *508:4 0.000839232
11 *2048:A1 *2016:A 0.00039759
12 *2048:A1 *606:137 3.55887e-05
13 *2048:A1 *610:18 0
14 *2048:A1 *611:64 7.4878e-05
15 *2415:A *607:63 5.70419e-05
16 *2415:A *607:70 0.000234159
17 *2415:A *611:83 3.34247e-05
18 *2038:A2 *2048:A1 1.14452e-05
19 *2038:A2 *508:34 0.000187335
20 *2107:C *2107:A 3.7122e-06
21 *151:6 *2048:A1 0
22 *468:49 *2415:A 0.000484539
23 *468:49 *508:10 0.000246682
24 *499:18 *508:10 0.000141954
25 *499:92 *508:10 3.65571e-05
26 *506:69 *2107:A 1.59094e-05
27 *506:79 *508:10 2.5343e-05
28 *506:79 *508:23 0.000163352
29 *507:17 *2107:A 5.50049e-05
30 *507:19 *508:23 2.55642e-05
31 *507:19 *508:34 3.47781e-05
32 *507:27 *508:23 4.03799e-05
33 *507:48 *508:34 0.000181934
*RES
1 *2320:Q *508:4 23 
2 *508:4 *508:10 25.6264 
3 *508:10 *2108:B1 38 
4 *508:10 *508:23 4.08071 
5 *508:23 *2107:A 38.6214 
6 *508:23 *508:34 5.42714 
7 *508:34 *2038:A1 38 
8 *508:34 *2048:A1 45.8921 
9 *508:4 *2415:A 30.1879 
*END

*D_NET *509 0.0103357
*CONN
*I *2111:A I *D sky130_fd_sc_hd__or2_1
*I *2110:A I *D sky130_fd_sc_hd__and2_1
*I *2113:B I *D sky130_fd_sc_hd__and3_1
*I *2037:D I *D sky130_fd_sc_hd__and4_1
*I *2125:B I *D sky130_fd_sc_hd__and4_1
*I *2048:A2 I *D sky130_fd_sc_hd__o211a_1
*I *2015:A I *D sky130_fd_sc_hd__and3_1
*I *2052:B I *D sky130_fd_sc_hd__or2_1
*I *2321:Q O *D sky130_fd_sc_hd__dfxtp_1
*CAP
1 *2111:A 0.000201722
2 *2110:A 0.000159929
3 *2113:B 0
4 *2037:D 0
5 *2125:B 0
6 *2048:A2 0
7 *2015:A 0
8 *2052:B 0
9 *2321:Q 0.000142346
10 *509:74 0.000157662
11 *509:61 0.000321281
12 *509:48 0.00082306
13 *509:36 0.00120134
14 *509:26 0.00115588
15 *509:16 0.000489522
16 *509:14 0.00041159
17 *509:10 0.00040487
18 *2110:A *510:22 0.000102488
19 *2111:A *602:33 0
20 *509:10 *602:33 4.37586e-06
21 *509:26 *2047:B 5.41385e-05
22 *509:26 *511:35 0.00026338
23 *509:26 *512:38 9.48381e-06
24 *509:26 *514:31 0
25 *509:26 *621:52 0
26 *509:36 *2037:A 0.000140259
27 *509:36 *2047:B 4.79544e-05
28 *509:36 *2047:D 0.000269781
29 *509:36 *510:57 0.000480236
30 *509:36 *510:59 8.52481e-05
31 *509:36 *514:18 0.000141954
32 *509:36 *557:18 7.74585e-05
33 *509:36 *621:52 0.000133278
34 *509:48 *2052:A 9.84794e-05
35 *509:48 *510:59 0.000267173
36 *509:48 *607:53 5.94125e-05
37 *509:61 *2015:C 8.72445e-05
38 *509:61 *611:64 5.50049e-05
39 *2114:B *2111:A 5.50106e-05
40 *2115:A_N *2110:A 0.000139357
41 *2115:A_N *509:16 5.50106e-05
42 *2121:A_N *509:26 0
43 *2294:D *509:36 4.6318e-06
44 *227:8 *509:10 1.59094e-05
45 *327:8 *509:36 2.9938e-05
46 *328:8 *509:61 0.000144904
47 *328:8 *509:74 0
48 *336:26 *509:74 0.000134415
49 *337:8 *509:74 3.56537e-05
50 *388:29 *509:48 1.01436e-05
51 *388:42 *509:36 0.000191157
52 *390:10 *509:14 0
53 *390:10 *509:16 4.04303e-05
54 *390:10 *509:26 1.24376e-05
55 *391:10 *2111:A 0.000160062
56 *391:10 *509:14 6.07611e-06
57 *392:6 *509:16 0.000141954
58 *397:8 *509:26 0.000401106
59 *400:14 *509:48 3.59635e-05
60 *400:14 *509:61 0.000308952
61 *400:55 *509:36 0.000222785
62 *400:55 *509:48 0.00014196
63 *465:135 *509:36 0
64 *468:148 *2111:A 0.000117254
65 *468:148 *509:14 8.4047e-05
*RES
1 *2321:Q *509:10 39.7193 
2 *509:10 *509:14 16.2014 
3 *509:14 *509:16 3.00357 
4 *509:16 *509:26 38.3893 
5 *509:26 *509:36 49.1607 
6 *509:36 *509:48 36.4007 
7 *509:48 *2052:B 23 
8 *509:48 *509:61 37.4986 
9 *509:61 *2015:A 23 
10 *509:48 *509:74 32.8793 
11 *509:74 *2048:A2 23 
12 *509:36 *2125:B 23 
13 *509:26 *2037:D 23 
14 *509:16 *2113:B 23 
15 *509:14 *2110:A 26.5214 
16 *509:10 *2111:A 41.9357 
*END

*D_NET *510 0.0127684
*CONN
*I *2125:A I *D sky130_fd_sc_hd__and4_1
*I *2016:A I *D sky130_fd_sc_hd__and3_1
*I *2048:C1 I *D sky130_fd_sc_hd__o211a_1
*I *2052:A I *D sky130_fd_sc_hd__or2_1
*I *2114:A I *D sky130_fd_sc_hd__or2_1
*I *2113:A I *D sky130_fd_sc_hd__and3_1
*I *2037:C I *D sky130_fd_sc_hd__and4_1
*I *2322:Q O *D sky130_fd_sc_hd__dfxtp_1
*CAP
1 *2125:A 0
2 *2016:A 0.000337953
3 *2048:C1 0
4 *2052:A 2.01797e-05
5 *2114:A 0
6 *2113:A 0
7 *2037:C 0.000322642
8 *2322:Q 0.000850449
9 *510:72 0.000454732
10 *510:59 0.00028837
11 *510:57 0.00104635
12 *510:40 0.000988227
13 *510:22 0.000750473
14 *510:8 0.000521124
15 *510:6 0.000850449
16 *2037:C *2037:A 0.000143655
17 *2037:C *511:35 0.000161287
18 *510:22 *511:35 0.000182826
19 *510:22 *602:33 0.000300108
20 *510:57 *2123:A 0.000233116
21 *510:57 *2124:A 5.3304e-05
22 *510:57 *514:18 6.07272e-05
23 *510:57 *529:10 0.000426025
24 *510:57 *557:18 0.000889367
25 *510:59 *529:10 5.3304e-05
26 *510:72 *607:53 7.81176e-05
27 *2048:A1 *2016:A 0.00039759
28 *2110:A *510:22 0.000102488
29 *2110:B *2037:C 0
30 *2110:B *510:22 0.000241616
31 *2111:B *510:57 2.02872e-05
32 *2114:B *510:57 0.000446281
33 *2115:A_N *510:22 5.82395e-05
34 *2115:B *510:22 3.7122e-06
35 *2123:B *510:57 0.000272377
36 *2124:C *510:57 0.000128533
37 *2322:CLK *510:6 2.4754e-05
38 *2322:D *510:6 4.87572e-05
39 *336:16 *2016:A 6.29487e-05
40 *336:26 *510:72 6.4755e-05
41 *388:57 *510:22 6.25714e-05
42 *390:10 *510:22 2.32101e-05
43 *392:6 *510:22 6.72872e-05
44 *393:8 *510:22 0.000105154
45 *393:8 *510:40 4.08641e-05
46 *400:14 *2052:A 9.84794e-05
47 *400:14 *510:59 9.67842e-05
48 *400:55 *510:59 1.41129e-05
49 *468:148 *510:6 0.000443679
50 *509:36 *510:57 0.000480236
51 *509:36 *510:59 8.52481e-05
52 *509:48 *2052:A 9.84794e-05
53 *509:48 *510:59 0.000267173
*RES
1 *2322:Q *510:6 35.5321 
2 *510:6 *510:8 15 
3 *510:8 *510:22 27.47 
4 *510:22 *2037:C 28.4064 
5 *510:22 *2113:A 23 
6 *510:8 *510:40 16.5536 
7 *510:40 *2114:A 23 
8 *510:40 *510:57 26.3279 
9 *510:57 *510:59 3.95643 
10 *510:59 *2052:A 24.0979 
11 *510:59 *510:72 32.2579 
12 *510:72 *2048:C1 23 
13 *510:72 *2016:A 29.8357 
14 *510:57 *2125:A 23 
*END

*D_NET *511 0.00452338
*CONN
*I *2419:A I *D sky130_fd_sc_hd__dlygate4sd3_1
*I *2116:A I *D sky130_fd_sc_hd__nand2_1
*I *2119:A1 I *D sky130_fd_sc_hd__a21o_1
*I *2037:B I *D sky130_fd_sc_hd__and4_1
*I *2047:B I *D sky130_fd_sc_hd__and4_1
*I *2117:A I *D sky130_fd_sc_hd__or2_1
*I *2323:Q O *D sky130_fd_sc_hd__dfxtp_1
*CAP
1 *2419:A 0
2 *2116:A 0.0001456
3 *2119:A1 0
4 *2037:B 0
5 *2047:B 6.89731e-05
6 *2117:A 0.00012373
7 *2323:Q 8.5255e-05
8 *511:35 0.000569062
9 *511:25 0.000654413
10 *511:23 0.000412056
11 *511:10 0.000235861
12 *511:8 8.5255e-05
13 *2047:B *2037:A 0.000226306
14 *2116:A *2119:B1 0
15 *2117:A *2118:A 0
16 *511:23 *2118:A 0
17 *511:35 *2037:A 8.6949e-05
18 *511:35 *2119:B1 6.17437e-06
19 *511:35 *512:18 4.6318e-06
20 *2037:C *511:35 0.000161287
21 *2116:B *2116:A 0.00010018
22 *2116:B *511:25 6.53382e-05
23 *2117:B *2117:A 7.66188e-05
24 *2117:B *511:23 4.98718e-06
25 *2117:B *511:35 1.97329e-05
26 *2121:A_N *511:35 0
27 *2323:CLK *511:8 0.00014196
28 *230:8 *511:35 8.41012e-05
29 *327:8 *2047:B 0.000143655
30 *388:57 *511:35 1.62015e-05
31 *390:10 *511:35 9.84794e-05
32 *392:10 *511:35 0.000135682
33 *394:10 *2116:A 1.24376e-05
34 *396:10 *511:35 3.49587e-05
35 *397:8 *2047:B 2.80394e-05
36 *468:138 *511:35 1.06693e-05
37 *468:148 *511:23 0.000136486
38 *509:26 *2047:B 5.41385e-05
39 *509:26 *511:35 0.00026338
40 *509:36 *2047:B 4.79544e-05
41 *510:22 *511:35 0.000182826
*RES
1 *2323:Q *511:8 25.0714 
2 *511:8 *511:10 15 
3 *511:10 *2117:A 40.9621 
4 *511:10 *511:23 17.2579 
5 *511:23 *511:25 2.05071 
6 *511:25 *511:35 43.92 
7 *511:35 *2047:B 26.48 
8 *511:35 *2037:B 23 
9 *511:25 *2119:A1 23 
10 *511:23 *2116:A 26.045 
11 *511:8 *2419:A 23 
*END

*D_NET *512 0.00341764
*CONN
*I *2037:A I *D sky130_fd_sc_hd__and4_1
*I *2047:A I *D sky130_fd_sc_hd__and4_1
*I *2119:B1 I *D sky130_fd_sc_hd__a21o_1
*I *2408:A I *D sky130_fd_sc_hd__dlygate4sd3_1
*I *2324:Q O *D sky130_fd_sc_hd__dfxtp_1
*CAP
1 *2037:A 6.59437e-05
2 *2047:A 0
3 *2119:B1 0.000105555
4 *2408:A 0
5 *2324:Q 0
6 *512:38 0.000319274
7 *512:18 0.000112259
8 *512:12 0.0008614
9 *512:6 0.000896916
10 *512:12 *621:54 0
11 *512:12 *621:56 0
12 *512:38 *621:52 0
13 *2037:C *2037:A 0.000143655
14 *2047:B *2037:A 0.000226306
15 *2116:A *2119:B1 0
16 *2117:B *512:18 0
17 *2324:D *2119:B1 5.15762e-05
18 *2324:D *512:12 0.000168171
19 *468:130 *512:12 8.26032e-05
20 *468:130 *512:38 0
21 *468:138 *512:18 0.000136486
22 *509:26 *512:38 9.48381e-06
23 *509:36 *2037:A 0.000140259
24 *511:35 *2037:A 8.6949e-05
25 *511:35 *2119:B1 6.17437e-06
26 *511:35 *512:18 4.6318e-06
*RES
1 *2324:Q *512:6 38 
2 *512:6 *512:12 24.6736 
3 *512:12 *512:18 32.2579 
4 *512:18 *2408:A 23 
5 *512:12 *2119:B1 25.0921 
6 *512:6 *512:38 19.3707 
7 *512:38 *2047:A 23 
8 *512:38 *2037:A 26.48 
*END

*D_NET *513 0.00991188
*CONN
*I *2122:A I *D sky130_fd_sc_hd__nand2_1
*I *2123:A I *D sky130_fd_sc_hd__or2_1
*I *2423:A I *D sky130_fd_sc_hd__dlygate4sd3_1
*I *2038:B1 I *D sky130_fd_sc_hd__o211ai_1
*I *2047:D I *D sky130_fd_sc_hd__and4_1
*I *2325:Q O *D sky130_fd_sc_hd__dfxtp_1
*CAP
1 *2122:A 0.000602369
2 *2123:A 0.000215191
3 *2423:A 0
4 *2038:B1 0.000313436
5 *2047:D 0.0002295
6 *2325:Q 0
7 *513:43 0.000890494
8 *513:12 0.000822944
9 *513:10 0.000803489
10 *513:4 0.000596415
11 *2038:B1 *2020:B 2.93845e-05
12 *2038:B1 *611:64 1.41077e-05
13 *2047:D *529:10 5.94125e-05
14 *2047:D *557:10 5.94125e-05
15 *2122:A *602:8 0.000183733
16 *2123:A *2124:A 5.3304e-05
17 *2123:A *514:18 9.84851e-05
18 *2123:A *514:31 8.52481e-05
19 *2123:A *557:18 0.00016164
20 *2123:A *602:14 0
21 *2123:A *621:52 0.000165593
22 *513:10 *2053:C 8.62783e-05
23 *513:12 *2053:C 0.000129513
24 *513:12 *529:10 0.000339242
25 *513:12 *557:10 0.00047796
26 *513:12 *607:53 0
27 *513:43 *2127:C 0
28 *513:43 *621:52 0.000130433
29 *2038:C1 *2038:B1 0.000740181
30 *2038:C1 *2047:D 0.000438462
31 *2124:C *2123:A 0.000128533
32 *2325:CLK *2122:A 8.50506e-05
33 *2325:D *2122:A 7.41756e-05
34 *2328:CLK *513:10 0.000600233
35 *155:8 *2047:D 0.000394988
36 *327:8 *2047:D 0.000164364
37 *336:10 *2038:B1 0.000139346
38 *342:8 *513:10 2.26489e-05
39 *342:8 *513:12 2.76611e-06
40 *398:8 *2122:A 3.58687e-05
41 *469:14 *513:43 3.47781e-05
42 *509:36 *2047:D 0.000269781
43 *510:57 *2123:A 0.000233116
*RES
1 *2325:Q *513:4 23 
2 *513:4 *513:10 23.0164 
3 *513:10 *513:12 8.24429 
4 *513:12 *2047:D 47.0936 
5 *513:12 *2038:B1 46.7207 
6 *513:10 *2423:A 38 
7 *513:4 *513:43 16.9057 
8 *513:43 *2123:A 45.6436 
9 *513:43 *2122:A 47.5907 
*END

*D_NET *514 0.00606625
*CONN
*I *2042:A I *D sky130_fd_sc_hd__or3b_1
*I *1936:A I *D sky130_fd_sc_hd__inv_2
*I *2047:C I *D sky130_fd_sc_hd__and4_1
*I *2417:A I *D sky130_fd_sc_hd__dlygate4sd3_1
*I *2326:Q O *D sky130_fd_sc_hd__dfxtp_1
*CAP
1 *2042:A 0.000688487
2 *1936:A 1.80505e-05
3 *2047:C 0
4 *2417:A 0
5 *2326:Q 0.000712213
6 *514:31 0.000378208
7 *514:18 0.000671424
8 *514:12 0.000444752
9 *514:10 0.00153419
10 *2042:A *2127:C 5.50049e-05
11 *514:10 *2127:C 1.60429e-05
12 *514:10 *621:52 0
13 *514:18 *557:18 0.000193739
14 *514:18 *621:52 0
15 *514:31 *557:18 5.41288e-05
16 *514:31 *602:14 4.92689e-05
17 *514:31 *602:20 0.000110913
18 *514:31 *621:52 0
19 *2041:B *2042:A 2.02872e-05
20 *2053:A *2042:A 0.000134601
21 *2123:A *514:18 9.84851e-05
22 *2123:A *514:31 8.52481e-05
23 *2326:CLK *514:10 8.46456e-05
24 *2326:D *514:10 1.32939e-05
25 *2328:CLK *1936:A 5.50049e-05
26 *2383:A *1936:A 2.93747e-05
27 *275:18 *2042:A 0.000181131
28 *275:29 *514:10 5.19276e-05
29 *275:29 *514:12 7.10099e-05
30 *275:29 *514:18 4.6318e-06
31 *329:42 *2042:A 6.96028e-05
32 *383:29 *2042:A 2.64616e-05
33 *401:8 *514:10 1.14452e-05
34 *465:135 *514:18 0
35 *509:26 *514:31 0
36 *509:36 *514:18 0.000141954
37 *510:57 *514:18 6.07272e-05
*RES
1 *2326:Q *514:10 47.7979 
2 *514:10 *514:12 2.25786 
3 *514:12 *514:18 21.9186 
4 *514:18 *2417:A 23 
5 *514:18 *514:31 37.2293 
6 *514:31 *2047:C 23 
7 *514:12 *1936:A 38.6214 
8 *514:10 *2042:A 49.7864 
*END

*D_NET *515 0.000994628
*CONN
*I *2067:A I *D sky130_fd_sc_hd__or2_1
*I *2433:X O *D sky130_fd_sc_hd__clkbuf_1
*CAP
1 *2067:A 0
2 *2433:X 0.00048117
3 *515:10 0.00048117
4 *733:DIODE *515:10 3.22879e-05
5 *8:11 *515:10 0
*RES
1 *2433:X *515:10 45.6021 
2 *515:10 *2067:A 38 
*END

*D_NET *516 0.000405697
*CONN
*I *2067:B I *D sky130_fd_sc_hd__or2_1
*I *2434:X O *D sky130_fd_sc_hd__clkbuf_1
*CAP
1 *2067:B 9.55744e-05
2 *2434:X 7.94589e-05
3 *516:8 0.000175033
4 *15:11 *516:8 5.56306e-05
5 *353:10 *516:8 0
*RES
1 *2434:X *516:8 39.5536 
2 *516:8 *2067:B 39.5743 
*END

*D_NET *517 0.000946034
*CONN
*I *2312:D I *D sky130_fd_sc_hd__dfrtp_1
*I *2405:X O *D sky130_fd_sc_hd__dlygate4sd3_1
*CAP
1 *2312:D 0
2 *2405:X 0.000247833
3 *517:10 0.000247833
4 *517:10 *637:29 0.000141869
5 *2312:CLK *517:10 3.87236e-05
6 *470:54 *517:10 0.000269775
*RES
1 *2405:X *517:10 42.9093 
2 *517:10 *2312:D 38 
*END

*D_NET *518 0.00161941
*CONN
*I *2023:A I *D sky130_fd_sc_hd__and3_1
*I *2406:X O *D sky130_fd_sc_hd__dlygate4sd3_1
*CAP
1 *2023:A 6.41733e-05
2 *2406:X 0.000414144
3 *518:10 0.000478317
4 *2023:A *617:54 0.000228585
5 *518:10 *2024:B 0.000110913
6 *2289:D *518:10 0.000199587
7 *467:25 *2023:A 0.000123693
*RES
1 *2406:X *518:10 44.9393 
2 *518:10 *2023:A 40.5271 
*END

*D_NET *519 0.00264481
*CONN
*I *2025:A I *D sky130_fd_sc_hd__and3_1
*I *2407:X O *D sky130_fd_sc_hd__dlygate4sd3_1
*CAP
1 *2025:A 0.000335483
2 *2407:X 0.000554769
3 *519:10 0.000890252
4 *2025:A *2486:A 2.39868e-05
5 *2025:A *584:22 1.26794e-05
6 *2141:B *519:10 8.4047e-05
7 *2331:CLK *2025:A 2.64616e-05
8 *2331:D *2025:A 0.00014884
9 *2367:A *519:10 0.000130341
10 *2407:A *519:10 0.000355023
11 *237:10 *519:10 8.29264e-05
*RES
1 *2407:X *519:10 46.9693 
2 *519:10 *2025:A 42.7332 
*END

*D_NET *520 0.000296392
*CONN
*I *2018:A I *D sky130_fd_sc_hd__and3_1
*I *2408:X O *D sky130_fd_sc_hd__dlygate4sd3_1
*CAP
1 *2018:A 0
2 *2408:X 0.000148196
3 *520:8 0.000148196
4 *152:10 *520:8 0
*RES
1 *2408:X *520:8 40.61 
2 *520:8 *2018:A 38 
*END

*D_NET *521 0.000728516
*CONN
*I *1933:A I *D sky130_fd_sc_hd__inv_2
*I *2409:X O *D sky130_fd_sc_hd__dlygate4sd3_1
*CAP
1 *1933:A 0
2 *2409:X 0.000186788
3 *521:10 0.000186788
4 *521:10 *621:34 4.90891e-05
5 *521:10 *651:87 0.000140259
6 *430:10 *521:10 0.000165593
*RES
1 *2409:X *521:10 41.8321 
2 *521:10 *1933:A 38 
*END

*D_NET *522 0.00427248
*CONN
*I *2009:A I *D sky130_fd_sc_hd__and3_1
*I *2216:B1 I *D sky130_fd_sc_hd__a21oi_1
*I *2410:X O *D sky130_fd_sc_hd__dlygate4sd3_1
*CAP
1 *2009:A 0
2 *2216:B1 0
3 *2410:X 5.67095e-05
4 *522:25 0.000316194
5 *522:14 0.00105993
6 *522:6 0.00143283
7 *522:25 *537:16 0
8 *2179:A *522:14 0.000110922
9 *2283:CLK *522:25 0
10 *2410:A *522:6 3.7122e-06
11 *438:14 *522:14 0.000198196
12 *484:8 *522:25 9.03784e-05
13 *484:14 *522:6 1.21972e-05
14 *484:14 *522:14 2.25809e-05
15 *485:14 *522:14 0.000699309
16 *485:42 *522:14 0.000224605
17 *485:42 *522:25 3.47781e-05
18 *489:75 *522:14 1.01436e-05
*RES
1 *2410:X *522:6 23.6214 
2 *522:6 *522:14 46.4679 
3 *522:14 *2216:B1 23 
4 *522:6 *522:25 36.1314 
5 *522:25 *2009:A 23 
*END

*D_NET *523 0.00125118
*CONN
*I *1931:A I *D sky130_fd_sc_hd__inv_2
*I *2411:X O *D sky130_fd_sc_hd__dlygate4sd3_1
*CAP
1 *1931:A 0.000250911
2 *2411:X 8.82946e-05
3 *523:8 0.000339206
4 *523:8 *537:31 0
5 *263:14 *1931:A 0.000259429
6 *473:67 *1931:A 0.000143655
7 *485:10 *523:8 0.000169683
8 *485:42 *523:8 0
*RES
1 *2411:X *523:8 40.2579 
2 *523:8 *1931:A 43.8621 
*END

*D_NET *524 0.000928989
*CONN
*I *2026:A I *D sky130_fd_sc_hd__and3_1
*I *2412:X O *D sky130_fd_sc_hd__dlygate4sd3_1
*CAP
1 *2026:A 0
2 *2412:X 0.000297189
3 *524:10 0.000297189
4 *524:10 *600:44 3.22051e-05
5 *2144:B *524:10 0.000100069
6 *146:10 *524:10 0.000109914
7 *238:10 *524:10 5.56356e-05
8 *412:10 *524:10 3.67885e-05
*RES
1 *2412:X *524:10 43.8621 
2 *524:10 *2026:A 38 
*END

*D_NET *525 0.000559995
*CONN
*I *2181:A1 I *D sky130_fd_sc_hd__a21oi_1
*I *2413:X O *D sky130_fd_sc_hd__dlygate4sd3_1
*CAP
1 *2181:A1 0.000107693
2 *2413:X 5.94923e-05
3 *525:8 0.000167185
4 *323:16 *2181:A1 0.000139346
5 *471:36 *525:8 0
6 *471:42 *525:8 8.62783e-05
*RES
1 *2413:X *525:8 39.2014 
2 *525:8 *2181:A1 39.5743 
*END

*D_NET *526 0.000257396
*CONN
*I *2014:A I *D sky130_fd_sc_hd__and3_1
*I *2415:X O *D sky130_fd_sc_hd__dlygate4sd3_1
*CAP
1 *2014:A 3.28208e-05
2 *2415:X 3.28208e-05
3 *2014:A *611:83 9.5877e-05
4 *468:49 *2014:A 9.5877e-05
*RES
1 *2415:X *2014:A 47.0979 
*END

*D_NET *527 0.000696763
*CONN
*I *2088:A I *D sky130_fd_sc_hd__or4_1
*I *2435:X O *D sky130_fd_sc_hd__clkbuf_1
*CAP
1 *2088:A 0
2 *2435:X 0.000274924
3 *527:14 0.000274924
4 *724:DIODE *527:14 5.67058e-05
5 *2088:D *527:14 9.02098e-05
*RES
1 *2435:X *527:14 28.6964 
2 *527:14 *2088:A 23 
*END

*D_NET *528 0.00123499
*CONN
*I *2146:A I *D sky130_fd_sc_hd__or2_1
*I *2416:X O *D sky130_fd_sc_hd__dlygate4sd3_1
*CAP
1 *2146:A 0
2 *2416:X 0.000568255
3 *528:6 0.000568255
4 *528:6 *672:DIODE 9.84794e-05
*RES
1 *2416:X *528:6 32.6736 
2 *528:6 *2146:A 23 
*END

*D_NET *529 0.00278224
*CONN
*I *2020:A I *D sky130_fd_sc_hd__and3_1
*I *2417:X O *D sky130_fd_sc_hd__dlygate4sd3_1
*CAP
1 *2020:A 7.83777e-05
2 *2417:X 0.000542217
3 *529:10 0.000620594
4 *2020:A *2020:C 2.17658e-05
5 *2020:A *611:64 9.84794e-05
6 *529:10 *607:63 1.02561e-05
7 *2038:C1 *2020:A 0.000269775
8 *2047:D *529:10 5.94125e-05
9 *2125:C *529:10 8.51432e-05
10 *155:8 *2020:A 9.84851e-05
11 *336:10 *529:10 7.91596e-05
12 *510:57 *529:10 0.000426025
13 *510:59 *529:10 5.3304e-05
14 *513:12 *529:10 0.000339242
*RES
1 *2417:X *529:10 48.8129 
2 *529:10 *2020:A 41.0036 
*END

*D_NET *530 0.000469441
*CONN
*I *2022:A I *D sky130_fd_sc_hd__and3_1
*I *2418:X O *D sky130_fd_sc_hd__dlygate4sd3_1
*CAP
1 *2022:A 6.91015e-05
2 *2418:X 6.91015e-05
3 *2022:A *610:95 0.0002263
4 *2406:A *2022:A 7.15126e-05
5 *150:14 *2022:A 3.34247e-05
*RES
1 *2418:X *2022:A 48.5271 
*END

*D_NET *531 0.00165253
*CONN
*I *2017:A I *D sky130_fd_sc_hd__and3_1
*I *2419:X O *D sky130_fd_sc_hd__dlygate4sd3_1
*CAP
1 *2017:A 0.000168676
2 *2419:X 0.000459561
3 *531:8 0.000628237
4 *2017:A *621:64 0
5 *531:8 *621:100 0.000314255
6 *152:10 *2017:A 0
7 *468:138 *531:8 8.1796e-05
*RES
1 *2419:X *531:8 48.15 
2 *531:8 *2017:A 40.9621 
*END

*D_NET *532 0.000413602
*CONN
*I *2152:A2 I *D sky130_fd_sc_hd__o31a_1
*I *2420:X O *D sky130_fd_sc_hd__dlygate4sd3_1
*CAP
1 *2152:A2 5.42076e-05
2 *2420:X 5.42076e-05
3 *2152:A2 *677:DIODE 2.32004e-05
4 *2152:A2 *1969:B2 4.5051e-05
5 *2152:A2 *2152:B1 9.75779e-05
6 *413:6 *2152:A2 0.000139357
*RES
1 *2420:X *2152:A2 48.0507 
*END

*D_NET *533 0.00139577
*CONN
*I *2013:A I *D sky130_fd_sc_hd__and3_1
*I *2421:X O *D sky130_fd_sc_hd__dlygate4sd3_1
*CAP
1 *2013:A 0.000292183
2 *2421:X 0.000119608
3 *533:8 0.000411791
4 *2013:A *2013:B 3.71251e-05
5 *2013:A *610:34 5.7657e-05
6 *533:8 *600:73 0.000110922
7 *2287:CLK *533:8 9.48381e-06
8 *147:10 *2013:A 0.000128391
9 *468:57 *2013:A 0.000137651
10 *468:72 *533:8 3.98859e-05
11 *499:18 *2013:A 1.03836e-05
12 *499:24 *2013:A 4.06849e-05
*RES
1 *2421:X *533:8 40.2579 
2 *533:8 *2013:A 45.3121 
*END

*D_NET *534 0.000941484
*CONN
*I *2007:A1 I *D sky130_fd_sc_hd__o221a_1
*I *2422:X O *D sky130_fd_sc_hd__dlygate4sd3_1
*CAP
1 *2007:A1 0
2 *2422:X 0.000281851
3 *534:10 0.000281851
4 *534:10 *603:16 9.84794e-05
5 *359:18 *534:10 1.14452e-05
6 *483:33 *534:10 0.000104515
7 *489:75 *534:10 0
8 *490:65 *534:10 0.000163343
*RES
1 *2422:X *534:10 44.1729 
2 *534:10 *2007:A1 38 
*END

*D_NET *535 0.00219601
*CONN
*I *2019:A I *D sky130_fd_sc_hd__and3_1
*I *2423:X O *D sky130_fd_sc_hd__dlygate4sd3_1
*CAP
1 *2019:A 0.000458768
2 *2423:X 7.44061e-05
3 *535:8 0.000533174
4 *2019:A *2392:A 3.50281e-05
5 *535:8 *607:53 0.000141888
6 *329:42 *535:8 1.01436e-05
7 *336:26 *535:8 0
8 *341:10 *2019:A 5.70419e-05
9 *341:10 *535:8 2.01531e-05
10 *400:14 *2019:A 0.000865406
*RES
1 *2423:X *535:8 39.9057 
2 *535:8 *2019:A 48.9993 
*END

*D_NET *536 0.000593415
*CONN
*I *1982:A1 I *D sky130_fd_sc_hd__o211a_1
*I *2424:X O *D sky130_fd_sc_hd__dlygate4sd3_1
*CAP
1 *1982:A1 0.00020933
2 *2424:X 0.00020933
3 *1982:A1 *608:37 9.88574e-06
4 *1982:A1 *608:52 1.14876e-05
5 *1982:B1 *1982:A1 1.57571e-05
6 *296:25 *1982:A1 0.000137624
*RES
1 *2424:X *1982:A1 49.3764 
*END

*D_NET *537 0.00259235
*CONN
*I *2218:A1 I *D sky130_fd_sc_hd__o21ba_1
*I *2010:A I *D sky130_fd_sc_hd__and3_1
*I *2426:X O *D sky130_fd_sc_hd__dlygate4sd3_1
*CAP
1 *2218:A1 0
2 *2010:A 0
3 *2426:X 2.33857e-05
4 *537:31 0.000558802
5 *537:16 0.000574731
6 *537:6 0.00115692
7 *537:16 *613:148 6.69742e-05
8 *437:31 *537:31 0
9 *485:10 *537:16 6.6869e-05
10 *485:42 *537:6 3.22879e-05
11 *485:42 *537:16 9.40245e-05
12 *485:42 *537:31 1.83564e-05
13 *522:25 *537:16 0
14 *523:8 *537:31 0
*RES
1 *2426:X *537:6 23.6214 
2 *537:6 *537:16 40.6886 
3 *537:16 *2010:A 23 
4 *537:6 *537:31 40.2329 
5 *537:31 *2218:A1 23 
*END

*D_NET *538 0.0036199
*CONN
*I *2226:A2 I *D sky130_fd_sc_hd__o21a_1
*I *2436:X O *D sky130_fd_sc_hd__clkbuf_1
*CAP
1 *2226:A2 0
2 *2436:X 0.000505194
3 *538:14 0.0006926
4 *538:6 0.00119779
5 *538:6 *1937:A 0.000294145
6 *538:6 *622:28 0.00048975
7 *538:14 *2226:B1 5.40241e-05
8 *654:DIODE *538:6 9.84794e-05
9 *725:DIODE *538:6 3.22879e-05
10 *156:12 *538:14 0.00018523
11 *170:21 *538:6 1.24376e-05
12 *268:10 *538:14 5.79559e-05
*RES
1 *2436:X *538:6 36.0086 
2 *538:6 *538:14 42.5943 
3 *538:14 *2226:A2 23 
*END

*D_NET *539 0.000939261
*CONN
*I *1934:A I *D sky130_fd_sc_hd__inv_2
*I *2437:X O *D sky130_fd_sc_hd__clkbuf_1
*CAP
1 *1934:A 8.51879e-05
2 *2437:X 0.000221337
3 *539:8 0.000306525
4 *1934:A *552:10 0.000103647
5 *539:8 *1962:A_N 7.28526e-05
6 *730:DIODE *539:8 3.53303e-05
7 *739:DIODE *1934:A 5.67058e-05
8 *21:11 *539:8 9.86551e-06
9 *60:9 *539:8 4.78096e-05
10 *324:16 *539:8 0
*RES
1 *2437:X *539:8 42.7229 
2 *539:8 *1934:A 40.5479 
*END

*D_NET *540 0.00945536
*CONN
*I *2157:A1 I *D sky130_fd_sc_hd__o21a_1
*I *2160:C I *D sky130_fd_sc_hd__or3_1
*I *2090:A I *D sky130_fd_sc_hd__or3b_1
*I *2085:A I *D sky130_fd_sc_hd__or4b_1
*I *2155:A2 I *D sky130_fd_sc_hd__o31a_1
*I *1945:A I *D sky130_fd_sc_hd__inv_2
*I *2438:X O *D sky130_fd_sc_hd__dlymetal6s2s_1
*CAP
1 *2157:A1 0
2 *2160:C 0.000166652
3 *2090:A 0.000113632
4 *2085:A 0
5 *2155:A2 0.000406615
6 *1945:A 0
7 *2438:X 0.000255517
8 *540:69 0.000280284
9 *540:67 0.000534939
10 *540:52 0.0012279
11 *540:48 0.00084184
12 *540:27 0.000771419
13 *540:21 0.00038942
14 *540:10 0.000429016
15 *2090:A *2084:B 5.3304e-05
16 *2090:A *554:42 4.85126e-05
17 *2155:A2 *568:10 0.000139647
18 *2155:A2 *612:10 3.7122e-06
19 *2160:C *554:32 0.000215791
20 *2160:C *554:42 7.65883e-06
21 *2160:C *601:12 5.3304e-05
22 *540:10 *579:16 7.20622e-05
23 *540:10 *579:26 4.21594e-06
24 *540:10 *601:8 0
25 *540:21 *546:12 4.59027e-05
26 *540:21 *579:26 0
27 *540:21 *601:8 0
28 *540:27 *579:26 5.00493e-05
29 *540:48 *2158:A1 5.50106e-05
30 *540:52 *2156:B1 6.9805e-05
31 *540:67 *554:71 4.6318e-06
32 *540:67 *615:177 0.000480236
33 *727:DIODE *540:10 0
34 *2085:C *540:52 0.000181125
35 *2091:A2 *540:52 2.02517e-05
36 *2155:A3 *2155:A2 3.22879e-05
37 *2156:A1 *540:52 0.000400198
38 *2156:A2 *540:52 5.50106e-05
39 *2438:A *540:10 0
40 *2456:A *540:21 0
41 *2456:A *540:27 0
42 *6:11 *2155:A2 0
43 *286:63 *2160:C 2.64616e-05
44 *319:10 *2090:A 0.000188926
45 *319:10 *2160:C 0.000238194
46 *319:35 *540:67 0.000185755
47 *319:43 *540:52 9.02461e-05
48 *361:18 *540:67 0
49 *363:38 *540:52 0.000388071
50 *367:10 *540:67 0.000140259
51 *370:14 *2090:A 8.4047e-05
52 *370:14 *540:52 1.24376e-05
53 *374:8 *2155:A2 4.98718e-06
54 *374:8 *540:27 1.17152e-05
55 *374:8 *540:48 0.000192087
56 *375:8 *2155:A2 0.000111852
57 *375:8 *540:27 1.01436e-05
58 *375:12 *540:52 0.000156045
59 *375:12 *540:67 5.3304e-05
60 *378:10 *2090:A 5.50106e-05
61 *420:10 *540:67 0
62 *423:10 *540:52 9.58714e-05
*RES
1 *2438:X *540:10 43.0129 
2 *540:10 *1945:A 38 
3 *540:10 *540:21 3.58357 
4 *540:21 *540:27 4.43286 
5 *540:27 *2155:A2 46.6793 
6 *540:27 *540:48 48.7079 
7 *540:48 *540:52 16.24 
8 *540:52 *2085:A 23 
9 *540:52 *540:67 41.0821 
10 *540:67 *540:69 15 
11 *540:69 *2090:A 41.2314 
12 *540:69 *2160:C 41.9357 
13 *540:21 *2157:A1 38 
*END

*D_NET *541 0.00749448
*CONN
*I *2027:B I *D sky130_fd_sc_hd__and3_1
*I *1968:B I *D sky130_fd_sc_hd__or2_2
*I *1943:A I *D sky130_fd_sc_hd__inv_2
*I *1965:B I *D sky130_fd_sc_hd__nor2_1
*I *1967:B I *D sky130_fd_sc_hd__nor2_2
*I *2439:X O *D sky130_fd_sc_hd__clkbuf_2
*CAP
1 *2027:B 4.55529e-05
2 *1968:B 0.000146661
3 *1943:A 2.11808e-05
4 *1965:B 0.000148463
5 *1967:B 0
6 *2439:X 0.000227364
7 *541:36 0.000167842
8 *541:18 0.000367892
9 *541:12 0.00159938
10 *541:10 0.00165286
11 *1965:B *608:20 6.53382e-05
12 *1965:B *638:36 0.000196642
13 *1968:B *1968:A 0.000143655
14 *1968:B *542:82 5.50106e-05
15 *541:10 *542:10 6.7177e-06
16 *541:10 *551:10 4.60263e-05
17 *541:10 *619:64 0.000100733
18 *541:10 *622:119 0.000165918
19 *541:10 *622:121 0.00010018
20 *541:12 *542:12 5.93877e-05
21 *541:12 *542:16 7.76364e-06
22 *541:12 *542:20 7.20682e-05
23 *541:12 *542:82 2.36844e-05
24 *541:12 *551:10 5.56203e-05
25 *541:12 *604:110 0
26 *541:12 *619:64 0
27 *541:12 *619:72 0
28 *541:18 *542:20 4.4382e-05
29 *541:18 *542:61 0.000163352
30 *728:DIODE *541:10 2.30292e-05
31 *2193:A *541:12 0
32 *2439:A *541:10 1.76557e-05
33 *165:10 *541:12 0.0008593
34 *255:10 *541:12 0
35 *281:10 *1943:A 2.02872e-05
36 *281:10 *1968:B 0.000180224
37 *290:12 *541:18 0
38 *293:10 *1965:B 0.0002263
39 *307:16 *541:12 0.000185755
40 *307:16 *541:18 1.75951e-05
41 *433:8 *541:12 0
42 *446:10 *541:12 0
43 *471:108 *2027:B 2.93747e-05
44 *488:37 *1943:A 5.50106e-05
45 *488:37 *1968:B 6.07175e-05
46 *490:22 *541:12 0
47 *491:12 *541:12 0.000135557
*RES
1 *2439:X *541:10 44.3386 
2 *541:10 *541:12 31.8379 
3 *541:12 *541:18 18.9357 
4 *541:18 *1967:B 23 
5 *541:18 *1965:B 27.9507 
6 *541:12 *541:36 15 
7 *541:36 *1943:A 23.6214 
8 *541:36 *1968:B 26.9771 
9 *541:10 *2027:B 38.6214 
*END

*D_NET *542 0.0131942
*CONN
*I *2027:A I *D sky130_fd_sc_hd__and3_1
*I *1971:B I *D sky130_fd_sc_hd__and3_1
*I *1974:B I *D sky130_fd_sc_hd__and3_1
*I *1983:B I *D sky130_fd_sc_hd__and3_1
*I *1968:A I *D sky130_fd_sc_hd__or2_2
*I *1942:A I *D sky130_fd_sc_hd__inv_2
*I *1967:A I *D sky130_fd_sc_hd__nor2_2
*I *1964:A I *D sky130_fd_sc_hd__nor2_2
*I *1977:B I *D sky130_fd_sc_hd__and3_1
*I *1966:B I *D sky130_fd_sc_hd__and3_1
*I *2440:X O *D sky130_fd_sc_hd__buf_2
*CAP
1 *2027:A 0.000110894
2 *1971:B 0.000390241
3 *1974:B 0.000172294
4 *1983:B 9.60933e-05
5 *1968:A 6.47437e-05
6 *1942:A 0
7 *1967:A 0
8 *1964:A 0
9 *1977:B 0
10 *1966:B 0.00040482
11 *2440:X 0.000485576
12 *542:82 0.00029124
13 *542:74 0.000531002
14 *542:61 0.000198118
15 *542:48 0.000111427
16 *542:24 0.000450905
17 *542:22 0.000302086
18 *542:20 0.000519615
19 *542:16 0.000551273
20 *542:14 0.000391455
21 *542:12 0.00106993
22 *542:10 0.00122293
23 *1966:B *1977:C 1.89592e-05
24 *1966:B *608:65 2.62931e-05
25 *1971:B *1973:B1 4.9662e-05
26 *1971:B *608:8 0.00014196
27 *1983:B *560:36 9.20811e-05
28 *2027:A *2027:C 3.9889e-05
29 *542:10 *551:10 0.000188916
30 *542:10 *558:14 0
31 *542:10 *593:8 6.33511e-05
32 *542:10 *619:51 0.000187129
33 *542:10 *619:64 0.000269775
34 *542:12 *551:10 3.47781e-05
35 *542:74 *560:36 0.000219764
36 *542:82 *614:44 2.05503e-05
37 *1968:B *1968:A 0.000143655
38 *1968:B *542:82 5.50106e-05
39 *1973:A1 *1971:B 5.90675e-06
40 *1979:A1 *1966:B 5.50106e-05
41 *163:8 *1966:B 0.000143655
42 *165:10 *542:12 0.00133494
43 *165:10 *542:14 8.62876e-05
44 *165:10 *542:16 0.000438156
45 *280:6 *1968:A 0.000103637
46 *280:25 *1968:A 6.17437e-06
47 *281:10 *542:82 0.000134383
48 *290:12 *542:20 5.1038e-05
49 *290:12 *542:48 8.16149e-05
50 *290:18 *542:12 0.000321884
51 *290:18 *542:14 2.26489e-05
52 *290:18 *542:16 0.000150478
53 *290:18 *542:20 6.66589e-05
54 *293:10 *542:61 3.20914e-05
55 *301:12 *542:48 0
56 *307:16 *542:61 2.79064e-05
57 *307:16 *542:82 7.91102e-05
58 *323:16 *2027:A 1.24376e-05
59 *471:8 *542:12 7.81176e-05
60 *471:19 *542:12 0.000114656
61 *471:108 *2027:A 0.000180224
62 *471:108 *542:10 1.22803e-05
63 *471:108 *542:12 9.53705e-05
64 *487:40 *1974:B 2.20111e-05
65 *488:16 *542:22 1.39431e-05
66 *488:16 *542:24 2.45549e-06
67 *488:37 *1968:A 1.22822e-05
68 *488:37 *542:22 5.86556e-05
69 *488:37 *542:61 7.15126e-05
70 *488:37 *542:82 2.82066e-05
71 *490:22 *542:82 0
72 *491:6 *1971:B 5.6667e-05
73 *541:10 *542:10 6.7177e-06
74 *541:12 *542:12 5.93877e-05
75 *541:12 *542:16 7.76364e-06
76 *541:12 *542:20 7.20682e-05
77 *541:12 *542:82 2.36844e-05
78 *541:18 *542:20 4.4382e-05
79 *541:18 *542:61 0.000163352
*RES
1 *2440:X *542:10 46.9279 
2 *542:10 *542:12 20.5693 
3 *542:12 *542:14 1.20143 
4 *542:14 *542:16 6.13143 
5 *542:16 *542:20 19.3707 
6 *542:20 *542:22 2.05071 
7 *542:22 *542:24 0.621429 
8 *542:24 *1966:B 29.525 
9 *542:24 *1977:B 23 
10 *542:22 *542:48 32.2579 
11 *542:48 *1964:A 23 
12 *542:20 *542:61 33.8321 
13 *542:61 *1967:A 23 
14 *542:16 *542:74 18.6457 
15 *542:74 *542:82 34.2879 
16 *542:82 *1942:A 23 
17 *542:82 *1968:A 25.5271 
18 *542:74 *1983:B 24.5743 
19 *542:14 *1974:B 40.0507 
20 *542:12 *1971:B 45.3329 
21 *542:10 *2027:A 40.5479 
*END

*D_NET *543 0.000506218
*CONN
*I *1962:B I *D sky130_fd_sc_hd__and3b_1
*I *2441:X O *D sky130_fd_sc_hd__clkbuf_1
*CAP
1 *1962:B 0.000253109
2 *2441:X 0.000253109
*RES
1 *2441:X *1962:B 49.0036 
*END

*D_NET *544 0.000242317
*CONN
*I *2029:A I *D sky130_fd_sc_hd__and2_1
*I *2442:X O *D sky130_fd_sc_hd__clkbuf_1
*CAP
1 *2029:A 0.000105015
2 *2442:X 0.000105015
3 *731:DIODE *2029:A 3.22879e-05
*RES
1 *2442:X *2029:A 48.0714 
*END

*D_NET *545 0.00063482
*CONN
*I *2030:A I *D sky130_fd_sc_hd__and2_1
*I *2443:X O *D sky130_fd_sc_hd__clkbuf_1
*CAP
1 *2030:A 5.79493e-05
2 *2443:X 0.00012088
3 *545:8 0.00017883
4 *545:8 *1962:A_N 1.22906e-05
5 *730:DIODE *2030:A 3.22879e-05
6 *21:28 *2030:A 2.18506e-05
7 *72:26 *2030:A 9.75779e-05
8 *72:26 *545:8 0.000113153
*RES
1 *2443:X *545:8 39.9057 
2 *545:8 *2030:A 39.5743 
*END

*D_NET *546 0.0061888
*CONN
*I *2160:B I *D sky130_fd_sc_hd__or3_1
*I *2092:A1 I *D sky130_fd_sc_hd__a21bo_1
*I *2084:B I *D sky130_fd_sc_hd__nor2_1
*I *1944:A I *D sky130_fd_sc_hd__inv_2
*I *2444:X O *D sky130_fd_sc_hd__buf_1
*CAP
1 *2160:B 0.000116832
2 *2092:A1 0
3 *2084:B 0.000226467
4 *1944:A 0
5 *2444:X 0
6 *546:31 0.000467051
7 *546:23 0.0014186
8 *546:12 0.000112549
9 *546:4 0.00117373
10 *2084:B *554:42 0.000177604
11 *2084:B *621:197 3.91559e-05
12 *2160:B *601:12 2.64616e-05
13 *546:12 *601:8 8.62783e-05
14 *546:23 *601:12 0.000967268
15 *741:DIODE *546:23 0.000141954
16 *2090:A *2084:B 5.3304e-05
17 *2092:A2 *2084:B 5.50106e-05
18 *2160:A *2160:B 8.94487e-05
19 *2162:A_N *2084:B 2.18506e-05
20 *2456:A *546:12 4.21594e-06
21 *282:27 *546:23 5.50049e-05
22 *286:54 *2084:B 9.84794e-05
23 *286:69 *546:31 4.63586e-05
24 *286:93 *2160:B 8.68016e-06
25 *286:93 *546:31 1.83667e-05
26 *319:10 *546:31 0
27 *367:10 *546:31 0.000111852
28 *367:12 *546:31 3.47781e-05
29 *367:36 *2084:B 5.3304e-05
30 *370:6 *2084:B 9.16557e-05
31 *376:12 *2084:B 2.02872e-05
32 *378:10 *2084:B 6.24154e-05
33 *420:10 *546:23 5.50049e-05
34 *420:10 *546:31 0.000308924
35 *540:21 *546:12 4.59027e-05
*RES
1 *2444:X *546:4 23 
2 *546:4 *546:12 32.5271 
3 *546:12 *1944:A 23 
4 *546:4 *546:23 37.0814 
5 *546:23 *546:31 20.8414 
6 *546:31 *2084:B 28.8829 
7 *546:31 *2092:A1 23 
8 *546:23 *2160:B 40.175 
*END

*D_NET *547 0.000427132
*CONN
*I *2031:A I *D sky130_fd_sc_hd__and2_1
*I *2445:X O *D sky130_fd_sc_hd__clkbuf_1
*CAP
1 *2031:A 7.00519e-05
2 *2445:X 0.000105204
3 *547:8 0.000175255
4 *2031:A *563:14 5.70419e-05
5 *83:13 *547:8 1.95789e-05
6 *324:24 *547:8 0
*RES
1 *2445:X *547:8 39.9057 
2 *547:8 *2031:A 39.5743 
*END

*D_NET *548 0.000236044
*CONN
*I *2032:A I *D sky130_fd_sc_hd__and2_1
*I *2446:X O *D sky130_fd_sc_hd__clkbuf_1
*CAP
1 *2032:A 0
2 *2446:X 8.15958e-05
3 *548:8 8.15958e-05
4 *86:13 *548:8 0
5 *324:16 *548:8 6.67764e-05
6 *324:22 *548:8 6.07611e-06
*RES
1 *2446:X *548:8 39.9057 
2 *548:8 *2032:A 38 
*END

*D_NET *549 0.000487847
*CONN
*I *2033:A I *D sky130_fd_sc_hd__and2_1
*I *2447:X O *D sky130_fd_sc_hd__clkbuf_1
*CAP
1 *2033:A 0
2 *2447:X 0.000213258
3 *549:10 0.000213258
4 *136:10 *549:10 4.08537e-05
5 *324:22 *549:10 2.04774e-05
*RES
1 *2447:X *549:10 41.48 
2 *549:10 *2033:A 38 
*END

*D_NET *550 0.00195861
*CONN
*I *2402:A I *D sky130_fd_sc_hd__buf_2
*I *2448:X O *D sky130_fd_sc_hd__clkbuf_1
*CAP
1 *2402:A 2.53239e-05
2 *2448:X 0.000676078
3 *550:10 0.000701402
4 *2402:A *558:24 0.00014196
5 *550:10 *2399:A 8.9458e-05
6 *550:10 *564:8 5.26733e-06
7 *550:10 *619:12 3.21327e-05
8 *550:10 *622:12 8.4047e-05
9 *740:DIODE *2402:A 0.00014196
10 *2301:RESET_B *550:10 6.8403e-06
11 *471:71 *550:10 5.41385e-05
*RES
1 *2448:X *550:10 47.5493 
2 *550:10 *2402:A 39.5743 
*END

*D_NET *551 0.00108818
*CONN
*I *2027:C I *D sky130_fd_sc_hd__and3_1
*I *2449:X O *D sky130_fd_sc_hd__clkbuf_1
*CAP
1 *2027:C 2.21009e-05
2 *2449:X 0.000168839
3 *551:10 0.00019094
4 *551:10 *2494:A 0.000137651
5 *551:10 *622:119 0.000180218
6 *738:DIODE *551:10 2.32004e-05
7 *2027:A *2027:C 3.9889e-05
8 *541:10 *551:10 4.60263e-05
9 *541:12 *551:10 5.56203e-05
10 *542:10 *551:10 0.000188916
11 *542:12 *551:10 3.47781e-05
*RES
1 *2449:X *551:10 43.0129 
2 *551:10 *2027:C 38.4557 
*END

*D_NET *552 0.000954545
*CONN
*I *1962:C I *D sky130_fd_sc_hd__and3b_1
*I *2450:X O *D sky130_fd_sc_hd__clkbuf_1
*CAP
1 *1962:C 0
2 *2450:X 0.000319936
3 *552:10 0.000319936
4 *552:10 *622:14 0
5 *1934:A *552:10 0.000103647
6 *133:8 *552:10 1.14452e-05
7 *273:6 *552:10 5.27215e-06
8 *324:16 *552:10 0.000194309
9 *471:71 *552:10 0
*RES
1 *2450:X *552:10 43.6136 
2 *552:10 *1962:C 38 
*END

*D_NET *553 0.0015518
*CONN
*I *2028:A I *D sky130_fd_sc_hd__and3_1
*I *1963:A_N I *D sky130_fd_sc_hd__and2b_1
*I *2451:X O *D sky130_fd_sc_hd__clkbuf_1
*CAP
1 *2028:A 0
2 *1963:A_N 0.000178184
3 *2451:X 0.000266192
4 *553:10 0.000444376
5 *1963:A_N *1962:A_N 0
6 *553:10 *1962:A_N 0
7 *553:10 *561:10 0
8 *553:10 *622:12 5.94805e-05
9 *553:10 *622:14 0
10 *21:28 *1963:A_N 5.12254e-05
11 *131:11 *553:10 5.41288e-05
12 *137:10 *1963:A_N 6.4393e-05
13 *471:71 *1963:A_N 0.000240435
14 *471:71 *553:10 0.000193388
*RES
1 *2451:X *553:10 43.4686 
2 *553:10 *1963:A_N 42.4121 
3 *553:10 *2028:A 38 
*END

*D_NET *554 0.0160844
*CONN
*I *2005:B2 I *D sky130_fd_sc_hd__a22o_1
*I *2094:B I *D sky130_fd_sc_hd__or4_1
*I *2081:A2 I *D sky130_fd_sc_hd__a31o_1
*I *2156:B1 I *D sky130_fd_sc_hd__o21a_1
*I *2165:A1 I *D sky130_fd_sc_hd__a31o_1
*I *2085:D_N I *D sky130_fd_sc_hd__or4b_1
*I *2219:A1 I *D sky130_fd_sc_hd__o21a_1
*I *2459:A I *D sky130_fd_sc_hd__buf_2
*I *2365:A I *D sky130_fd_sc_hd__clkbuf_1
*I *1957:Y O *D sky130_fd_sc_hd__nor3_4
*CAP
1 *2005:B2 0.000361496
2 *2094:B 0.000102461
3 *2081:A2 0
4 *2156:B1 0.000189433
5 *2165:A1 0
6 *2085:D_N 0
7 *2219:A1 0
8 *2459:A 0.000164221
9 *2365:A 2.1727e-05
10 *1957:Y 0.000161727
11 *554:123 0.000588664
12 *554:96 0.000661321
13 *554:71 0.000223347
14 *554:59 0.00103002
15 *554:44 0.000334783
16 *554:42 0.00051967
17 *554:32 0.000991342
18 *554:28 0.00059638
19 *554:10 0.00122199
20 *554:6 0.00119777
21 *2365:A *2236:A 4.00259e-06
22 *2459:A *2236:A 5.69698e-05
23 *554:10 *2236:A 4.06849e-05
24 *554:10 *620:62 4.75206e-05
25 *554:10 *620:136 6.70017e-05
26 *554:42 *601:24 0
27 *554:96 *2076:A1 2.93104e-06
28 *554:96 *2155:A1 1.76232e-05
29 *1957:A *554:6 6.53382e-05
30 *1957:A *554:10 0.000178517
31 *2005:A1 *2005:B2 5.67058e-05
32 *2076:B1 *554:96 0
33 *2082:A *2156:B1 1.59312e-05
34 *2084:B *554:42 0.000177604
35 *2085:C *554:71 9.67842e-05
36 *2090:A *554:42 4.85126e-05
37 *2156:A1 *2156:B1 0.000269775
38 *2160:C *554:32 0.000215791
39 *2160:C *554:42 7.65883e-06
40 *2161:A1 *554:42 8.82318e-05
41 *2161:A1 *554:59 0
42 *2161:B1 *554:59 9.58714e-05
43 *2161:B2 *554:96 0
44 *2219:A2 *554:42 0.000136486
45 *2219:A2 *554:59 5.50106e-05
46 *2219:B1 *554:59 4.95081e-05
47 *286:54 *554:32 2.24151e-05
48 *286:54 *554:42 0.000163352
49 *286:93 *554:123 1.58186e-05
50 *295:101 *2005:B2 0.000661051
51 *316:16 *2094:B 4.45701e-05
52 *316:24 *554:10 0.000706213
53 *319:10 *554:32 0.000201076
54 *319:10 *554:42 0.000468458
55 *319:12 *554:42 6.16531e-05
56 *319:35 *554:59 4.18957e-05
57 *319:35 *554:71 2.7712e-05
58 *319:43 *2156:B1 1.01436e-05
59 *319:56 *554:96 2.85588e-05
60 *319:76 *554:32 0.000135989
61 *319:76 *554:123 4.08641e-05
62 *320:21 *554:59 4.21378e-05
63 *361:18 *554:71 6.6759e-05
64 *363:10 *554:59 2.76611e-06
65 *363:19 *554:59 4.81134e-05
66 *363:19 *554:96 1.02561e-05
67 *363:38 *554:71 0.000136486
68 *363:38 *554:96 4.6318e-06
69 *366:16 *2005:B2 0.000154147
70 *366:16 *554:32 0.000865288
71 *366:16 *554:123 0.000208809
72 *367:36 *2156:B1 7.75329e-06
73 *369:20 *554:59 0.000178517
74 *369:20 *554:71 2.24608e-05
75 *369:20 *554:96 0.000209832
76 *370:6 *554:42 5.3304e-05
77 *370:14 *554:42 3.47781e-05
78 *375:12 *2156:B1 0.000397596
79 *375:12 *554:71 9.67842e-05
80 *376:12 *554:42 0.000343928
81 *379:8 *2094:B 2.93845e-05
82 *420:10 *554:59 6.07611e-06
83 *423:10 *2156:B1 0.000138718
84 *423:10 *554:96 1.14452e-05
85 *424:10 *2156:B1 9.59112e-05
86 *424:10 *554:96 2.12234e-05
87 *461:10 *554:59 3.22879e-05
88 *480:70 *2005:B2 0
89 *480:70 *554:123 0
90 *540:52 *2156:B1 6.9805e-05
91 *540:67 *554:71 4.6318e-06
*RES
1 *1957:Y *554:6 25.0507 
2 *554:6 *554:10 21.1286 
3 *554:10 *2365:A 23.4971 
4 *554:10 *2459:A 26.5007 
5 *554:6 *554:28 15 
6 *554:28 *554:32 13.0914 
7 *554:32 *554:42 43.6093 
8 *554:42 *554:44 15 
9 *554:44 *2219:A1 23 
10 *554:44 *554:59 38.3686 
11 *554:59 *554:71 34.8264 
12 *554:71 *2085:D_N 23 
13 *554:59 *554:96 34.3175 
14 *554:96 *2165:A1 38 
15 *554:96 *2156:B1 45.395 
16 *554:32 *2081:A2 38 
17 *554:28 *554:123 2.96214 
18 *554:123 *2094:B 39.5743 
19 *554:123 *2005:B2 47.5493 
*END

*D_NET *555 0.0101862
*CONN
*I *2420:A I *D sky130_fd_sc_hd__dlygate4sd3_1
*I *1990:A1 I *D sky130_fd_sc_hd__a22o_1
*I *1953:A1 I *D sky130_fd_sc_hd__o21ba_1
*I *2460:A I *D sky130_fd_sc_hd__buf_2
*I *2339:Q O *D sky130_fd_sc_hd__dfxtp_1
*CAP
1 *2420:A 0
2 *1990:A1 0
3 *1953:A1 2.06755e-05
4 *2460:A 0.000743196
5 *2339:Q 0
6 *555:51 0.000206062
7 *555:20 0.00241915
8 *555:10 0.00249306
9 *555:4 0.00104384
10 *2460:A *1953:B1_N 4.63692e-05
11 *2460:A *2233:A 0.000834667
12 *2460:A *618:91 4.08767e-05
13 *2460:A *637:14 9.77405e-05
14 *555:10 *1975:B2 1.03836e-05
15 *555:10 *556:16 0.000149114
16 *555:10 *613:12 1.14452e-05
17 *555:10 *615:245 4.96717e-05
18 *555:20 *1972:A1 0.000135726
19 *555:20 *1972:B2 7.19269e-05
20 *555:20 *613:12 8.85189e-05
21 *555:20 *618:91 3.50671e-05
22 *555:20 *639:10 5.14746e-06
23 *555:51 *615:245 6.9805e-05
24 *1972:B1 *555:20 2.4754e-05
25 *1984:A2 *555:20 1.94522e-05
26 *2339:D *555:10 0.000102732
27 *210:10 *2460:A 1.24376e-05
28 *210:10 *555:20 8.67969e-05
29 *219:10 *2460:A 0.000270663
30 *273:34 *555:20 3.58084e-06
31 *290:12 *555:10 5.24393e-05
32 *290:12 *555:20 0.000296035
33 *292:59 *555:10 0.000106238
34 *292:59 *555:20 4.3153e-05
35 *295:43 *555:20 0.000228903
36 *309:8 *555:20 1.01436e-05
37 *491:48 *555:51 6.68793e-05
38 *492:14 *555:10 0.000289542
39 *498:81 *555:51 0
*RES
1 *2339:Q *555:4 23 
2 *555:4 *555:10 27.4286 
3 *555:10 *555:20 40.7686 
4 *555:20 *2460:A 39.8407 
5 *555:20 *1953:A1 23.4971 
6 *555:10 *1990:A1 38 
7 *555:4 *555:51 33.48 
8 *555:51 *2420:A 23 
*END

*D_NET *556 0.0151792
*CONN
*I *1946:A2 I *D sky130_fd_sc_hd__o21ba_1
*I *2461:A I *D sky130_fd_sc_hd__buf_2
*I *1999:A1 I *D sky130_fd_sc_hd__a22o_1
*I *2145:A1 I *D sky130_fd_sc_hd__o21a_1
*I *2333:Q O *D sky130_fd_sc_hd__dfxtp_1
*CAP
1 *1946:A2 0
2 *2461:A 0.00132885
3 *1999:A1 0.000131467
4 *2145:A1 0
5 *2333:Q 0.000134484
6 *556:58 0.00188266
7 *556:48 0.00200827
8 *556:33 0.00116659
9 *556:16 0.00136965
10 *556:8 0.00192348
11 *1999:A1 *1999:B1 1.21972e-05
12 *2461:A *619:29 3.3577e-05
13 *556:8 *634:63 0.000110116
14 *556:16 *615:239 0.000128723
15 *556:16 *615:245 0.000399297
16 *556:33 *615:239 9.67842e-05
17 *556:33 *620:16 7.37814e-06
18 *556:33 *620:18 0.000103093
19 *556:33 *620:20 3.96156e-05
20 *556:33 *620:26 2.96369e-05
21 *556:33 *648:48 0
22 *556:48 *1946:A1 0.000401106
23 *556:48 *1978:A1 0.00037377
24 *556:48 *634:63 7.20415e-05
25 *556:48 *651:91 0.000585337
26 *556:58 *629:8 6.70389e-05
27 *556:58 *631:10 8.32764e-05
28 *1978:A2 *556:48 9.84851e-05
29 *1992:A1 *1999:A1 6.17437e-06
30 *1999:B2 *1999:A1 5.50049e-05
31 *2073:A *556:33 0.000137238
32 *2305:D *2461:A 3.64736e-05
33 *2305:RESET_B *2461:A 5.18065e-05
34 *2316:CLK *556:33 0
35 *2338:CLK *556:33 0
36 *164:12 *556:33 0
37 *222:10 *556:33 5.36457e-05
38 *239:10 *556:16 2.93747e-05
39 *269:10 *556:48 2.18926e-05
40 *269:10 *556:58 0.000346423
41 *280:68 *1999:A1 0.000302823
42 *281:33 *1999:A1 1.14876e-05
43 *295:16 *556:48 6.36995e-05
44 *296:25 *556:33 0.000116424
45 *303:10 *556:48 1.03836e-05
46 *334:68 *556:8 0
47 *470:37 *556:48 1.24376e-05
48 *470:125 *2461:A 0.000397596
49 *472:59 *556:33 0.000210265
50 *475:12 *556:58 0.000214666
51 *492:14 *556:8 1.58805e-05
52 *492:14 *556:16 9.67842e-05
53 *492:14 *556:48 0.000176174
54 *493:52 *1999:A1 7.65379e-05
55 *498:81 *556:33 0
56 *555:10 *556:16 0.000149114
*RES
1 *2333:Q *556:8 40.9621 
2 *556:8 *556:16 23.7621 
3 *556:16 *2145:A1 23 
4 *556:16 *556:33 48.6014 
5 *556:33 *1999:A1 26.48 
6 *556:8 *556:48 47.8736 
7 *556:48 *556:58 42.7807 
8 *556:58 *2461:A 41.4979 
9 *556:48 *1946:A2 23 
*END

*D_NET *557 0.0112044
*CONN
*I *2053:C I *D sky130_fd_sc_hd__or3_1
*I *2220:B1_N I *D sky130_fd_sc_hd__a21boi_1
*I *2222:A2 I *D sky130_fd_sc_hd__o211a_1
*I *2452:X O *D sky130_fd_sc_hd__buf_1
*CAP
1 *2053:C 0.000169244
2 *2220:B1_N 9.71022e-05
3 *2222:A2 0
4 *2452:X 0.00016727
5 *557:30 0.000457321
6 *557:22 0.000874997
7 *557:18 0.00150989
8 *557:10 0.00220257
9 *557:8 0.00101128
10 *2053:C *559:19 0.000342143
11 *2053:C *607:53 0
12 *2220:B1_N *601:24 0
13 *557:8 *2463:A 2.93845e-05
14 *557:8 *582:12 2.07242e-05
15 *557:10 *559:19 0.00176191
16 *557:10 *581:10 0.000188916
17 *557:10 *607:63 0
18 *557:10 *611:76 0
19 *557:30 *641:14 0
20 *2047:D *557:10 5.94125e-05
21 *2123:A *557:18 0.00016164
22 *2222:B1 *557:30 1.14452e-05
23 *4:9 *557:8 9.84851e-05
24 *4:9 *557:10 1.19796e-05
25 *148:8 *557:10 0
26 *189:10 *557:10 5.90251e-05
27 *342:8 *2053:C 0
28 *400:55 *557:18 4.67488e-05
29 *462:31 *557:30 0
30 *463:16 *2220:B1_N 0
31 *463:16 *557:30 1.44813e-05
32 *463:29 *557:30 0
33 *509:36 *557:18 7.74585e-05
34 *510:57 *557:18 0.000889367
35 *513:10 *2053:C 8.62783e-05
36 *513:12 *2053:C 0.000129513
37 *513:12 *557:10 0.00047796
38 *514:18 *557:18 0.000193739
39 *514:31 *557:18 5.41288e-05
*RES
1 *2452:X *557:8 40.5271 
2 *557:8 *557:10 24.4429 
3 *557:10 *557:18 37.2264 
4 *557:18 *557:22 21.1314 
5 *557:22 *557:30 36.6907 
6 *557:30 *2222:A2 38 
7 *557:22 *2220:B1_N 39.9057 
8 *557:10 *2053:C 42.7229 
*END

*D_NET *558 0.00601494
*CONN
*I *2462:A I *D sky130_fd_sc_hd__buf_2
*I *1961:Y O *D sky130_fd_sc_hd__inv_2
*CAP
1 *2462:A 0
2 *1961:Y 0.000344917
3 *558:24 0.00123392
4 *558:20 0.00145848
5 *558:14 0.000569474
6 *558:14 *593:8 0
7 *558:14 *604:99 0
8 *558:20 *619:49 0.000424538
9 *558:20 *619:51 0.000120857
10 *558:20 *622:119 0.000229104
11 *558:24 *2468:A 9.91895e-05
12 *558:24 *619:19 0.000180165
13 *558:24 *619:49 0.000384967
14 *740:DIODE *558:24 0.000216766
15 *2402:A *558:24 0.00014196
16 *2440:A *558:20 9.75779e-05
17 *17:10 *558:24 0.00010018
18 *26:8 *558:24 2.80394e-05
19 *131:11 *558:24 0.000128401
20 *173:8 *558:14 0.000199701
21 *471:36 *558:14 5.67058e-05
22 *471:108 *558:14 0
23 *542:10 *558:14 0
*RES
1 *1961:Y *558:14 44.1107 
2 *558:14 *558:20 23.3789 
3 *558:20 *558:24 27.5604 
4 *558:24 *2462:A 23 
*END

*D_NET *559 0.0113335
*CONN
*I *2077:B I *D sky130_fd_sc_hd__nor2_1
*I *2221:A1 I *D sky130_fd_sc_hd__o21ai_1
*I *2463:A I *D sky130_fd_sc_hd__buf_2
*I *2055:A I *D sky130_fd_sc_hd__nand2_1
*I *1959:Y O *D sky130_fd_sc_hd__inv_2
*CAP
1 *2077:B 0
2 *2221:A1 0
3 *2463:A 2.66148e-05
4 *2055:A 0.000148395
5 *1959:Y 0
6 *559:42 0.000226712
7 *559:34 0.000618117
8 *559:19 0.00130993
9 *559:8 0.00226179
10 *559:4 0.00122149
11 *2463:A *582:12 2.64616e-05
12 *559:19 *601:42 8.62783e-05
13 *559:19 *607:53 0
14 *559:34 *2223:A_N 1.14154e-05
15 *559:34 *642:12 1.39317e-05
16 *559:34 *642:24 4.10685e-05
17 *559:42 *641:53 0
18 *2053:C *559:19 0.000342143
19 *2224:A1 *559:34 0.000156058
20 *2224:B1 *559:34 0.000184527
21 *2294:D *559:19 0
22 *2360:CLK *559:42 5.50049e-05
23 *2378:A *559:8 0.000182826
24 *265:10 *559:42 2.93747e-05
25 *289:35 *2055:A 0.000355029
26 *289:35 *559:8 0.000975083
27 *289:35 *559:34 1.22822e-05
28 *363:10 *559:34 0.000274078
29 *400:55 *559:19 0.000394583
30 *462:12 *559:34 1.40958e-05
31 *462:31 *559:34 1.41077e-05
32 *463:29 *559:34 1.27898e-05
33 *463:29 *559:42 4.38375e-05
34 *465:125 *559:19 6.4393e-05
35 *465:135 *559:19 0.000423872
36 *468:10 *559:19 0
37 *468:12 *559:19 0
38 *468:14 *559:19 0
39 *468:20 *559:19 0
40 *469:123 *559:42 1.58805e-05
41 *557:8 *2463:A 2.93845e-05
42 *557:10 *559:19 0.00176191
*RES
1 *1959:Y *559:4 23 
2 *559:4 *559:8 21.605 
3 *559:8 *2055:A 26.9564 
4 *559:8 *559:19 48.9507 
5 *559:19 *2463:A 38.6214 
6 *559:4 *559:34 10.0671 
7 *559:34 *559:42 33.2314 
8 *559:42 *2221:A1 23 
9 *559:34 *2077:B 23 
*END

*D_NET *560 0.0218165
*CONN
*I *655:DIODE I *D sky130_fd_sc_hd__diode_2
*I *2464:A I *D sky130_fd_sc_hd__buf_2
*I *749:DIODE I *D sky130_fd_sc_hd__diode_2
*I *660:DIODE I *D sky130_fd_sc_hd__diode_2
*I *1994:A2 I *D sky130_fd_sc_hd__o21a_1
*I *2364:A I *D sky130_fd_sc_hd__clkbuf_1
*I *698:DIODE I *D sky130_fd_sc_hd__diode_2
*I *656:DIODE I *D sky130_fd_sc_hd__diode_2
*I *1952:A2 I *D sky130_fd_sc_hd__o21ba_1
*I *1951:X O *D sky130_fd_sc_hd__or2_2
*CAP
1 *655:DIODE 6.36383e-05
2 *2464:A 0.000102416
3 *749:DIODE 0
4 *660:DIODE 0
5 *1994:A2 0
6 *2364:A 0
7 *698:DIODE 4.60499e-05
8 *656:DIODE 0.00019642
9 *1952:A2 3.30066e-05
10 *1951:X 0
11 *560:100 0.00170899
12 *560:76 0.00139123
13 *560:64 0.00249522
14 *560:40 0.000403723
15 *560:36 0.00251156
16 *560:24 0.00150892
17 *560:20 0.00101289
18 *560:10 0.00265593
19 *560:4 0.000421806
20 *656:DIODE *1952:A1 5.67058e-05
21 *656:DIODE *618:139 5.3304e-05
22 *2464:A *594:8 0
23 *2464:A *622:121 2.93747e-05
24 *560:24 *1994:A1 3.22879e-05
25 *560:24 *1999:B1 9.24795e-06
26 *560:24 *614:101 7.44161e-06
27 *560:24 *614:103 2.02517e-05
28 *560:36 *1985:B1 0.000608063
29 *560:36 *614:6 0.000141954
30 *560:36 *614:48 2.06822e-05
31 *560:36 *614:101 0.000337381
32 *560:36 *636:10 1.5769e-05
33 *560:40 *628:10 0
34 *560:40 *636:10 3.96156e-05
35 *560:40 *636:23 2.76611e-06
36 *560:64 *628:10 0
37 *560:100 *594:8 0
38 *560:100 *620:16 9.68511e-05
39 *560:100 *620:188 0
40 *560:100 *621:10 0
41 *1951:B *655:DIODE 5.67058e-05
42 *1983:B *560:36 9.20811e-05
43 *1985:A1 *560:36 1.21972e-05
44 *1992:A1 *560:24 3.34129e-05
45 *2176:C *560:100 0
46 *2176:D *560:100 0
47 *2183:A2 *560:76 1.32302e-05
48 *2314:RESET_B *560:36 5.03619e-05
49 *2346:CLK *560:64 6.63698e-05
50 *2371:A *560:64 0
51 *125:27 *698:DIODE 0.000143655
52 *125:27 *560:76 0.000517529
53 *137:21 *560:76 0.000167868
54 *149:10 *560:64 0.000161121
55 *164:12 *560:20 0
56 *164:12 *560:100 0
57 *211:8 *560:40 0
58 *249:8 *560:64 0.000166232
59 *250:10 *560:76 1.32578e-05
60 *280:62 *560:24 0.000115891
61 *281:14 *560:36 0.000226306
62 *281:27 *560:36 0.00044107
63 *296:40 *560:10 0.000103637
64 *307:16 *560:36 5.50106e-05
65 *312:8 *560:20 4.77554e-05
66 *323:24 *560:76 5.57849e-05
67 *324:10 *698:DIODE 1.41077e-05
68 *324:10 *560:76 5.70419e-05
69 *359:6 *655:DIODE 0.000160875
70 *359:6 *560:10 0.000736678
71 *360:16 *655:DIODE 0.000162452
72 *360:16 *560:10 0.000358113
73 *360:16 *560:100 0
74 *434:14 *560:100 0
75 *440:10 *560:64 0.00031749
76 *442:8 *560:64 0
77 *452:8 *560:100 0.000350594
78 *465:64 *560:40 0
79 *465:64 *560:64 0
80 *471:46 *560:64 6.34286e-05
81 *471:48 *560:64 6.25948e-05
82 *475:12 *560:64 0
83 *479:25 *560:64 0
84 *486:8 *560:76 2.77929e-05
85 *486:25 *560:64 0
86 *486:38 *560:64 4.06408e-05
87 *487:25 *560:64 0.000241355
88 *487:40 *560:64 0
89 *488:37 *560:10 1.22822e-05
90 *489:14 *560:100 0
91 *492:33 *560:10 6.25714e-05
92 *492:33 *560:100 9.95011e-05
93 *493:8 *560:100 0
94 *493:52 *560:10 0.000143681
95 *493:52 *560:100 3.77305e-05
96 *494:10 *560:100 2.72055e-05
97 *494:16 *560:100 5.75972e-05
98 *542:74 *560:36 0.000219764
*RES
1 *1951:X *560:4 23 
2 *560:4 *560:10 26.7554 
3 *560:10 *560:20 33.0172 
4 *560:20 *560:24 5.15786 
5 *560:24 *560:36 43.1093 
6 *560:36 *560:40 17.9621 
7 *560:40 *1952:A2 23.6214 
8 *560:40 *656:DIODE 26.5007 
9 *560:36 *560:64 40.2093 
10 *560:64 *560:76 21.9364 
11 *560:76 *698:DIODE 24.5743 
12 *560:76 *2364:A 23 
13 *560:24 *1994:A2 23 
14 *560:20 *660:DIODE 23 
15 *560:10 *560:100 30.6054 
16 *560:100 *749:DIODE 38 
17 *560:100 *2464:A 39.8229 
18 *560:4 *655:DIODE 26.1693 
*END

*D_NET *561 0.000763949
*CONN
*I *2465:A I *D sky130_fd_sc_hd__buf_2
*I *2364:X O *D sky130_fd_sc_hd__clkbuf_1
*CAP
1 *2465:A 0
2 *2364:X 0.000287951
3 *561:10 0.000287951
4 *561:10 *1962:A_N 2.54046e-05
5 *561:10 *2399:A 0
6 *561:10 *2468:A 8.75688e-05
7 wb_ack_o *561:10 0
8 *125:27 *561:10 5.67058e-05
9 *131:11 *561:10 1.83667e-05
10 *553:10 *561:10 0
*RES
1 *2364:X *561:10 43.6964 
2 *561:10 *2465:A 38 
*END

*D_NET *562 0.000796152
*CONN
*I *2466:A I *D sky130_fd_sc_hd__buf_2
*I *2365:X O *D sky130_fd_sc_hd__clkbuf_1
*CAP
1 *2466:A 0.000119361
2 *2365:X 0.000249667
3 *562:8 0.000369028
4 *562:8 *566:8 0
5 unlock_enable *562:8 0
6 *180:8 *562:8 5.80963e-05
7 *373:10 *562:8 0
*RES
1 *2365:X *562:8 43.075 
2 *562:8 *2466:A 40.0507 
*END

*D_NET *563 0.00447089
*CONN
*I *2467:A I *D sky130_fd_sc_hd__buf_2
*I *2035:X O *D sky130_fd_sc_hd__or3_1
*CAP
1 *2467:A 0
2 *2035:X 6.05068e-05
3 *563:14 0.00151016
4 *563:8 0.00157067
5 *563:8 *2034:C 5.21024e-05
6 *563:8 *608:71 0.000110913
7 *563:14 *2034:C 0.000269769
8 *563:14 *634:95 0.000118143
9 *2031:A *563:14 5.70419e-05
10 *134:10 *563:14 9.67842e-05
11 *218:10 *563:14 9.67842e-05
12 *325:10 *563:14 0.000528014
*RES
1 *2035:X *563:8 39.5536 
2 *563:8 *563:14 43.7514 
3 *563:14 *2467:A 23 
*END

*D_NET *564 0.00203274
*CONN
*I *2468:A I *D sky130_fd_sc_hd__buf_2
*I *1962:A_N I *D sky130_fd_sc_hd__and3b_1
*I *2301:Q O *D sky130_fd_sc_hd__dfrtp_1
*CAP
1 *2468:A 0.000234622
2 *1962:A_N 0.000315009
3 *2301:Q 5.2153e-05
4 *564:8 0.000601783
5 group_suspended *2468:A 3.89972e-05
6 wb_ack_o *2468:A 0
7 *1963:A_N *1962:A_N 0
8 *2451:A *2468:A 0
9 *21:11 *1962:A_N 0
10 *26:8 *2468:A 0.000182832
11 *72:26 *1962:A_N 0.000192077
12 *125:9 *2468:A 0
13 *125:27 *1962:A_N 0
14 *125:27 *2468:A 0
15 *324:10 *1962:A_N 4.38375e-05
16 *324:16 *1962:A_N 6.88552e-05
17 *539:8 *1962:A_N 7.28526e-05
18 *545:8 *1962:A_N 1.22906e-05
19 *550:10 *564:8 5.26733e-06
20 *553:10 *1962:A_N 0
21 *558:24 *2468:A 9.91895e-05
22 *561:10 *1962:A_N 2.54046e-05
23 *561:10 *2468:A 8.75688e-05
*RES
1 *2301:Q *564:8 38.6214 
2 *564:8 *1962:A_N 45.54 
3 *564:8 *2468:A 44.2143 
*END

*D_NET *565 0.000955007
*CONN
*I *2469:A I *D sky130_fd_sc_hd__buf_2
*I *2269:Q O *D sky130_fd_sc_hd__dfrtp_1
*CAP
1 *2469:A 0
2 *2269:Q 0.000473736
3 *565:10 0.000473736
4 *734:DIODE *565:10 7.53384e-06
5 *324:24 *565:10 0
*RES
1 *2269:Q *565:10 44.3386 
2 *565:10 *2469:A 38 
*END

*D_NET *566 0.000958185
*CONN
*I *2470:A I *D sky130_fd_sc_hd__buf_2
*I *2279:Q O *D sky130_fd_sc_hd__dfrtp_1
*CAP
1 *2470:A 0
2 *2279:Q 0.000384845
3 *566:8 0.000384845
4 *566:8 *567:10 0
5 unlock_enable *566:8 7.20154e-05
6 *94:10 *566:8 0.000116481
7 *181:8 *566:8 0
8 *562:8 *566:8 0
*RES
1 *2279:Q *566:8 45.8921 
2 *566:8 *2470:A 38 
*END

*D_NET *567 0.000467427
*CONN
*I *2471:A I *D sky130_fd_sc_hd__buf_2
*I *2280:Q O *D sky130_fd_sc_hd__dfrtp_1
*CAP
1 *2471:A 0
2 *2280:Q 0.000207998
3 *567:10 0.000207998
4 wb_dat_o[11] *567:10 1.05658e-05
5 *94:10 *567:10 4.08641e-05
6 *566:8 *567:10 0
*RES
1 *2280:Q *567:10 41.3557 
2 *567:10 *2471:A 38 
*END

*D_NET *568 0.00145885
*CONN
*I *2088:B I *D sky130_fd_sc_hd__or4_1
*I *2453:X O *D sky130_fd_sc_hd__clkbuf_1
*CAP
1 *2088:B 0
2 *2453:X 0.000480057
3 *568:10 0.000480057
4 *568:10 *612:10 0.000140949
5 *743:DIODE *568:10 2.30292e-05
6 *2088:D *568:10 2.22079e-05
7 *2155:A2 *568:10 0.000139647
8 *13:11 *568:10 0
9 *18:11 *568:10 0
10 *354:10 *568:10 0
11 *374:8 *568:10 0.000150888
12 *375:12 *568:10 2.20111e-05
*RES
1 *2453:X *568:10 46.7829 
2 *568:10 *2088:B 38 
*END

*D_NET *569 0.00275494
*CONN
*I *2472:A I *D sky130_fd_sc_hd__buf_2
*I *2281:Q O *D sky130_fd_sc_hd__dfrtp_1
*CAP
1 *2472:A 0.000346518
2 *2281:Q 0.000489183
3 *569:12 0.000835702
4 *2472:A *572:10 0.000433812
5 *569:12 *687:DIODE 5.50106e-05
6 wb_dat_o[15] *2472:A 0.000130212
7 *2281:RESET_B *569:12 0.00010018
8 *96:8 *2472:A 0.000364323
*RES
1 *2281:Q *569:12 46.41 
2 *569:12 *2472:A 47.9221 
*END

*D_NET *570 0.000688204
*CONN
*I *2473:A I *D sky130_fd_sc_hd__buf_2
*I *2282:Q O *D sky130_fd_sc_hd__dfrtp_1
*CAP
1 *2473:A 0
2 *2282:Q 0.000234831
3 *570:10 0.000234831
4 *570:10 *572:10 0.00016533
5 wb_dat_o[13] *570:10 5.32119e-05
*RES
1 *2282:Q *570:10 41.8321 
2 *570:10 *2473:A 38 
*END

*D_NET *571 0.000323586
*CONN
*I *2474:A I *D sky130_fd_sc_hd__buf_2
*I *2283:Q O *D sky130_fd_sc_hd__dfrtp_1
*CAP
1 *2474:A 0
2 *2283:Q 0.000161793
3 *571:10 0.000161793
4 *184:8 *571:10 0
*RES
1 *2283:Q *571:10 40.5271 
2 *571:10 *2474:A 38 
*END

*D_NET *572 0.00129127
*CONN
*I *2475:A I *D sky130_fd_sc_hd__buf_2
*I *2284:Q O *D sky130_fd_sc_hd__dfrtp_1
*CAP
1 *2475:A 0
2 *2284:Q 0.000321577
3 *572:10 0.000321577
4 wb_dat_o[13] *572:10 2.04774e-05
5 *2472:A *572:10 0.000433812
6 *96:8 *572:10 2.84912e-05
7 *183:8 *572:10 0
8 *185:8 *572:10 0
9 *570:10 *572:10 0.00016533
*RES
1 *2284:Q *572:10 46.1614 
2 *572:10 *2475:A 38 
*END

*D_NET *573 0.00381971
*CONN
*I *2476:A I *D sky130_fd_sc_hd__buf_2
*I *2285:Q O *D sky130_fd_sc_hd__dfrtp_1
*CAP
1 *2476:A 0
2 *2285:Q 9.49221e-05
3 *573:14 0.00123248
4 *573:8 0.0013274
5 *573:8 *606:31 0
6 *573:14 *606:58 0.000539781
7 *573:14 *610:57 3.8481e-05
8 *2143:A *573:14 0.000391454
9 *2412:A *573:8 4.6318e-06
10 *412:10 *573:14 0.000140935
11 *505:21 *573:8 4.96264e-05
*RES
1 *2285:Q *573:8 39.5536 
2 *573:8 *573:14 40.2921 
3 *573:14 *2476:A 23 
*END

*D_NET *574 0.000252691
*CONN
*I *2477:A I *D sky130_fd_sc_hd__buf_2
*I *2286:Q O *D sky130_fd_sc_hd__dfrtp_1
*CAP
1 *2477:A 9.98986e-05
2 *2286:Q 9.98986e-05
3 *2477:A *575:14 5.2894e-05
*RES
1 *2286:Q *2477:A 48.0714 
*END

*D_NET *575 0.00677113
*CONN
*I *2478:A I *D sky130_fd_sc_hd__buf_2
*I *2287:Q O *D sky130_fd_sc_hd__dfrtp_1
*CAP
1 *2478:A 7.13651e-05
2 *2287:Q 0.000209861
3 *575:14 0.00192115
4 *575:8 0.00205965
5 *575:8 *576:18 0.000660144
6 *575:8 *622:38 0.000359332
7 *575:14 *2243:A 1.10782e-05
8 *575:14 *576:18 1.72202e-05
9 *2286:RESET_B *575:14 6.44467e-05
10 *2477:A *575:14 5.2894e-05
11 *101:10 *575:14 1.14452e-05
12 *103:10 *2478:A 5.70419e-05
13 *103:10 *575:14 0
14 *146:10 *575:14 0.00119888
15 *201:8 *575:14 7.66188e-05
*RES
1 *2287:Q *575:8 30.7886 
2 *575:8 *575:14 44.5386 
3 *575:14 *2478:A 39.5743 
*END

*D_NET *576 0.00847481
*CONN
*I *2479:A I *D sky130_fd_sc_hd__buf_2
*I *2288:Q O *D sky130_fd_sc_hd__dfrtp_1
*CAP
1 *2479:A 0
2 *2288:Q 0.000904545
3 *576:28 0.00113225
4 *576:18 0.0017819
5 *576:12 0.00155419
6 *576:12 *692:DIODE 1.73399e-05
7 *576:12 *2244:A 2.02517e-05
8 *576:12 *622:38 2.65879e-05
9 *576:18 *691:DIODE 1.94812e-05
10 *576:18 *2012:B 0
11 *576:18 *600:44 0.000443679
12 *576:18 *622:38 0.000495081
13 *576:28 *2026:C 0.00012548
14 *576:28 *2257:A 0.000402801
15 *2287:RESET_B *576:12 5.67058e-05
16 *2287:RESET_B *576:18 0.000171492
17 *2332:D *576:28 1.64354e-05
18 *2412:A *576:18 0
19 *146:10 *576:18 0.000143655
20 *162:10 *576:28 0.000151641
21 *466:69 *576:28 4.57757e-05
22 *466:75 *576:28 0.000233367
23 *505:8 *576:28 5.47808e-05
24 *575:8 *576:18 0.000660144
25 *575:14 *576:18 1.72202e-05
*RES
1 *2288:Q *576:12 38.9293 
2 *576:12 *576:18 36.6879 
3 *576:18 *576:28 39.6293 
4 *576:28 *2479:A 23 
*END

*D_NET *577 0.000165162
*CONN
*I *2480:A I *D sky130_fd_sc_hd__buf_2
*I *2270:Q O *D sky130_fd_sc_hd__dfrtp_1
*CAP
1 *2480:A 8.25812e-05
2 *2270:Q 8.25812e-05
*RES
1 *2270:Q *2480:A 47.595 
*END

*D_NET *578 0.000319556
*CONN
*I *2481:A I *D sky130_fd_sc_hd__buf_2
*I *2289:Q O *D sky130_fd_sc_hd__dfrtp_1
*CAP
1 *2481:A 0
2 *2289:Q 0.000124889
3 *578:8 0.000124889
4 wb_dat_o[20] *578:8 6.97776e-05
5 *114:10 *578:8 0
*RES
1 *2289:Q *578:8 40.2579 
2 *578:8 *2481:A 38 
*END

*D_NET *579 0.00325869
*CONN
*I *1941:A I *D sky130_fd_sc_hd__inv_2
*I *2158:A1 I *D sky130_fd_sc_hd__a221o_1
*I *2089:A I *D sky130_fd_sc_hd__or4b_1
*I *2454:X O *D sky130_fd_sc_hd__buf_1
*CAP
1 *1941:A 0
2 *2158:A1 0.000420359
3 *2089:A 0
4 *2454:X 0.00046432
5 *579:26 0.000755877
6 *579:16 0.000799837
7 *744:DIODE *579:16 5.67058e-05
8 *2089:D_N *2158:A1 6.13315e-05
9 *2158:A2 *2158:A1 8.14599e-05
10 *2158:B2 *2158:A1 6.39489e-06
11 *279:8 *579:26 0.000138727
12 *373:10 *579:16 0.000185573
13 *373:10 *579:26 9.53188e-05
14 *374:8 *579:26 1.14452e-05
15 *418:10 *579:26 0
16 *540:10 *579:16 7.20622e-05
17 *540:10 *579:26 4.21594e-06
18 *540:21 *579:26 0
19 *540:27 *579:26 5.00493e-05
20 *540:48 *2158:A1 5.50106e-05
*RES
1 *2454:X *579:16 48.1707 
2 *579:16 *579:26 22.1516 
3 *579:26 *2089:A 23 
4 *579:26 *2158:A1 30.8041 
5 *579:16 *1941:A 38 
*END

*D_NET *580 0.000270391
*CONN
*I *2482:A I *D sky130_fd_sc_hd__buf_2
*I *2290:Q O *D sky130_fd_sc_hd__dfrtp_1
*CAP
1 *2482:A 0
2 *2290:Q 0.000114764
3 *580:8 0.000114764
4 *580:8 *591:10 0
5 *106:12 *580:8 4.08641e-05
6 *191:8 *580:8 0
*RES
1 *2290:Q *580:8 40.2579 
2 *580:8 *2482:A 38 
*END

*D_NET *581 0.00889886
*CONN
*I *2483:A I *D sky130_fd_sc_hd__buf_2
*I *2291:Q O *D sky130_fd_sc_hd__dfrtp_1
*CAP
1 *2483:A 2.34823e-05
2 *2291:Q 0.000472401
3 *581:14 0.00227287
4 *581:12 0.00224939
5 *581:10 0.000472401
6 *581:14 *2484:A 0.00135037
7 *581:14 *582:12 0.00132945
8 group_unlocked *581:14 9.84851e-05
9 *2288:D *581:10 2.65727e-05
10 *2300:CLK *581:14 0.000105326
11 *108:10 *581:14 0.000187129
12 *189:10 *581:10 8.62876e-05
13 *468:20 *581:10 3.06338e-05
14 *468:33 *581:10 5.14746e-06
15 *557:10 *581:10 0.000188916
*RES
1 *2291:Q *581:10 45.5193 
2 *581:10 *581:12 15 
3 *581:12 *581:14 53.505 
4 *581:14 *2483:A 23.4971 
*END

*D_NET *582 0.0108552
*CONN
*I *2484:A I *D sky130_fd_sc_hd__buf_2
*I *2292:Q O *D sky130_fd_sc_hd__dfrtp_1
*CAP
1 *2484:A 0.000491039
2 *2292:Q 9.53488e-05
3 *582:12 0.00316305
4 *582:10 0.00267201
5 *582:8 9.53488e-05
6 *582:12 *2245:A 0.000230604
7 *582:12 *2248:A 0.000187129
8 *582:12 *621:66 0.000141954
9 *582:12 *621:82 0.000359332
10 *2300:CLK *2484:A 7.51453e-06
11 *2463:A *582:12 2.64616e-05
12 *4:9 *582:12 1.41077e-05
13 *189:10 *582:12 0.000222785
14 *192:10 *582:12 0.000447976
15 *557:8 *582:12 2.07242e-05
16 *581:14 *2484:A 0.00135037
17 *581:14 *582:12 0.00132945
*RES
1 *2292:Q *582:8 39.5536 
2 *582:8 *582:10 15 
3 *582:10 *582:12 60.8896 
4 *582:12 *2484:A 38.5254 
*END

*D_NET *583 0.000388654
*CONN
*I *2485:A I *D sky130_fd_sc_hd__buf_2
*I *2293:Q O *D sky130_fd_sc_hd__dfrtp_1
*CAP
1 *2485:A 6.80978e-05
2 *2293:Q 0.000126229
3 *583:8 0.000194327
4 wb_dat_o[24] *583:8 0
*RES
1 *2293:Q *583:8 40.2579 
2 *583:8 *2485:A 39.0979 
*END

*D_NET *584 0.0105809
*CONN
*I *2486:A I *D sky130_fd_sc_hd__buf_2
*I *2294:Q O *D sky130_fd_sc_hd__dfrtp_1
*CAP
1 *2486:A 0.000732549
2 *2294:Q 0.000117138
3 *584:22 0.00141781
4 *584:12 0.00332614
5 *584:10 0.00264088
6 *584:8 0.000117138
7 *2486:A *2025:B 7.87243e-05
8 *2486:A *2025:C 0.000217912
9 *584:8 *611:76 0.000158914
10 *584:22 *2025:B 1.81777e-05
11 *2025:A *2486:A 2.39868e-05
12 *2025:A *584:22 1.26794e-05
13 *2105:A2 *584:12 3.71251e-05
14 *2105:B1 *584:12 0.00030335
15 *2107:C *584:12 2.03764e-06
16 *2107:D *584:12 1.94812e-05
17 *2109:A_N *584:8 8.68472e-05
18 *2141:A *584:12 1.39317e-05
19 *2141:A *584:22 8.4047e-05
20 *2141:B *584:22 0
21 *2331:CLK *584:22 1.59094e-05
22 *2331:D *584:22 3.68412e-05
23 *161:10 *2486:A 0.000209016
24 *388:8 *584:12 0.000272377
25 *388:23 *584:8 9.48381e-06
26 *466:20 *584:12 0.000119477
27 *466:33 *584:12 0.000121334
28 *506:12 *584:12 3.30471e-05
29 *506:56 *584:12 3.38187e-05
30 *506:69 *584:12 7.43025e-06
31 *507:17 *584:12 0.000313244
*RES
1 *2294:Q *584:8 42.0186 
2 *584:8 *584:10 15 
3 *584:10 *584:12 37.3064 
4 *584:12 *584:22 39.6943 
5 *584:22 *2486:A 38.3907 
*END

*D_NET *585 0.000261055
*CONN
*I *2487:A I *D sky130_fd_sc_hd__buf_2
*I *2295:Q O *D sky130_fd_sc_hd__dfrtp_1
*CAP
1 *2487:A 0
2 *2295:Q 0.000130528
3 *585:8 0.000130528
*RES
1 *2295:Q *585:8 40.2579 
2 *585:8 *2487:A 38 
*END

*D_NET *586 0.00313328
*CONN
*I *2488:A I *D sky130_fd_sc_hd__buf_2
*I *2296:Q O *D sky130_fd_sc_hd__dfrtp_1
*CAP
1 *2488:A 0
2 *2296:Q 0.000728376
3 *586:14 0.000268833
4 *586:6 0.000997208
5 *586:6 *2023:B 0.000233367
6 *586:6 *2246:A 0.000153145
7 *586:6 *2254:A 0.000128159
8 *586:6 *616:37 0.000145784
9 *586:6 *617:54 1.1674e-05
10 *586:14 *587:10 8.65442e-05
11 *586:14 *616:24 0
12 *198:10 *586:6 0.000146822
13 *467:25 *586:6 0.000233367
*RES
1 *2296:Q *586:6 39.3436 
2 *586:6 *586:14 35.1371 
3 *586:14 *2488:A 23 
*END

*D_NET *587 0.00163283
*CONN
*I *2489:A I *D sky130_fd_sc_hd__buf_2
*I *2297:Q O *D sky130_fd_sc_hd__dfrtp_1
*CAP
1 *2489:A 0
2 *2297:Q 0.000725463
3 *587:10 0.000725463
4 *587:10 *2252:A 9.00922e-05
5 *467:36 *587:10 5.27215e-06
6 *586:14 *587:10 8.65442e-05
*RES
1 *2297:Q *587:10 48.5021 
2 *587:10 *2489:A 38 
*END

*D_NET *588 0.00046039
*CONN
*I *2490:A I *D sky130_fd_sc_hd__buf_2
*I *2298:Q O *D sky130_fd_sc_hd__dfrtp_1
*CAP
1 *2490:A 0.000119391
2 *2298:Q 0.000110804
3 *588:8 0.000230195
4 *588:8 *616:39 0
*RES
1 *2298:Q *588:8 39.9057 
2 *588:8 *2490:A 40.0507 
*END

*D_NET *589 0.000299337
*CONN
*I *2491:A I *D sky130_fd_sc_hd__buf_2
*I *2271:Q O *D sky130_fd_sc_hd__dfrtp_1
*CAP
1 *2491:A 0
2 *2271:Q 0.000114779
3 *589:8 0.000114779
4 wb_dat_o[2] *589:8 6.97776e-05
5 *324:16 *589:8 0
*RES
1 *2271:Q *589:8 40.2579 
2 *589:8 *2491:A 38 
*END

*D_NET *590 0.00183559
*CONN
*I *2077:A I *D sky130_fd_sc_hd__nor2_1
*I *2455:X O *D sky130_fd_sc_hd__clkbuf_1
*CAP
1 *2077:A 0
2 *2455:X 0.000728293
3 *590:10 0.000728293
4 *590:10 *642:12 0.00034672
5 *745:DIODE *590:10 3.22879e-05
*RES
1 *2455:X *590:10 38.4321 
2 *590:10 *2077:A 23 
*END

*D_NET *591 0.000804765
*CONN
*I *2492:A I *D sky130_fd_sc_hd__buf_2
*I *2299:Q O *D sky130_fd_sc_hd__dfrtp_1
*CAP
1 *2492:A 0
2 *2299:Q 0.00039745
3 *591:10 0.00039745
4 wb_dat_o[30] *591:10 9.86551e-06
5 *580:8 *591:10 0
*RES
1 *2299:Q *591:10 44.2971 
2 *591:10 *2492:A 38 
*END

*D_NET *592 0.000286763
*CONN
*I *2493:A I *D sky130_fd_sc_hd__buf_2
*I *2300:Q O *D sky130_fd_sc_hd__dfrtp_1
*CAP
1 *2493:A 0
2 *2300:Q 0.000101331
3 *592:8 0.000101331
4 *103:10 *592:8 8.41012e-05
*RES
1 *2300:Q *592:8 40.2579 
2 *592:8 *2493:A 38 
*END

*D_NET *593 0.000740385
*CONN
*I *2494:A I *D sky130_fd_sc_hd__buf_2
*I *2272:Q O *D sky130_fd_sc_hd__dfrtp_1
*CAP
1 *2494:A 7.82038e-05
2 *2272:Q 0.000107509
3 *593:8 0.000185713
4 *2494:A *619:64 4.79641e-05
5 *2494:A *622:119 2.32101e-05
6 *738:DIODE *2494:A 9.67842e-05
7 *542:10 *593:8 6.33511e-05
8 *551:10 *2494:A 0.000137651
9 *558:14 *593:8 0
*RES
1 *2272:Q *593:8 39.9057 
2 *593:8 *2494:A 40.5479 
*END

*D_NET *594 0.000275318
*CONN
*I *2495:A I *D sky130_fd_sc_hd__buf_2
*I *2273:Q O *D sky130_fd_sc_hd__dfrtp_1
*CAP
1 *2495:A 0
2 *2273:Q 0.000123709
3 *594:8 0.000123709
4 *594:8 *621:10 2.79004e-05
5 *2464:A *594:8 0
6 *560:100 *594:8 0
*RES
1 *2273:Q *594:8 40.2579 
2 *594:8 *2495:A 38 
*END

*D_NET *595 0.000796889
*CONN
*I *2496:A I *D sky130_fd_sc_hd__buf_2
*I *2274:Q O *D sky130_fd_sc_hd__dfrtp_1
*CAP
1 *2496:A 0
2 *2274:Q 0.00035153
3 *595:10 0.00035153
4 *595:10 *619:72 4.06849e-05
5 *168:12 *595:10 5.31444e-05
6 *175:10 *595:10 0
*RES
1 *2274:Q *595:10 44.1729 
2 *595:10 *2496:A 38 
*END

*D_NET *596 0.000627481
*CONN
*I *2497:A I *D sky130_fd_sc_hd__buf_2
*I *2275:Q O *D sky130_fd_sc_hd__dfrtp_1
*CAP
1 *2497:A 6.7315e-05
2 *2275:Q 0.000191522
3 *596:10 0.000258837
4 *596:10 *597:8 1.14452e-05
5 *59:21 *596:10 1.94693e-05
6 *121:10 *2497:A 7.88926e-05
7 *121:10 *596:10 0
8 *324:28 *596:10 0
*RES
1 *2275:Q *596:10 41.5836 
2 *596:10 *2497:A 39.5743 
*END

*D_NET *597 0.000326221
*CONN
*I *2498:A I *D sky130_fd_sc_hd__buf_2
*I *2276:Q O *D sky130_fd_sc_hd__dfrtp_1
*CAP
1 *2498:A 0
2 *2276:Q 0.000122499
3 *597:8 0.000122499
4 wb_dat_o[7] *597:8 6.97776e-05
5 *121:10 *597:8 0
6 *324:28 *597:8 0
7 *596:10 *597:8 1.14452e-05
*RES
1 *2276:Q *597:8 40.2579 
2 *597:8 *2498:A 38 
*END

*D_NET *598 0.000487763
*CONN
*I *2499:A I *D sky130_fd_sc_hd__buf_2
*I *2277:Q O *D sky130_fd_sc_hd__dfrtp_1
*CAP
1 *2499:A 6.43593e-05
2 *2277:Q 0.000136309
3 *598:8 0.000200668
4 *2499:A *622:121 7.88926e-05
5 wb_dat_o[8] *2499:A 7.53384e-06
*RES
1 *2277:Q *598:8 40.2579 
2 *598:8 *2499:A 39.5743 
*END

*D_NET *599 0.000364771
*CONN
*I *2500:A I *D sky130_fd_sc_hd__buf_2
*I *2278:Q O *D sky130_fd_sc_hd__dfrtp_1
*CAP
1 *2500:A 0
2 *2278:Q 0.000166242
3 *599:10 0.000166242
4 *599:10 *620:199 3.22879e-05
*RES
1 *2278:Q *599:10 40.8793 
2 *599:10 *2500:A 38 
*END

*D_NET *600 0.0176278
*CONN
*I *2133:C I *D sky130_fd_sc_hd__and3b_1
*I *2136:C I *D sky130_fd_sc_hd__and3b_1
*I *2130:A I *D sky130_fd_sc_hd__and3_1
*I *2139:C I *D sky130_fd_sc_hd__and3b_1
*I *2142:A I *D sky130_fd_sc_hd__and3_1
*I *2109:C I *D sky130_fd_sc_hd__and3b_1
*I *2100:B I *D sky130_fd_sc_hd__and2b_1
*I *2106:A I *D sky130_fd_sc_hd__and3_1
*I *2103:A I *D sky130_fd_sc_hd__and3_1
*I *2144:A I *D sky130_fd_sc_hd__and2_1
*I *2382:X O *D sky130_fd_sc_hd__clkbuf_2
*CAP
1 *2133:C 0
2 *2136:C 0.00040378
3 *2130:A 0.000244793
4 *2139:C 0
5 *2142:A 3.93866e-05
6 *2109:C 0.000823127
7 *2100:B 0
8 *2106:A 0
9 *2103:A 0
10 *2144:A 0
11 *2382:X 0.000152305
12 *600:108 0.000208619
13 *600:93 0.00106174
14 *600:73 0.000172861
15 *600:65 0.00115189
16 *600:58 0.000651557
17 *600:44 0.000577281
18 *600:32 0.000847502
19 *600:26 0.00123398
20 *600:22 0.00153038
21 *600:20 0.00076475
22 *600:16 0.000978719
23 *600:12 0.000303527
24 *600:10 0.000152305
25 *600:10 *610:95 3.83778e-05
26 *600:16 *606:118 9.86742e-05
27 *600:22 *606:23 0
28 *600:22 *610:26 0
29 *600:22 *610:95 0
30 *600:26 *606:23 0
31 *600:26 *610:26 0
32 *600:44 *2012:B 0
33 *600:44 *2012:C 9.70259e-06
34 *600:44 *622:32 0.000388511
35 *600:44 *622:38 6.25829e-05
36 *701:DIODE *600:93 0.000314157
37 *2012:A *600:44 5.67058e-05
38 *2103:B *600:32 1.85916e-05
39 *2103:C *600:32 8.43278e-05
40 *2106:B *600:58 3.7122e-06
41 *2106:B *600:65 2.13733e-05
42 *2106:C *600:65 6.21121e-05
43 *2109:B *2109:C 4.39278e-05
44 *2128:B *2136:C 0.000155942
45 *2128:B *600:20 0.000326062
46 *2130:C *2130:A 5.50049e-05
47 *2132:B *600:10 5.12254e-05
48 *2135:A *600:16 6.17437e-06
49 *2135:B *600:16 7.4416e-05
50 *2142:C *600:93 1.40314e-06
51 *2142:C *600:108 3.7122e-06
52 *2367:A *600:93 0.000917572
53 *2407:A *600:93 8.82787e-05
54 *2412:A *600:44 0.000187129
55 *2421:A *2109:C 0.000272448
56 *145:8 *600:44 3.81658e-05
57 *146:10 *600:44 0.000685109
58 *186:10 *600:44 0.000140297
59 *224:10 *600:32 1.94812e-05
60 *225:10 *600:65 5.67058e-05
61 *237:10 *600:93 9.80703e-06
62 *384:8 *600:44 6.26356e-05
63 *385:8 *600:26 0
64 *400:20 *600:20 1.6873e-05
65 *400:20 *600:22 1.67942e-05
66 *402:16 *2136:C 0
67 *402:16 *600:20 0
68 *404:8 *600:10 0
69 *410:14 *600:93 0.000305602
70 *410:22 *600:93 5.3304e-05
71 *410:22 *600:108 5.94125e-05
72 *466:33 *600:26 0.000192087
73 *466:59 *600:108 0.000234094
74 *468:57 *600:73 5.50106e-05
75 *468:72 *600:73 0
76 *499:18 *600:73 5.3304e-05
77 *500:12 *2130:A 2.76611e-06
78 *500:12 *600:20 6.16531e-05
79 *500:30 *2136:C 0.000252883
80 *501:12 *2130:A 5.50049e-05
81 *507:27 *2109:C 2.93845e-05
82 *524:10 *600:44 3.22051e-05
83 *533:8 *600:73 0.000110922
84 *576:18 *600:44 0.000443679
*RES
1 *2382:X *600:10 40.2993 
2 *600:10 *600:12 15 
3 *600:12 *600:16 19.4329 
4 *600:16 *600:20 5.52036 
5 *600:20 *600:22 4.19464 
6 *600:22 *600:26 23.9486 
7 *600:26 *600:32 4.59857 
8 *600:32 *600:44 49.3057 
9 *600:44 *2144:A 23 
10 *600:32 *2103:A 23 
11 *600:26 *600:58 8.74143 
12 *600:58 *2106:A 23 
13 *600:58 *600:65 3.00357 
14 *600:65 *600:73 33.5836 
15 *600:73 *2100:B 23 
16 *600:65 *2109:C 35.0764 
17 *600:22 *600:93 34.6993 
18 *600:93 *2142:A 23.8493 
19 *600:93 *600:108 34.4121 
20 *600:108 *2139:C 23 
21 *600:20 *2130:A 40.8689 
22 *600:16 *2136:C 45.4157 
23 *600:12 *2133:C 23 
*END

*D_NET *601 0.0114729
*CONN
*I *2081:B1 I *D sky130_fd_sc_hd__a31o_1
*I *2053:B I *D sky130_fd_sc_hd__or3_1
*I *2456:X O *D sky130_fd_sc_hd__buf_1
*CAP
1 *2081:B1 0
2 *2053:B 0
3 *2456:X 0.000140327
4 *601:42 5.59093e-05
5 *601:36 0.00139723
6 *601:24 0.00247677
7 *601:18 0.00121968
8 *601:12 0.00113253
9 *601:8 0.00118863
10 *601:18 *615:156 0.000218952
11 *601:24 *667:DIODE 5.3304e-05
12 *601:24 *2416:A 9.95713e-05
13 *601:24 *615:156 3.47781e-05
14 *601:24 *615:165 5.50106e-05
15 *601:24 *642:24 0
16 *601:24 *648:19 0.000249431
17 *601:42 *607:53 0
18 *727:DIODE *601:12 2.93747e-05
19 *741:DIODE *601:12 0.000141954
20 *2126:B *601:36 0.000204949
21 *2160:B *601:12 2.64616e-05
22 *2160:C *601:12 5.3304e-05
23 *2220:B1_N *601:24 0
24 *2370:A *601:36 3.03251e-05
25 *2:11 *601:8 5.59729e-05
26 *248:8 *601:24 0.000197479
27 *282:27 *601:12 5.50049e-05
28 *283:10 *601:12 0.000479335
29 *286:46 *601:12 1.59094e-05
30 *286:54 *601:18 0.000136486
31 *286:54 *601:24 6.68107e-05
32 *286:63 *601:12 4.87889e-05
33 *366:16 *601:18 4.07715e-05
34 *370:14 *601:24 0
35 *378:10 *601:24 0
36 *414:16 *601:24 0
37 *414:26 *601:24 0
38 *414:44 *601:24 4.67488e-05
39 *421:10 *601:24 0.00011631
40 *462:8 *601:24 0
41 *465:129 *601:36 1.1902e-05
42 *469:8 *601:36 1.3109e-05
43 *469:115 *601:36 0.000239929
44 *540:10 *601:8 0
45 *540:21 *601:8 0
46 *546:12 *601:8 8.62783e-05
47 *546:23 *601:12 0.000967268
48 *554:42 *601:24 0
49 *559:19 *601:42 8.62783e-05
*RES
1 *2456:X *601:8 40.2579 
2 *601:8 *601:12 40.3957 
3 *601:12 *601:18 32.9621 
4 *601:18 *601:24 39.8364 
5 *601:24 *601:36 35.4864 
6 *601:36 *601:42 31.2014 
7 *601:42 *2053:B 23 
8 *601:18 *2081:B1 23 
*END

*D_NET *602 0.00884016
*CONN
*I *2127:C I *D sky130_fd_sc_hd__and3b_1
*I *2124:A I *D sky130_fd_sc_hd__and3_1
*I *2115:C I *D sky130_fd_sc_hd__and3b_1
*I *2121:B I *D sky130_fd_sc_hd__and3b_1
*I *2118:A I *D sky130_fd_sc_hd__and3_1
*I *2112:C I *D sky130_fd_sc_hd__and3b_1
*I *2383:X O *D sky130_fd_sc_hd__buf_1
*CAP
1 *2127:C 0.000483873
2 *2124:A 2.32701e-05
3 *2115:C 8.05793e-06
4 *2121:B 0.000481677
5 *2118:A 0.000501529
6 *2112:C 0
7 *2383:X 0.000114933
8 *602:35 0.00110834
9 *602:33 0.000652136
10 *602:20 0.00134233
11 *602:14 0.00110605
12 *602:8 0.000858204
13 *2118:A *621:106 0
14 *2042:A *2127:C 5.50049e-05
15 *2111:A *602:33 0
16 *2117:A *2118:A 0
17 *2118:C *2118:A 5.67058e-05
18 *2121:C *2121:B 1.94693e-05
19 *2122:A *602:8 0.000183733
20 *2123:A *2124:A 5.3304e-05
21 *2123:A *602:14 0
22 *2124:B *2127:C 5.91383e-05
23 *2124:B *602:14 8.86027e-05
24 *2126:B *2127:C 3.47776e-05
25 *2325:CLK *602:8 4.94073e-05
26 *2326:CLK *2127:C 5.18869e-05
27 *2326:D *2127:C 0.000171658
28 *2328:CLK *602:8 4.74355e-05
29 *227:8 *602:33 2.02872e-05
30 *388:51 *602:20 0.00022142
31 *394:10 *2118:A 0.000296017
32 *468:148 *2118:A 0
33 *468:148 *602:33 0.000183733
34 *468:148 *602:35 0
35 *469:14 *2127:C 3.31683e-05
36 *509:10 *602:33 4.37586e-06
37 *510:22 *602:33 0.000300108
38 *510:57 *2124:A 5.3304e-05
39 *511:23 *2118:A 0
40 *513:43 *2127:C 0
41 *514:10 *2127:C 1.60429e-05
42 *514:31 *602:14 4.92689e-05
43 *514:31 *602:20 0.000110913
*RES
1 *2383:X *602:8 41.0036 
2 *602:8 *602:14 3.72857 
3 *602:14 *602:20 27.18 
4 *602:20 *2112:C 23 
5 *602:20 *602:33 24.0004 
6 *602:33 *602:35 2.43393 
7 *602:35 *2118:A 47.2179 
8 *602:35 *2121:B 45.3121 
9 *602:33 *2115:C 38.3211 
10 *602:14 *2124:A 38.6214 
11 *602:8 *2127:C 45.9957 
*END

*D_NET *603 0.0251415
*CONN
*I *2208:A1 I *D sky130_fd_sc_hd__a21oi_1
*I *2202:A1 I *D sky130_fd_sc_hd__a21oi_1
*I *2200:A1 I *D sky130_fd_sc_hd__a21oi_1
*I *2196:A1 I *D sky130_fd_sc_hd__a21oi_1
*I *2181:A2 I *D sky130_fd_sc_hd__a21oi_1
*I *2183:A1 I *D sky130_fd_sc_hd__a21oi_1
*I *2194:A1 I *D sky130_fd_sc_hd__a21oi_1
*I *2189:A1 I *D sky130_fd_sc_hd__a21oi_1
*I *2186:A1 I *D sky130_fd_sc_hd__a21oi_1
*I *2191:A1 I *D sky130_fd_sc_hd__a21oi_1
*I *2384:X O *D sky130_fd_sc_hd__buf_2
*CAP
1 *2208:A1 0
2 *2202:A1 0
3 *2200:A1 9.33521e-05
4 *2196:A1 0.00023835
5 *2181:A2 0.000272526
6 *2183:A1 0
7 *2194:A1 0
8 *2189:A1 5.72634e-05
9 *2186:A1 0.000359034
10 *2191:A1 0.000355426
11 *2384:X 0.000150822
12 *603:96 0.000367025
13 *603:89 0.000463848
14 *603:83 0.000839269
15 *603:70 0.000603097
16 *603:53 0.00126787
17 *603:47 0.00188074
18 *603:39 0.0020693
19 *603:31 0.00211233
20 *603:16 0.00279823
21 *603:6 0.00145878
22 *2181:A2 *604:99 0.000348821
23 *2189:A1 *604:58 0.000135037
24 *2191:A1 *604:130 5.3304e-05
25 *603:6 *2208:B1 1.32939e-05
26 *603:16 *2208:B1 0.000274012
27 *603:16 *604:130 0
28 *603:16 *605:25 0
29 *603:16 *621:34 0
30 *603:31 *2202:B1 0.00117063
31 *603:31 *605:25 0
32 *603:39 *604:33 0.00010403
33 *603:89 *604:71 0.00108537
34 *1971:A *2186:A1 9.91798e-05
35 *1971:A *603:70 0
36 *2185:A *2186:A1 0.000160103
37 *2186:A2 *2186:A1 5.67058e-05
38 *2195:B *2196:A1 0.000179421
39 *2195:B *603:47 0.00011537
40 *2196:A2 *603:47 2.30292e-05
41 *2197:A *2200:A1 8.00931e-05
42 *2197:A *603:47 0.00033669
43 *2197:B *603:39 0
44 *2197:C *603:47 2.33431e-05
45 *2202:A2 *603:39 2.64616e-05
46 *2206:B *603:16 0.000162452
47 *2348:CLK *603:89 0.000568892
48 *2348:D *603:89 5.67058e-05
49 *2384:A *603:6 0.00010018
50 *2413:A *603:83 5.09173e-05
51 *2413:A *603:96 5.90103e-05
52 *149:10 *2186:A1 0.000484545
53 *163:18 *2181:A2 0.000169526
54 *163:18 *603:83 0.000140994
55 *163:18 *603:89 2.14048e-05
56 *163:18 *603:96 0.0001045
57 *168:12 *603:39 0
58 *255:10 *603:47 5.3304e-05
59 *256:8 *603:39 1.01436e-05
60 *259:10 *603:6 1.02949e-05
61 *291:63 *603:53 9.85891e-05
62 *291:72 *603:53 3.17516e-05
63 *291:95 *603:47 0.000185428
64 *291:99 *603:16 0.000533316
65 *323:16 *2181:A2 6.70087e-05
66 *430:25 *603:16 0.000269775
67 *432:10 *603:70 0.000188926
68 *432:10 *603:83 0.000164282
69 *471:36 *2181:A2 5.0135e-05
70 *471:42 *2181:A2 0.000357631
71 *471:123 *603:39 0
72 *471:125 *603:39 0
73 *473:38 *603:16 0.000348067
74 *473:38 *603:31 0.000166573
75 *479:25 *603:70 4.18957e-05
76 *479:25 *603:83 0.000267106
77 *479:40 *603:70 2.91142e-05
78 *479:44 *2186:A1 6.68793e-05
79 *479:44 *603:70 2.96051e-05
80 *479:53 *603:53 9.67842e-05
81 *480:44 *603:16 0.000182826
82 *487:40 *2186:A1 6.4393e-05
83 *488:63 *2189:A1 9.8355e-05
84 *488:73 *603:70 3.71198e-05
85 *489:29 *603:39 0
86 *490:51 *2191:A1 2.45549e-06
87 *534:10 *603:16 9.84794e-05
*RES
1 *2384:X *603:6 25.5271 
2 *603:6 *603:16 42.5707 
3 *603:16 *2191:A1 41.9564 
4 *603:16 *603:31 34.7407 
5 *603:31 *603:39 44.9143 
6 *603:39 *603:47 16.1571 
7 *603:47 *603:53 25.6471 
8 *603:53 *2186:A1 48.3157 
9 *603:53 *603:70 4.37071 
10 *603:70 *2189:A1 39.5743 
11 *603:70 *603:83 8.93821 
12 *603:83 *603:89 30.0075 
13 *603:89 *2194:A1 23 
14 *603:83 *603:96 2.88964 
15 *603:96 *2183:A1 38 
16 *603:96 *2181:A2 47.9429 
17 *603:47 *2196:A1 27.1221 
18 *603:39 *2200:A1 25.175 
19 *603:31 *2202:A1 23 
20 *603:6 *2208:A1 23 
*END

*D_NET *604 0.0214562
*CONN
*I *2208:B1 I *D sky130_fd_sc_hd__a21oi_1
*I *2191:B1 I *D sky130_fd_sc_hd__a21oi_1
*I *2205:B1 I *D sky130_fd_sc_hd__a21oi_1
*I *2196:B1 I *D sky130_fd_sc_hd__a21oi_1
*I *2181:B1 I *D sky130_fd_sc_hd__a21oi_1
*I *2183:B1 I *D sky130_fd_sc_hd__a21oi_1
*I *2194:B1 I *D sky130_fd_sc_hd__a21oi_1
*I *2186:B1 I *D sky130_fd_sc_hd__a21oi_1
*I *2189:B1 I *D sky130_fd_sc_hd__a21oi_1
*I *2200:B1 I *D sky130_fd_sc_hd__a21oi_1
*I *2385:X O *D sky130_fd_sc_hd__buf_2
*CAP
1 *2208:B1 0.00103422
2 *2191:B1 0
3 *2205:B1 0
4 *2196:B1 0
5 *2181:B1 0
6 *2183:B1 3.51562e-05
7 *2194:B1 0
8 *2186:B1 0
9 *2189:B1 0
10 *2200:B1 4.47995e-05
11 *2385:X 0
12 *604:130 0.000441587
13 *604:122 0.00186977
14 *604:110 0.000140708
15 *604:99 0.00073648
16 *604:78 0.000915852
17 *604:71 0.000546832
18 *604:67 0.000940522
19 *604:58 0.000910065
20 *604:44 0.00121748
21 *604:35 0.000681569
22 *604:33 0.00152244
23 *604:18 0.000978556
24 *604:12 0.000662244
25 *604:4 0.000880564
26 *604:130 *621:34 0.000773984
27 *2181:A2 *604:99 0.000348821
28 *2184:A2 *604:58 0.000145026
29 *2187:B *604:58 9.67842e-05
30 *2189:A1 *604:58 0.000135037
31 *2191:A1 *604:130 5.3304e-05
32 *2206:B *2208:B1 0.000166072
33 *2349:CLK *604:18 5.41288e-05
34 *2350:CLK *604:12 7.03766e-05
35 *2352:CLK *604:18 5.12254e-05
36 *2384:A *2208:B1 3.08966e-05
37 *2385:A *604:122 0.000198196
38 *163:18 *604:67 0.000543034
39 *163:18 *604:78 0.000263098
40 *163:18 *604:99 0.000159045
41 *164:12 *604:12 8.92944e-05
42 *173:8 *604:99 0
43 *250:10 *2183:B1 3.7122e-06
44 *252:8 *604:67 0.000114083
45 *253:10 *604:130 1.05235e-05
46 *255:10 *604:110 6.48049e-05
47 *256:8 *604:18 0.00019747
48 *256:8 *604:33 5.46706e-05
49 *259:10 *2208:B1 1.32314e-05
50 *291:89 *604:33 0.000176167
51 *291:89 *604:35 0.00016002
52 *291:95 *2200:B1 1.59094e-05
53 *323:16 *604:99 6.63156e-05
54 *430:25 *2208:B1 0.000260457
55 *430:25 *604:122 0.00011501
56 *438:59 *604:12 1.01436e-05
57 *448:18 *604:12 0.000140954
58 *471:36 *2183:B1 5.3304e-05
59 *471:125 *604:12 3.0647e-05
60 *471:125 *604:18 9.74235e-05
61 *471:125 *604:33 0.000138185
62 *473:38 *604:130 1.28427e-05
63 *475:12 *604:58 0.000195848
64 *480:44 *2208:B1 2.98648e-05
65 *486:25 *604:58 0.000143655
66 *486:32 *604:58 0.000256544
67 *486:49 *604:58 0.000171296
68 *487:25 *604:58 1.37702e-05
69 *488:63 *604:35 0.000274012
70 *488:63 *604:44 1.03836e-05
71 *488:63 *604:58 8.64461e-05
72 *488:73 *604:58 5.3304e-05
73 *490:22 *604:110 0.000271373
74 *541:12 *604:110 0
75 *558:14 *604:99 0
76 *603:6 *2208:B1 1.32939e-05
77 *603:16 *2208:B1 0.000274012
78 *603:16 *604:130 0
79 *603:39 *604:33 0.00010403
80 *603:89 *604:71 0.00108537
*RES
1 *2385:X *604:4 23 
2 *604:4 *604:12 38.9486 
3 *604:12 *604:18 19.6607 
4 *604:18 *2200:B1 38.6214 
5 *604:18 *604:33 29.2929 
6 *604:33 *604:35 12.0557 
7 *604:35 *2189:B1 23 
8 *604:35 *604:44 1.11857 
9 *604:44 *604:58 49.0986 
10 *604:58 *2186:B1 23 
11 *604:44 *604:67 22.1879 
12 *604:67 *604:71 27.0557 
13 *604:71 *2194:B1 23 
14 *604:67 *604:78 3.66643 
15 *604:78 *2183:B1 38.6214 
16 *604:78 *604:99 28.4021 
17 *604:99 *2181:B1 23 
18 *604:33 *604:110 33.6664 
19 *604:110 *2196:B1 23 
20 *604:12 *2205:B1 23 
21 *604:4 *604:122 7.29143 
22 *604:122 *604:130 40.9786 
23 *604:130 *2191:B1 23 
24 *604:122 *2208:B1 43.0514 
*END

*D_NET *605 0.0108221
*CONN
*I *2217:C1 I *D sky130_fd_sc_hd__a211oi_1
*I *2218:B1_N I *D sky130_fd_sc_hd__o21ba_1
*I *2210:B1 I *D sky130_fd_sc_hd__a21oi_1
*I *2215:B1 I *D sky130_fd_sc_hd__a21oi_1
*I *2202:B1 I *D sky130_fd_sc_hd__a21oi_1
*I *2213:A I *D sky130_fd_sc_hd__nor2_1
*I *2386:X O *D sky130_fd_sc_hd__clkbuf_2
*CAP
1 *2217:C1 0
2 *2218:B1_N 0.000630654
3 *2210:B1 0
4 *2215:B1 0
5 *2202:B1 0.000697952
6 *2213:A 0
7 *2386:X 0
8 *605:59 0.000711678
9 *605:51 0.00134233
10 *605:49 0.000406721
11 *605:34 0.000619715
12 *605:25 0.00169986
13 *605:14 0.00018804
14 *605:4 0.000976952
15 *2179:A *605:59 0
16 *2179:C *605:49 0.000233274
17 *2211:A1 *605:14 1.37232e-05
18 *2216:A1 *605:49 9.84851e-05
19 *2217:B1 *605:49 8.58188e-05
20 *261:8 *605:25 0
21 *263:14 *605:49 5.50049e-05
22 *264:8 *2218:B1_N 0
23 *291:99 *605:14 6.38845e-05
24 *291:99 *605:25 0
25 *430:25 *605:14 0
26 *430:25 *605:25 1.83667e-05
27 *434:25 *605:14 0.000262476
28 *434:47 *605:25 0
29 *436:10 *605:25 0
30 *436:14 *605:34 9.84851e-05
31 *436:14 *605:49 0.00031495
32 *437:12 *605:49 2.4754e-05
33 *437:12 *605:59 3.80371e-05
34 *437:18 *605:59 6.16439e-05
35 *438:14 *605:34 5.3304e-05
36 *438:23 *605:59 5.12487e-05
37 *438:25 *605:59 2.12147e-05
38 *473:8 *605:59 0
39 *473:67 *2218:B1_N 6.53445e-05
40 *473:107 *605:59 0.000138718
41 *482:12 *605:25 0
42 *485:22 *605:59 0.00067886
43 *603:16 *605:25 0
44 *603:31 *2202:B1 0.00117063
45 *603:31 *605:25 0
*RES
1 *2386:X *605:4 23 
2 *605:4 *605:14 34.35 
3 *605:14 *2213:A 23 
4 *605:4 *605:25 43.8786 
5 *605:25 *2202:B1 39.82 
6 *605:25 *605:34 3.95643 
7 *605:34 *2215:B1 23 
8 *605:34 *605:49 9.88071 
9 *605:49 *605:51 15 
10 *605:51 *605:59 30.2457 
11 *605:59 *2210:B1 23 
12 *605:51 *2218:B1_N 49.6414 
13 *605:49 *2217:C1 23 
*END

*D_NET *606 0.0193773
*CONN
*I *2022:B I *D sky130_fd_sc_hd__and3_1
*I *2015:B I *D sky130_fd_sc_hd__and3_1
*I *2016:B I *D sky130_fd_sc_hd__and3_1
*I *2019:B I *D sky130_fd_sc_hd__and3_1
*I *2013:B I *D sky130_fd_sc_hd__and3_1
*I *2011:B I *D sky130_fd_sc_hd__and3_1
*I *2025:B I *D sky130_fd_sc_hd__and3_1
*I *2026:B I *D sky130_fd_sc_hd__and3_1
*I *2012:B I *D sky130_fd_sc_hd__and3_1
*I *2021:B I *D sky130_fd_sc_hd__and3_1
*I *2387:X O *D sky130_fd_sc_hd__clkbuf_2
*CAP
1 *2022:B 0.000107693
2 *2015:B 7.82765e-05
3 *2016:B 0
4 *2019:B 0
5 *2013:B 0.000536912
6 *2011:B 5.13684e-05
7 *2025:B 0.000369936
8 *2026:B 0.000210204
9 *2012:B 0.000272267
10 *2021:B 0.000169747
11 *2387:X 0
12 *606:137 0.000267222
13 *606:131 0.000576045
14 *606:124 6.91154e-05
15 *606:118 0.00128856
16 *606:60 0.000580139
17 *606:58 0.000746262
18 *606:48 0.000849085
19 *606:31 0.000732154
20 *606:23 0.00165921
21 *606:19 0.00185606
22 *606:17 0.00077759
23 *606:4 0.000686346
24 *2011:B *610:57 2.92911e-06
25 *2012:B *2012:C 8.85189e-05
26 *2012:B *610:49 0.000149064
27 *2012:B *622:38 0
28 *2013:B *610:34 6.02029e-05
29 *2021:B *607:38 2.48272e-05
30 *2021:B *610:107 2.45549e-06
31 *2025:B *2025:C 0.000251752
32 *2025:B *2026:C 1.22803e-05
33 *2026:B *2026:C 0.000163951
34 *606:17 *607:38 1.39431e-05
35 *606:17 *607:51 3.58358e-05
36 *606:17 *622:32 0.000413136
37 *606:19 *622:32 0.000364806
38 *606:23 *622:32 0.00138132
39 *606:31 *610:34 6.63464e-06
40 *606:48 *610:49 7.17297e-05
41 *606:58 *610:57 0.000645298
42 *606:137 *2015:C 0.000203407
43 *606:137 *610:12 0.000111852
44 *606:137 *611:10 5.68527e-05
45 *606:137 *611:64 0
46 *2011:A *2011:B 2.45549e-06
47 *2011:A *606:31 0
48 *2011:A *606:58 1.39317e-05
49 *2012:A *2012:B 1.47563e-05
50 *2013:A *2013:B 3.71251e-05
51 *2048:A1 *606:137 3.55887e-05
52 *2133:B *606:118 0.000267167
53 *2135:A *606:118 0.000137651
54 *2135:B *606:118 0.000141052
55 *2143:A *606:58 0.000361514
56 *2285:D *2013:B 4.95081e-05
57 *2285:D *606:31 0.000119477
58 *2308:CLK *606:17 6.6978e-05
59 *2328:CLK *606:118 9.00922e-05
60 *2328:CLK *606:131 2.98648e-05
61 *2406:A *606:17 2.71291e-05
62 *2406:A *606:19 0.000164833
63 *2412:A *2012:B 0
64 *2486:A *2025:B 7.87243e-05
65 *150:14 *2022:B 0.000139346
66 *161:10 *2025:B 5.74491e-05
67 *224:10 *606:23 0.000218943
68 *234:8 *606:118 0.000221914
69 *329:20 *606:124 4.08537e-05
70 *329:20 *606:137 0
71 *329:24 *2015:B 4.96717e-05
72 *329:24 *606:131 0.000125488
73 *385:8 *606:23 8.82524e-05
74 *400:20 *606:23 2.96369e-05
75 *466:33 *606:23 0
76 *466:75 *2026:B 5.40337e-05
77 *502:12 *606:23 6.68793e-05
78 *502:30 *606:19 1.83667e-05
79 *502:30 *606:23 2.70366e-05
80 *505:21 *606:58 0
81 *573:8 *606:31 0
82 *573:14 *606:58 0.000539781
83 *576:18 *2012:B 0
84 *584:22 *2025:B 1.81777e-05
85 *600:16 *606:118 9.86742e-05
86 *600:22 *606:23 0
87 *600:26 *606:23 0
88 *600:44 *2012:B 0
*RES
1 *2387:X *606:4 23 
2 *606:4 *2021:B 25.0507 
3 *606:4 *606:17 24.7357 
4 *606:17 *606:19 5.075 
5 *606:19 *606:23 33.8086 
6 *606:23 *606:31 20.3754 
7 *606:31 *2012:B 43.6654 
8 *606:31 *606:48 16.0254 
9 *606:48 *606:58 46.1364 
10 *606:58 *606:60 15 
11 *606:60 *2026:B 42.4743 
12 *606:60 *2025:B 46.6793 
13 *606:48 *2011:B 23.6214 
14 *606:23 *2013:B 30.7679 
15 *606:19 *606:118 33.7671 
16 *606:118 *606:124 31.2014 
17 *606:124 *2019:B 23 
18 *606:118 *606:131 3.48 
19 *606:131 *606:137 35.7793 
20 *606:137 *2016:B 23 
21 *606:131 *2015:B 24.0979 
22 *606:17 *2022:B 39.5743 
*END

*D_NET *607 0.0165542
*CONN
*I *2020:B I *D sky130_fd_sc_hd__and3_1
*I *2018:B I *D sky130_fd_sc_hd__and3_1
*I *2017:B I *D sky130_fd_sc_hd__and3_1
*I *2014:B I *D sky130_fd_sc_hd__and3_1
*I *2387:A I *D sky130_fd_sc_hd__clkbuf_2
*I *2023:B I *D sky130_fd_sc_hd__and3_1
*I *2024:B I *D sky130_fd_sc_hd__and3_1
*I *2388:X O *D sky130_fd_sc_hd__clkbuf_2
*CAP
1 *2020:B 4.55235e-05
2 *2018:B 0.000532474
3 *2017:B 0
4 *2014:B 0
5 *2387:A 0
6 *2023:B 0.000194153
7 *2024:B 0.000544923
8 *2388:X 0
9 *607:70 0.00109351
10 *607:63 0.00127427
11 *607:53 0.00159472
12 *607:51 0.00271123
13 *607:38 0.0024016
14 *607:8 0.000884678
15 *607:4 0.000671931
16 *2018:B *2018:C 3.52654e-05
17 *2024:B *2024:A 4.82237e-05
18 *2024:B *2024:C 2.45549e-06
19 *2024:B *611:26 6.04393e-06
20 *2024:B *617:37 0
21 *607:38 *2253:A 0.000402806
22 *607:38 *610:107 1.95448e-05
23 *607:63 *611:76 0.000371514
24 *607:70 *611:83 2.19571e-05
25 *2021:B *607:38 2.48272e-05
26 *2038:B1 *2020:B 2.93845e-05
27 *2050:C *607:51 0.00021677
28 *2053:C *607:53 0
29 *2063:A1 *607:51 2.64616e-05
30 *2063:A2 *607:51 3.22879e-05
31 *2098:A *607:51 8.93893e-05
32 *2308:CLK *607:51 0.000269781
33 *2308:D *607:51 0.00027663
34 *2415:A *607:63 5.70419e-05
35 *2415:A *607:70 0.000234159
36 *152:10 *2018:B 0.000430442
37 *152:10 *607:70 0.00010018
38 *197:8 *2024:B 0
39 *197:8 *607:8 0
40 *289:35 *607:53 0.000219891
41 *329:42 *607:53 0.000185783
42 *331:31 *607:51 4.79544e-05
43 *335:28 *607:51 4.75206e-05
44 *336:10 *607:53 3.04021e-05
45 *336:10 *607:63 1.19692e-05
46 *336:26 *607:53 0
47 *339:10 *607:51 9.84851e-05
48 *342:8 *607:53 4.66036e-05
49 *343:8 *607:53 0.000138643
50 *350:25 *607:51 4.97979e-05
51 *382:10 *607:51 9.84794e-05
52 *388:23 *607:53 0
53 *388:23 *607:63 0
54 *388:29 *607:53 8.92738e-05
55 *465:125 *607:53 0
56 *467:25 *2023:B 2.1819e-05
57 *501:31 *607:53 0.000139647
58 *509:48 *607:53 5.94125e-05
59 *510:72 *607:53 7.81176e-05
60 *513:12 *607:53 0
61 *518:10 *2024:B 0.000110913
62 *529:10 *607:63 1.02561e-05
63 *535:8 *607:53 0.000141888
64 *557:10 *607:63 0
65 *559:19 *607:53 0
66 *586:6 *2023:B 0.000233367
67 *601:42 *607:53 0
68 *606:17 *607:38 1.39431e-05
69 *606:17 *607:51 3.58358e-05
*RES
1 *2388:X *607:4 23 
2 *607:4 *607:8 16.9057 
3 *607:8 *2024:B 46.7829 
4 *607:8 *2023:B 41.0036 
5 *607:4 *607:38 10.7093 
6 *607:38 *2387:A 23 
7 *607:38 *607:51 48.8886 
8 *607:51 *607:53 18.4564 
9 *607:53 *607:63 29.2307 
10 *607:63 *2014:B 23 
11 *607:63 *607:70 8.24429 
12 *607:70 *2017:B 23 
13 *607:70 *2018:B 31.2443 
14 *607:53 *2020:B 38.6214 
*END

*D_NET *608 0.0165273
*CONN
*I *1973:B1 I *D sky130_fd_sc_hd__o21a_1
*I *1976:B1 I *D sky130_fd_sc_hd__o21a_1
*I *1985:B1 I *D sky130_fd_sc_hd__o21a_1
*I *1979:B1 I *D sky130_fd_sc_hd__o21a_1
*I *1970:B1 I *D sky130_fd_sc_hd__o21a_1
*I *1991:B1 I *D sky130_fd_sc_hd__o21a_1
*I *1988:B1 I *D sky130_fd_sc_hd__o21a_1
*I *1995:B I *D sky130_fd_sc_hd__and2_1
*I *1982:C1 I *D sky130_fd_sc_hd__o211a_1
*I *1993:C1 I *D sky130_fd_sc_hd__o211a_1
*I *2389:X O *D sky130_fd_sc_hd__buf_2
*CAP
1 *1973:B1 0.000241253
2 *1976:B1 2.79004e-05
3 *1985:B1 0.000170422
4 *1979:B1 0
5 *1970:B1 6.25567e-05
6 *1991:B1 0.000106466
7 *1988:B1 0
8 *1995:B 0
9 *1982:C1 2.96185e-05
10 *1993:C1 0
11 *2389:X 9.63036e-05
12 *608:77 0.000192665
13 *608:71 0.00111233
14 *608:65 0.00119412
15 *608:59 0.00031837
16 *608:52 0.000965325
17 *608:37 0.00129466
18 *608:26 9.73428e-05
19 *608:20 0.00204234
20 *608:14 0.00174427
21 *608:12 0.000456173
22 *608:10 0.000305954
23 *608:8 0.00042885
24 *1970:B1 *638:36 0.000139357
25 *1973:B1 *1971:C 0.000115005
26 *1985:B1 *614:48 0.000330436
27 *608:10 *1971:C 0.000157299
28 *608:12 *1971:C 6.16531e-05
29 *608:12 *614:79 0.000367958
30 *608:14 *1964:B 5.24393e-05
31 *608:14 *614:50 8.4047e-05
32 *608:14 *614:79 6.48142e-05
33 *608:20 *1964:B 0.000231604
34 *608:20 *638:36 0.000213328
35 *608:52 *621:34 0
36 *608:65 *1966:C 9.50001e-05
37 *608:65 *1977:C 2.02872e-05
38 *608:71 *2034:C 2.36844e-05
39 *608:71 *639:10 4.90994e-05
40 *608:71 *640:25 7.56099e-05
41 *608:77 *640:25 0
42 *1951:A *608:52 2.36844e-05
43 *1965:B *608:20 6.53382e-05
44 *1966:B *608:65 2.62931e-05
45 *1971:A *1973:B1 0.000223441
46 *1971:B *1973:B1 4.9662e-05
47 *1971:B *608:8 0.00014196
48 *1973:A1 *1973:B1 5.50106e-05
49 *1982:A1 *608:37 9.88574e-06
50 *1982:A1 *608:52 1.14876e-05
51 *1982:B1 *1982:C1 2.02517e-05
52 *1982:B1 *608:20 0.000148698
53 *1982:B1 *608:37 0.000301488
54 *2008:B1 *608:52 0
55 *2390:A *608:52 4.21594e-06
56 *138:6 *1970:B1 1.94812e-05
57 *163:8 *608:65 0.00014196
58 *164:12 *608:26 4.90994e-05
59 *167:8 *1991:B1 4.79641e-05
60 *167:8 *608:71 0.00022295
61 *273:28 *608:71 0.000166513
62 *286:12 *608:52 3.5664e-05
63 *287:25 *608:52 0
64 *293:10 *608:20 0.0002263
65 *295:43 *608:77 0
66 *296:25 *608:37 1.40958e-05
67 *299:12 *608:65 0.000123428
68 *299:12 *608:71 0.000308634
69 *301:12 *608:10 2.76611e-06
70 *301:12 *608:12 0.000134917
71 *301:12 *608:14 5.68527e-05
72 *301:12 *608:20 7.75329e-06
73 *303:10 *608:20 6.6869e-05
74 *314:24 *608:52 0
75 *465:64 *608:65 0
76 *465:64 *608:71 0
77 *487:40 *1976:B1 5.50106e-05
78 *488:16 *1973:B1 0
79 *488:16 *608:10 0
80 *498:81 *608:26 7.8128e-05
81 *560:36 *1985:B1 0.000608063
82 *563:8 *608:71 0.000110913
*RES
1 *2389:X *608:8 39.5743 
2 *608:8 *608:10 2.25786 
3 *608:10 *608:12 5.77929 
4 *608:12 *608:14 2.61 
5 *608:14 *608:20 39.3186 
6 *608:20 *608:26 32.2579 
7 *608:26 *1993:C1 23 
8 *608:20 *608:37 5.55143 
9 *608:37 *1982:C1 23.8493 
10 *608:37 *608:52 45.7014 
11 *608:52 *1995:B 23 
12 *608:14 *608:59 15 
13 *608:59 *608:65 22.2707 
14 *608:65 *608:71 33.3114 
15 *608:71 *608:77 33.3143 
16 *608:77 *1988:B1 23 
17 *608:71 *1991:B1 25.0507 
18 *608:65 *1970:B1 39.5743 
19 *608:59 *1979:B1 23 
20 *608:12 *1985:B1 44.815 
21 *608:10 *1976:B1 38.6214 
22 *608:8 *1973:B1 44.4421 
*END

*D_NET *609 0.00895797
*CONN
*I *2009:B I *D sky130_fd_sc_hd__and3_1
*I *2010:B I *D sky130_fd_sc_hd__and3_1
*I *2006:A I *D sky130_fd_sc_hd__and2_1
*I *2004:A I *D sky130_fd_sc_hd__and2_1
*I *2000:C1 I *D sky130_fd_sc_hd__o211a_1
*I *2390:X O *D sky130_fd_sc_hd__buf_1
*CAP
1 *2009:B 0.00016046
2 *2010:B 0
3 *2006:A 0
4 *2004:A 0.000316949
5 *2000:C1 0.000186176
6 *2390:X 0
7 *609:53 0.000986518
8 *609:31 0.000511813
9 *609:29 0.00222112
10 *609:25 0.00162615
11 *609:4 0.000612135
12 *2004:A *613:135 0
13 *2004:A *621:199 0
14 *2009:B *613:148 6.35797e-06
15 *2009:B *613:155 6.41577e-05
16 *609:31 *613:135 0
17 *609:31 *621:199 0
18 *609:53 *613:135 0
19 *609:53 *613:148 0
20 *609:53 *621:199 0
21 *2004:B *2004:A 3.22879e-05
22 *2008:B1 *609:25 0.000159619
23 *2075:A1 *609:29 1.5769e-05
24 *2075:A3 *609:29 2.13733e-05
25 *2080:A1 *609:29 2.93747e-05
26 *2080:B1 *609:29 7.88828e-05
27 *2086:C1 *609:25 5.50106e-05
28 *2283:CLK *609:53 0
29 *2390:A *609:25 0
30 *144:8 *609:53 6.93449e-05
31 *280:85 *2000:C1 0.000362684
32 *280:85 *609:25 0.000172197
33 *281:33 *2000:C1 5.50049e-05
34 *286:22 *609:25 0
35 *287:25 *609:25 1.01436e-05
36 *295:107 *2004:A 0
37 *322:10 *2004:A 7.03766e-05
38 *359:6 *609:25 0.000528025
39 *360:16 *609:25 0.000291038
40 *360:16 *609:29 1.22822e-05
41 *360:29 *609:25 1.14154e-05
42 *360:29 *609:29 0.000176888
43 *361:8 *609:29 2.87911e-05
44 *472:114 *2004:A 2.93845e-05
45 *473:123 *609:53 0
46 *480:54 *609:29 5.62429e-05
*RES
1 *2390:X *609:4 23 
2 *609:4 *2000:C1 27.8057 
3 *609:4 *609:25 41.8486 
4 *609:25 *609:29 31.3436 
5 *609:29 *609:31 3.66643 
6 *609:31 *2004:A 44.4007 
7 *609:31 *2006:A 38 
8 *609:29 *609:53 30.2871 
9 *609:53 *2010:B 23 
10 *609:53 *2009:B 26.5214 
*END

*D_NET *610 0.01941
*CONN
*I *2015:C I *D sky130_fd_sc_hd__and3_1
*I *2016:C I *D sky130_fd_sc_hd__and3_1
*I *2019:C I *D sky130_fd_sc_hd__and3_1
*I *2022:C I *D sky130_fd_sc_hd__and3_1
*I *2021:C I *D sky130_fd_sc_hd__and3_1
*I *2013:C I *D sky130_fd_sc_hd__and3_1
*I *2011:C I *D sky130_fd_sc_hd__and3_1
*I *2025:C I *D sky130_fd_sc_hd__and3_1
*I *2026:C I *D sky130_fd_sc_hd__and3_1
*I *2012:C I *D sky130_fd_sc_hd__and3_1
*I *2391:X O *D sky130_fd_sc_hd__clkbuf_2
*CAP
1 *2015:C 0.000225645
2 *2016:C 0
3 *2019:C 0
4 *2022:C 0
5 *2021:C 0
6 *2013:C 0
7 *2011:C 0
8 *2025:C 0.000364617
9 *2026:C 0.000280336
10 *2012:C 5.89246e-05
11 *2391:X 0
12 *610:125 0.000138731
13 *610:107 0.000527177
14 *610:95 0.001775
15 *610:57 0.00172445
16 *610:49 0.00122083
17 *610:34 0.0010098
18 *610:26 0.00170087
19 *610:22 0.00227434
20 *610:18 0.00042196
21 *610:12 0.000275719
22 *610:6 0.000353322
23 *2015:C *611:64 0
24 *2025:C *616:45 0
25 *2025:C *616:51 0
26 *2026:C *2243:A 0
27 *2026:C *616:51 0
28 *610:12 *611:64 0
29 *610:125 *2392:A 1.95448e-05
30 *2011:A *610:49 3.47781e-05
31 *2011:A *610:57 5.50049e-05
32 *2011:B *610:57 2.92911e-06
33 *2012:A *2012:C 8.4047e-05
34 *2012:A *610:49 0.000355699
35 *2012:B *2012:C 8.85189e-05
36 *2012:B *610:49 0.000149064
37 *2013:A *610:34 5.7657e-05
38 *2013:B *610:34 6.02029e-05
39 *2021:A *610:107 0.000212712
40 *2021:B *610:107 2.45549e-06
41 *2022:A *610:95 0.0002263
42 *2025:B *2025:C 0.000251752
43 *2025:B *2026:C 1.22803e-05
44 *2026:B *2026:C 0.000163951
45 *2040:B *2015:C 0
46 *2048:A1 *610:18 0
47 *2105:A2 *610:26 0
48 *2143:A *610:57 0.000193575
49 *2285:D *610:34 0.0001126
50 *2287:CLK *610:26 0
51 *2289:D *610:107 0.00012239
52 *2328:CLK *2015:C 3.9889e-05
53 *2406:A *610:95 3.11099e-05
54 *2406:A *610:107 7.74909e-05
55 *2418:A *610:95 0.000140291
56 *2486:A *2025:C 0.000217912
57 *150:14 *610:95 8.90115e-05
58 *150:14 *610:107 1.22822e-05
59 *151:8 *610:18 0.000175474
60 *151:8 *610:22 0.000921898
61 *162:10 *2026:C 5.50049e-05
62 *197:8 *610:107 0
63 *328:8 *2015:C 0
64 *329:16 *610:18 9.84851e-05
65 *329:16 *610:22 0.000920197
66 *329:20 *2015:C 0
67 *329:20 *610:125 4.96264e-05
68 *383:8 *610:95 0
69 *400:20 *610:18 3.04516e-05
70 *402:16 *610:95 0
71 *404:8 *610:95 0
72 *410:22 *2025:C 0
73 *412:10 *2026:C 0
74 *466:75 *2026:C 5.94125e-05
75 *468:72 *610:26 0
76 *468:87 *610:26 0
77 *468:87 *610:95 0
78 *499:24 *610:26 0
79 *499:41 *610:26 0
80 *501:12 *610:95 0.000166522
81 *501:19 *610:95 0.000256785
82 *501:21 *610:95 0.000153218
83 *505:21 *610:49 0
84 *505:34 *610:49 0
85 *509:61 *2015:C 8.72445e-05
86 *573:14 *610:57 3.8481e-05
87 *576:28 *2026:C 0.00012548
88 *600:10 *610:95 3.83778e-05
89 *600:22 *610:26 0
90 *600:22 *610:95 0
91 *600:26 *610:26 0
92 *600:44 *2012:C 9.70259e-06
93 *606:31 *610:34 6.63464e-06
94 *606:48 *610:49 7.17297e-05
95 *606:58 *610:57 0.000645298
96 *606:137 *2015:C 0.000203407
97 *606:137 *610:12 0.000111852
98 *607:38 *610:107 1.95448e-05
*RES
1 *2391:X *610:6 38 
2 *610:6 *610:12 17.3407 
3 *610:12 *610:18 3.95643 
4 *610:18 *610:22 25.15 
5 *610:22 *610:26 30.2871 
6 *610:26 *610:34 26.1857 
7 *610:34 *2012:C 39.4293 
8 *610:34 *610:49 19.7229 
9 *610:49 *610:57 30.95 
10 *610:57 *2026:C 43.7793 
11 *610:57 *2025:C 45.7886 
12 *610:49 *2011:C 23 
13 *610:26 *2013:C 23 
14 *610:22 *610:95 36.3979 
15 *610:95 *610:107 40.8543 
16 *610:107 *2021:C 23 
17 *610:95 *2022:C 23 
18 *610:18 *610:125 32.1336 
19 *610:125 *2019:C 23 
20 *610:12 *2016:C 23 
21 *610:6 *2015:C 42.8264 
*END

*D_NET *611 0.0163874
*CONN
*I *2391:A I *D sky130_fd_sc_hd__clkbuf_2
*I *2020:C I *D sky130_fd_sc_hd__and3_1
*I *2018:C I *D sky130_fd_sc_hd__and3_1
*I *2017:C I *D sky130_fd_sc_hd__and3_1
*I *2014:C I *D sky130_fd_sc_hd__and3_1
*I *2023:C I *D sky130_fd_sc_hd__and3_1
*I *2024:C I *D sky130_fd_sc_hd__and3_1
*I *2392:X O *D sky130_fd_sc_hd__clkbuf_2
*CAP
1 *2391:A 0
2 *2020:C 1.14512e-05
3 *2018:C 0.000557615
4 *2017:C 0
5 *2014:C 0
6 *2023:C 0
7 *2024:C 1.22742e-05
8 *2392:X 0
9 *611:83 0.00111436
10 *611:76 0.00112676
11 *611:64 0.00130279
12 *611:52 0.000896656
13 *611:41 0.000348929
14 *611:26 0.000916244
15 *611:18 0.00191798
16 *611:10 0.00152682
17 *611:4 0.000339212
18 *611:26 *2024:A 0.000231193
19 *611:26 *632:8 8.62783e-05
20 *611:41 *617:54 1.95448e-05
21 *611:52 *2392:A 5.50106e-05
22 *2014:A *611:83 9.5877e-05
23 *2015:C *611:64 0
24 *2018:B *2018:C 3.52654e-05
25 *2020:A *2020:C 2.17658e-05
26 *2020:A *611:64 9.84794e-05
27 *2024:B *2024:C 2.45549e-06
28 *2024:B *611:26 6.04393e-06
29 *2038:A2 *611:64 3.55887e-05
30 *2038:B1 *611:64 1.41077e-05
31 *2038:C1 *611:64 0.000243083
32 *2048:A1 *611:64 7.4878e-05
33 *2140:B *611:18 5.94125e-05
34 *2141:B *611:18 1.01436e-05
35 *2298:CLK *611:26 0
36 *2415:A *611:83 3.34247e-05
37 *151:8 *611:18 0.00276876
38 *152:10 *2018:C 0.000135889
39 *152:10 *611:83 2.83219e-05
40 *328:8 *611:64 0.000296017
41 *329:20 *611:10 1.12487e-05
42 *388:23 *611:64 0
43 *388:23 *611:76 0
44 *400:14 *611:10 8.4047e-05
45 *400:14 *611:52 0.000136298
46 *400:14 *611:64 4.19743e-05
47 *406:27 *611:26 0.000300108
48 *409:10 *611:18 1.02133e-05
49 *409:10 *611:26 0.000133495
50 *410:10 *611:18 0.000272377
51 *468:49 *611:76 0.000162409
52 *468:49 *611:83 0.000148363
53 *505:34 *611:18 0
54 *505:34 *611:26 0
55 *509:61 *611:64 5.50049e-05
56 *557:10 *611:76 0
57 *584:8 *611:76 0.000158914
58 *606:137 *611:10 5.68527e-05
59 *606:137 *611:64 0
60 *607:63 *611:76 0.000371514
61 *607:70 *611:83 2.19571e-05
62 *610:12 *611:64 0
*RES
1 *2392:X *611:4 23 
2 *611:4 *611:10 32.61 
3 *611:10 *611:18 47.8114 
4 *611:18 *611:26 25.8129 
5 *611:26 *2024:C 23.2279 
6 *611:26 *611:41 35.655 
7 *611:41 *2023:C 23 
8 *611:4 *611:52 3.16929 
9 *611:52 *611:64 44.1893 
10 *611:64 *611:76 43.6714 
11 *611:76 *2014:C 23 
12 *611:76 *611:83 8.24429 
13 *611:83 *2017:C 23 
14 *611:83 *2018:C 31.41 
15 *611:64 *2020:C 23.2537 
16 *611:52 *2391:A 23 
*END

*D_NET *612 0.000735141
*CONN
*I *2088:C I *D sky130_fd_sc_hd__or4_1
*I *2457:X O *D sky130_fd_sc_hd__clkbuf_1
*CAP
1 *2088:C 0
2 *2457:X 0.000279096
3 *612:10 0.000279096
4 *747:DIODE *612:10 3.22879e-05
5 *2155:A2 *612:10 3.7122e-06
6 *18:11 *612:10 0
7 *568:10 *612:10 0.000140949
*RES
1 *2457:X *612:10 42.4329 
2 *612:10 *2088:C 38 
*END

*D_NET *613 0.0241894
*CONN
*I *659:DIODE I *D sky130_fd_sc_hd__diode_2
*I *1987:B1 I *D sky130_fd_sc_hd__a22o_1
*I *663:DIODE I *D sky130_fd_sc_hd__diode_2
*I *2009:C I *D sky130_fd_sc_hd__and3_1
*I *2010:C I *D sky130_fd_sc_hd__and3_1
*I *664:DIODE I *D sky130_fd_sc_hd__diode_2
*I *2005:A2 I *D sky130_fd_sc_hd__a22o_1
*I *662:DIODE I *D sky130_fd_sc_hd__diode_2
*I *2003:A2 I *D sky130_fd_sc_hd__a22o_1
*I *661:DIODE I *D sky130_fd_sc_hd__diode_2
*I *2392:A I *D sky130_fd_sc_hd__clkbuf_2
*I *712:DIODE I *D sky130_fd_sc_hd__diode_2
*I *658:DIODE I *D sky130_fd_sc_hd__diode_2
*I *713:DIODE I *D sky130_fd_sc_hd__diode_2
*I *1990:B1 I *D sky130_fd_sc_hd__a22o_1
*I *2393:X O *D sky130_fd_sc_hd__clkbuf_2
*CAP
1 *659:DIODE 0.000101429
2 *1987:B1 0
3 *663:DIODE 0.000112389
4 *2009:C 0
5 *2010:C 0
6 *664:DIODE 0
7 *2005:A2 0
8 *662:DIODE 0
9 *2003:A2 0.000196689
10 *661:DIODE 0
11 *2392:A 0.000277167
12 *712:DIODE 0
13 *658:DIODE 0
14 *713:DIODE 0
15 *1990:B1 0
16 *2393:X 0
17 *613:155 0.000274685
18 *613:148 0.00040964
19 *613:135 0.00149853
20 *613:124 0.00144748
21 *613:113 0.000360082
22 *613:91 0.000196689
23 *613:89 0.00053689
24 *613:85 0.00228051
25 *613:57 0.000392467
26 *613:53 0.00200934
27 *613:51 0.00203184
28 *613:47 0.00236116
29 *613:34 0.000370548
30 *613:27 0.000208529
31 *613:23 0.000248819
32 *613:19 0.000196325
33 *613:12 0.000192504
34 *613:4 0.000192504
35 *659:DIODE *1987:A1 0.000202487
36 *613:23 *1987:A1 0.000163352
37 *613:27 *1972:B2 3.34129e-05
38 *613:47 *634:63 5.36457e-05
39 *613:47 *649:66 8.26569e-05
40 *613:53 *617:71 0
41 *613:53 *634:48 0
42 *613:53 *634:63 0.000379413
43 *613:53 *635:50 1.47563e-05
44 *613:85 *1932:A 4.17736e-05
45 *613:85 *645:10 0.00035518
46 *613:85 *650:18 0.000242614
47 *613:89 *620:44 0
48 *613:89 *620:62 0
49 *1957:A *613:89 0
50 *1984:A2 *613:23 1.47563e-05
51 *1986:A *613:53 0
52 *2003:B2 *2003:A2 5.90132e-05
53 *2004:A *613:135 0
54 *2004:B *2003:A2 1.56273e-05
55 *2005:A1 *613:124 1.5769e-05
56 *2005:A1 *613:135 0
57 *2009:B *613:148 6.35797e-06
58 *2009:B *613:155 6.41577e-05
59 *2019:A *2392:A 3.50281e-05
60 *2057:C *613:53 6.7177e-06
61 *143:10 *663:DIODE 5.50106e-05
62 *154:8 *2392:A 3.06338e-05
63 *154:8 *613:57 5.31757e-05
64 *216:8 *613:53 0
65 *242:10 *613:89 0.000110913
66 *259:10 *613:135 0
67 *271:64 *613:89 0
68 *290:33 *613:53 0
69 *292:59 *613:12 4.08641e-05
70 *293:10 *659:DIODE 0.000113153
71 *295:101 *613:124 0.00013249
72 *295:107 *613:135 2.76611e-06
73 *307:16 *659:DIODE 4.60366e-05
74 *307:16 *613:23 9.28739e-05
75 *307:16 *613:53 0
76 *316:24 *613:89 0
77 *316:24 *613:113 0
78 *326:16 *613:53 1.69668e-05
79 *334:10 *613:53 0
80 *335:12 *613:85 0.00202097
81 *338:21 *613:53 0.000228981
82 *338:31 *613:53 0.000168744
83 *346:12 *613:53 0
84 *361:18 *613:89 0.000204573
85 *361:18 *613:113 0.000100625
86 *361:18 *613:135 0
87 *381:10 *613:53 0.000379403
88 *383:8 *613:53 0.000193407
89 *400:14 *2392:A 9.84851e-05
90 *405:8 *613:53 0
91 *468:87 *613:53 4.21594e-06
92 *468:87 *613:57 5.50106e-05
93 *470:54 *613:12 0.000178517
94 *472:39 *613:85 0.00121739
95 *472:114 *2003:A2 1.32939e-05
96 *472:114 *613:113 8.4047e-05
97 *473:8 *613:135 0
98 *480:70 *2003:A2 6.10963e-05
99 *480:70 *613:113 0
100 *481:12 *613:135 0
101 *491:48 *613:27 0.000104392
102 *491:48 *613:34 0.00010018
103 *491:48 *613:47 0.000356724
104 *495:64 *613:53 0
105 *496:30 *613:53 0
106 *496:41 *613:53 0
107 *537:16 *613:148 6.69742e-05
108 *555:10 *613:12 1.14452e-05
109 *555:20 *613:12 8.85189e-05
110 *609:31 *613:135 0
111 *609:53 *613:135 0
112 *609:53 *613:148 0
113 *610:125 *2392:A 1.95448e-05
114 *611:52 *2392:A 5.50106e-05
*RES
1 *2393:X *613:4 23 
2 *613:4 *613:12 33.2521 
3 *613:12 *1990:B1 23 
4 *613:4 *613:19 15 
5 *613:19 *613:23 17.61 
6 *613:23 *613:27 2.54786 
7 *613:27 *713:DIODE 23 
8 *613:27 *613:34 1.09786 
9 *613:34 *658:DIODE 23 
10 *613:34 *613:47 36.2143 
11 *613:47 *613:51 17.0507 
12 *613:51 *613:53 37.12 
13 *613:53 *613:57 17.5271 
14 *613:57 *712:DIODE 23 
15 *613:57 *2392:A 28.7171 
16 *613:47 *613:85 46.545 
17 *613:85 *613:89 22.1879 
18 *613:89 *613:91 15 
19 *613:91 *661:DIODE 23 
20 *613:91 *2003:A2 26.6664 
21 *613:89 *613:113 17.9621 
22 *613:113 *662:DIODE 23 
23 *613:113 *613:124 3.87357 
24 *613:124 *2005:A2 23 
25 *613:124 *613:135 37.2471 
26 *613:135 *664:DIODE 38 
27 *613:135 *613:148 19.0393 
28 *613:148 *2010:C 23 
29 *613:148 *613:155 2.52714 
30 *613:155 *2009:C 23 
31 *613:155 *663:DIODE 25.1336 
32 *613:23 *1987:B1 23 
33 *613:19 *659:DIODE 40.9621 
*END

*D_NET *614 0.0117448
*CONN
*I *1999:B1 I *D sky130_fd_sc_hd__a22o_1
*I *1992:A2 I *D sky130_fd_sc_hd__a21o_1
*I *1994:A1 I *D sky130_fd_sc_hd__o21a_1
*I *1971:C I *D sky130_fd_sc_hd__and3_1
*I *1974:C I *D sky130_fd_sc_hd__and3_1
*I *1977:C I *D sky130_fd_sc_hd__and3_1
*I *1966:C I *D sky130_fd_sc_hd__and3_1
*I *1964:B I *D sky130_fd_sc_hd__nor2_2
*I *1983:C I *D sky130_fd_sc_hd__and3_1
*I *1981:B1 I *D sky130_fd_sc_hd__a22o_1
*I *2394:X O *D sky130_fd_sc_hd__buf_2
*CAP
1 *1999:B1 0.000231739
2 *1992:A2 0
3 *1994:A1 1.00124e-05
4 *1971:C 0.000226992
5 *1974:C 0.000250148
6 *1977:C 0.000263537
7 *1966:C 0.000127047
8 *1964:B 0.000236489
9 *1983:C 0
10 *1981:B1 0.00010249
11 *2394:X 7.03398e-05
12 *614:103 3.45277e-05
13 *614:101 0.000433455
14 *614:79 0.000697679
15 *614:63 0.000390584
16 *614:50 0.000292612
17 *614:48 0.00087592
18 *614:44 0.000857253
19 *614:23 0.000514565
20 *614:10 0.000434821
21 *614:6 0.000323301
22 *1964:B *638:36 0.000225393
23 *1981:B1 *638:36 1.14452e-05
24 *1966:B *1977:C 1.89592e-05
25 *1971:A *1971:C 6.25657e-05
26 *1973:B1 *1971:C 0.000115005
27 *1979:A1 *1977:C 1.39431e-05
28 *1985:B1 *614:48 0.000330436
29 *1992:A1 *1999:B1 0.000617571
30 *1992:A1 *614:103 3.91386e-05
31 *1999:A1 *1999:B1 1.21972e-05
32 *2389:A *1971:C 1.58805e-05
33 *163:18 *1964:B 0
34 *163:18 *1971:C 0
35 *163:18 *614:50 0
36 *163:18 *614:79 0
37 *280:68 *1999:B1 5.12055e-06
38 *280:85 *1999:B1 1.3789e-05
39 *281:10 *1981:B1 0
40 *281:10 *614:10 0
41 *281:10 *614:44 9.86551e-06
42 *281:14 *614:23 8.35233e-05
43 *281:27 *614:23 0.000120857
44 *281:33 *1999:B1 0.000911471
45 *281:33 *614:101 0.000223698
46 *294:8 *1964:B 5.80963e-05
47 *297:8 *1964:B 6.07611e-06
48 *299:12 *1964:B 0
49 *303:10 *1964:B 2.8241e-05
50 *307:16 *614:44 2.24608e-05
51 *307:16 *614:48 2.64616e-05
52 *487:40 *1974:C 0.000340871
53 *488:16 *1971:C 0
54 *490:22 *614:10 0
55 *492:14 *1981:B1 6.07929e-05
56 *492:14 *614:10 5.31444e-05
57 *493:52 *1999:B1 0.000219383
58 *542:82 *614:44 2.05503e-05
59 *560:24 *1994:A1 3.22879e-05
60 *560:24 *1999:B1 9.24795e-06
61 *560:24 *614:101 7.44161e-06
62 *560:24 *614:103 2.02517e-05
63 *560:36 *614:6 0.000141954
64 *560:36 *614:48 2.06822e-05
65 *560:36 *614:101 0.000337381
66 *608:10 *1971:C 0.000157299
67 *608:12 *1971:C 6.16531e-05
68 *608:12 *614:79 0.000367958
69 *608:14 *1964:B 5.24393e-05
70 *608:14 *614:50 8.4047e-05
71 *608:14 *614:79 6.48142e-05
72 *608:20 *1964:B 0.000231604
73 *608:65 *1966:C 9.50001e-05
74 *608:65 *1977:C 2.02872e-05
*RES
1 *2394:X *614:6 24.5743 
2 *614:6 *614:10 16.5536 
3 *614:10 *1981:B1 39.9057 
4 *614:10 *614:23 19.0652 
5 *614:23 *1983:C 23 
6 *614:23 *614:44 47.0416 
7 *614:44 *614:48 23.2443 
8 *614:48 *614:50 1.20143 
9 *614:50 *1964:B 44.5457 
10 *614:50 *614:63 15 
11 *614:63 *1966:C 24.9161 
12 *614:63 *1977:C 26.3454 
13 *614:48 *614:79 5.77929 
14 *614:79 *1974:C 41.8218 
15 *614:79 *1971:C 43.075 
16 *614:6 *614:101 4.90929 
17 *614:101 *614:103 0.849286 
18 *614:103 *1994:A1 23.6214 
19 *614:103 *1992:A2 23 
20 *614:101 *1999:B1 33.9993 
*END

*D_NET *615 0.0344712
*CONN
*I *2145:B1 I *D sky130_fd_sc_hd__o21a_1
*I *677:DIODE I *D sky130_fd_sc_hd__diode_2
*I *2152:B1 I *D sky130_fd_sc_hd__o31a_1
*I *671:DIODE I *D sky130_fd_sc_hd__diode_2
*I *2087:B1 I *D sky130_fd_sc_hd__o31a_1
*I *668:DIODE I *D sky130_fd_sc_hd__diode_2
*I *2081:A1 I *D sky130_fd_sc_hd__a31o_1
*I *666:DIODE I *D sky130_fd_sc_hd__diode_2
*I *2076:A1 I *D sky130_fd_sc_hd__a31o_1
*I *667:DIODE I *D sky130_fd_sc_hd__diode_2
*I *2147:B I *D sky130_fd_sc_hd__and2_1
*I *673:DIODE I *D sky130_fd_sc_hd__diode_2
*I *675:DIODE I *D sky130_fd_sc_hd__diode_2
*I *2149:B I *D sky130_fd_sc_hd__and2_1
*I *715:DIODE I *D sky130_fd_sc_hd__diode_2
*I *697:DIODE I *D sky130_fd_sc_hd__diode_2
*I *2269:RESET_B I *D sky130_fd_sc_hd__dfrtp_1
*I *681:DIODE I *D sky130_fd_sc_hd__diode_2
*I *2225:B1 I *D sky130_fd_sc_hd__o21a_1
*I *682:DIODE I *D sky130_fd_sc_hd__diode_2
*I *2226:B1 I *D sky130_fd_sc_hd__o21a_1
*I *2395:X O *D sky130_fd_sc_hd__clkbuf_4
*CAP
1 *2145:B1 0
2 *677:DIODE 0.000350931
3 *2152:B1 4.0654e-05
4 *671:DIODE 0
5 *2087:B1 3.94823e-05
6 *668:DIODE 0
7 *2081:A1 0
8 *666:DIODE 0.000290876
9 *2076:A1 0.000145094
10 *667:DIODE 5.7509e-05
11 *2147:B 0
12 *673:DIODE 8.77038e-05
13 *675:DIODE 0
14 *2149:B 0.000148695
15 *715:DIODE 0
16 *697:DIODE 0.000251435
17 *2269:RESET_B 0.000102381
18 *681:DIODE 0
19 *2225:B1 0.000100498
20 *682:DIODE 0
21 *2226:B1 0.000123934
22 *2395:X 0
23 *615:245 0.000624158
24 *615:239 0.000382162
25 *615:226 0.000158024
26 *615:212 0.00054174
27 *615:177 0.00116199
28 *615:165 0.00077102
29 *615:156 0.000636588
30 *615:148 0.00273083
31 *615:142 0.0019794
32 *615:128 0.000117896
33 *615:124 0.000652905
34 *615:106 0.000199814
35 *615:102 0.00165458
36 *615:96 0.00201272
37 *615:79 0.000859717
38 *615:60 0.001341
39 *615:49 0.00109871
40 *615:36 0.00112962
41 *615:10 0.000442928
42 *615:8 0.00157508
43 *615:4 0.000442703
44 *666:DIODE *2155:A1 0.000180218
45 *673:DIODE *649:58 2.79662e-05
46 *673:DIODE *649:66 5.50049e-05
47 *677:DIODE *1969:B2 7.44161e-06
48 *677:DIODE *634:78 5.50121e-05
49 *2149:B *2149:A 7.98406e-05
50 *2152:B1 *1969:B2 0.000139352
51 *2225:B1 *2225:A1 4.95081e-05
52 *2225:B1 *622:14 0
53 *2226:B1 *2226:A1 3.55887e-05
54 *615:8 *617:142 0.00053323
55 *615:10 *2226:A1 0.000108569
56 *615:10 *635:19 0.000141397
57 *615:36 *2225:A1 4.59935e-05
58 *615:36 *626:8 0.000272321
59 *615:36 *627:8 0.000116314
60 *615:36 *634:21 0.000119362
61 *615:36 *635:19 5.26431e-05
62 *615:36 *635:40 5.30518e-05
63 *615:49 *622:14 0
64 *615:60 *2233:A 0
65 *615:60 *618:66 0
66 *615:60 *618:72 0
67 *615:60 *622:14 0
68 *615:60 *625:10 0
69 *615:60 *637:14 0
70 *615:79 *617:142 0.000138444
71 *615:96 *617:142 0.000143655
72 *615:96 *622:32 0
73 *615:102 *2066:B1 9.74132e-05
74 *615:128 *649:58 1.94693e-05
75 *615:148 *620:40 0.00107681
76 *615:148 *648:48 0.000243626
77 *615:156 *645:10 0
78 *615:156 *648:89 8.50956e-05
79 *2036:B *615:96 0.000226306
80 *2049:C *615:96 1.24376e-05
81 *2076:B1 *666:DIODE 7.76443e-05
82 *2076:B1 *2076:A1 1.71397e-05
83 *2078:B *2076:A1 8.57393e-05
84 *2078:B *615:177 3.47781e-05
85 *2085:C *2076:A1 1.05658e-05
86 *2085:C *615:177 6.76011e-05
87 *2152:A2 *677:DIODE 2.32004e-05
88 *2152:A2 *2152:B1 9.75779e-05
89 *2164:A2 *615:177 0.000125413
90 *2165:A2 *666:DIODE 9.5877e-05
91 *2165:A3 *666:DIODE 4.56951e-05
92 *2269:CLK *697:DIODE 1.08287e-05
93 *2335:CLK *615:142 0.000196914
94 *2337:D *2149:B 0
95 *2361:CLK *615:36 1.94693e-05
96 *2361:D *2225:B1 5.67058e-05
97 *2361:D *615:36 2.87729e-05
98 *138:14 *697:DIODE 0.000140302
99 *156:12 *2226:B1 0.000229583
100 *205:8 *615:60 0
101 *213:24 *615:96 0.000332927
102 *213:24 *615:102 0.000303955
103 *286:54 *615:156 1.12487e-05
104 *291:29 *615:60 0
105 *291:33 *2226:B1 7.76364e-06
106 *315:21 *615:156 0.0001129
107 *316:8 *615:156 0
108 *316:8 *615:212 0
109 *316:78 *615:212 0
110 *319:43 *615:177 0
111 *326:8 *615:102 3.70071e-06
112 *334:68 *677:DIODE 3.70187e-05
113 *334:68 *615:245 0.000188926
114 *345:6 *615:102 0.000179751
115 *345:25 *615:102 0.00013721
116 *347:10 *615:102 0
117 *347:32 *615:102 2.75733e-06
118 *347:32 *615:124 5.55268e-05
119 *352:16 *615:102 0.000357748
120 *358:12 *2087:B1 9.84851e-05
121 *358:12 *615:212 9.41704e-05
122 *361:18 *615:177 1.17049e-05
123 *362:8 *666:DIODE 5.3304e-05
124 *362:8 *2076:A1 9.8971e-06
125 *366:16 *615:156 0.000188282
126 *366:16 *615:177 3.42882e-05
127 *366:16 *615:212 0.000261936
128 *369:8 *2076:A1 3.14007e-05
129 *413:6 *677:DIODE 0.000181131
130 *413:6 *2152:B1 2.18409e-05
131 *414:10 *615:156 0
132 *414:16 *615:156 0
133 *414:44 *667:DIODE 1.57571e-05
134 *414:44 *615:165 1.40958e-05
135 *414:44 *615:177 0.000796053
136 *419:10 *615:177 0
137 *422:10 *615:177 0.000420072
138 *424:10 *615:177 2.11887e-05
139 *465:16 *615:124 0
140 *465:189 *615:212 0.000167452
141 *467:89 *2225:B1 4.6318e-06
142 *467:108 *2225:B1 4.43148e-05
143 *467:108 *615:49 0.000137679
144 *467:114 *615:49 0
145 *467:114 *615:60 0
146 *469:93 *2149:B 4.00259e-06
147 *469:101 *615:102 0
148 *469:101 *615:124 0
149 *472:61 *615:142 6.6006e-05
150 *472:61 *615:226 9.86551e-06
151 *472:61 *615:239 4.21344e-05
152 *491:48 *677:DIODE 1.4471e-05
153 *492:14 *677:DIODE 3.3746e-05
154 *492:14 *615:245 8.68903e-05
155 *495:8 *615:96 0
156 *497:8 *615:96 0
157 *498:81 *615:124 0.000178946
158 *498:81 *615:142 0.000274199
159 *498:81 *615:226 7.37814e-06
160 *498:81 *615:239 3.82852e-05
161 *538:14 *2226:B1 5.40241e-05
162 *540:67 *615:177 0.000480236
163 *554:96 *2076:A1 2.93104e-06
164 *555:10 *615:245 4.96717e-05
165 *555:51 *615:245 6.9805e-05
166 *556:16 *615:239 0.000128723
167 *556:16 *615:245 0.000399297
168 *556:33 *615:239 9.67842e-05
169 *601:18 *615:156 0.000218952
170 *601:24 *667:DIODE 5.3304e-05
171 *601:24 *615:156 3.47781e-05
172 *601:24 *615:165 5.50106e-05
*RES
1 *2395:X *615:4 23 
2 *615:4 *615:8 20.8621 
3 *615:8 *615:10 6.83571 
4 *615:10 *2226:B1 41.7286 
5 *615:10 *682:DIODE 38 
6 *615:8 *615:36 44.8729 
7 *615:36 *2225:B1 40.7757 
8 *615:36 *615:49 2.61 
9 *615:49 *681:DIODE 38 
10 *615:49 *615:60 32.4 
11 *615:60 *2269:RESET_B 1.6675 
12 *615:60 *697:DIODE 26.48 
13 *615:4 *615:79 1.57429 
14 *615:79 *715:DIODE 23 
15 *615:79 *615:96 43.775 
16 *615:96 *615:102 33.3529 
17 *615:102 *615:106 15.6214 
18 *615:106 *2149:B 26.7493 
19 *615:106 *675:DIODE 23 
20 *615:102 *615:124 7.54 
21 *615:124 *615:128 15.6214 
22 *615:128 *673:DIODE 24.5743 
23 *615:128 *2147:B 23 
24 *615:124 *615:142 7.71607 
25 *615:142 *615:148 21.2939 
26 *615:148 *615:156 26.2996 
27 *615:156 *667:DIODE 24.0979 
28 *615:156 *615:165 1.09786 
29 *615:165 *615:177 34.1814 
30 *615:177 *2076:A1 40.9414 
31 *615:177 *666:DIODE 43.3857 
32 *615:165 *2081:A1 23 
33 *615:148 *615:212 25.5746 
34 *615:212 *668:DIODE 23 
35 *615:212 *2087:B1 24.0979 
36 *615:142 *615:226 0.321071 
37 *615:226 *671:DIODE 38 
38 *615:226 *615:239 18.7286 
39 *615:239 *615:245 22.0429 
40 *615:245 *2152:B1 39.5743 
41 *615:245 *677:DIODE 43.6343 
42 *615:239 *2145:B1 23 
*END

*D_NET *616 0.0134474
*CONN
*I *2232:A I *D sky130_fd_sc_hd__inv_2
*I *1937:A I *D sky130_fd_sc_hd__inv_2
*I *2252:A I *D sky130_fd_sc_hd__inv_2
*I *2255:A I *D sky130_fd_sc_hd__inv_2
*I *2250:A I *D sky130_fd_sc_hd__inv_2
*I *2247:A I *D sky130_fd_sc_hd__inv_2
*I *2256:A I *D sky130_fd_sc_hd__inv_2
*I *2257:A I *D sky130_fd_sc_hd__inv_2
*I *2243:A I *D sky130_fd_sc_hd__inv_2
*I *2246:A I *D sky130_fd_sc_hd__inv_2
*I *2396:X O *D sky130_fd_sc_hd__buf_4
*CAP
1 *2232:A 0
2 *1937:A 0.000239562
3 *2252:A 0.000107404
4 *2255:A 8.89041e-05
5 *2250:A 9.59175e-05
6 *2247:A 0.000273272
7 *2256:A 6.40603e-05
8 *2257:A 0.000135556
9 *2243:A 0.000555056
10 *2246:A 0.00011516
11 *2396:X 0.000374392
12 *616:51 0.00106747
13 *616:45 0.000795598
14 *616:43 0.00100346
15 *616:39 0.000764634
16 *616:37 0.000796255
17 *616:24 0.000729102
18 *616:20 0.000737892
19 *616:18 0.000991106
20 *616:12 0.000320857
21 *616:10 0.000374392
22 *616:10 *2396:A 0
23 *616:10 *617:16 0
24 *616:10 *622:14 0.000401816
25 *616:18 *617:16 6.68793e-05
26 *616:18 *622:14 3.95159e-06
27 *616:18 *622:28 9.99686e-05
28 *616:18 *622:72 9.84851e-05
29 *616:18 *623:6 5.12254e-05
30 *654:DIODE *1937:A 5.67058e-05
31 *2025:C *616:45 0
32 *2025:C *616:51 0
33 *2026:C *2243:A 0
34 *2026:C *616:51 0
35 *2137:B *2250:A 0
36 *2286:RESET_B *2243:A 0.000498297
37 *2289:CLK *616:20 0
38 *2289:CLK *616:24 0
39 *2289:CLK *616:37 9.98891e-05
40 *2293:CLK *2250:A 0.00010655
41 *2293:RESET_B *2250:A 0.000274078
42 *2295:CLK *616:20 0
43 *2299:CLK *2256:A 0.00014196
44 *2299:RESET_B *2256:A 5.41385e-05
45 *146:10 *2243:A 0.000102389
46 *154:14 *2250:A 3.49064e-05
47 *161:10 *616:45 4.5882e-05
48 *162:10 *2243:A 2.54046e-05
49 *162:10 *2257:A 7.59794e-05
50 *166:6 *616:10 9.67842e-05
51 *166:14 *616:10 4.49946e-05
52 *176:8 *616:10 0.000194318
53 *196:8 *616:20 0
54 *199:10 *2255:A 2.93845e-05
55 *199:10 *616:39 0.000116314
56 *324:28 *616:18 0
57 *408:8 *616:43 0
58 *466:75 *2243:A 0
59 *538:6 *1937:A 0.000294145
60 *575:14 *2243:A 1.10782e-05
61 *576:28 *2257:A 0.000402801
62 *586:6 *2246:A 0.000153145
63 *586:6 *616:37 0.000145784
64 *586:14 *616:24 0
65 *587:10 *2252:A 9.00922e-05
66 *588:8 *616:39 0
*RES
1 *2396:X *616:10 46.9071 
2 *616:10 *616:12 15 
3 *616:12 *616:18 21.8771 
4 *616:18 *616:20 8.24429 
5 *616:20 *616:24 18.3143 
6 *616:24 *2246:A 26.0036 
7 *616:24 *616:37 23.7829 
8 *616:37 *616:39 6.13143 
9 *616:39 *616:43 6.04857 
10 *616:43 *616:45 6.13143 
11 *616:45 *616:51 6.19357 
12 *616:51 *2243:A 48.1914 
13 *616:51 *2257:A 42.4329 
14 *616:45 *2256:A 40.0714 
15 *616:43 *2247:A 42.9093 
16 *616:39 *2250:A 41.9771 
17 *616:37 *2255:A 39.5743 
18 *616:20 *2252:A 40.5271 
19 *616:18 *1937:A 44.3386 
20 *616:12 *2232:A 23 
*END

*D_NET *617 0.0199199
*CONN
*I *2396:A I *D sky130_fd_sc_hd__buf_4
*I *2264:A I *D sky130_fd_sc_hd__inv_2
*I *2253:A I *D sky130_fd_sc_hd__inv_2
*I *2066:B1 I *D sky130_fd_sc_hd__a31oi_1
*I *2046:B1 I *D sky130_fd_sc_hd__a31o_1
*I *2064:B1 I *D sky130_fd_sc_hd__a211oi_1
*I *2097:A I *D sky130_fd_sc_hd__or4b_1
*I *2060:A I *D sky130_fd_sc_hd__nor2_1
*I *2254:A I *D sky130_fd_sc_hd__inv_2
*I *2259:A I *D sky130_fd_sc_hd__inv_2
*I *2397:X O *D sky130_fd_sc_hd__clkbuf_4
*CAP
1 *2396:A 0.000216838
2 *2264:A 0
3 *2253:A 0.000443487
4 *2066:B1 0.000542149
5 *2046:B1 0
6 *2064:B1 0
7 *2097:A 0
8 *2060:A 2.34823e-05
9 *2254:A 9.62461e-05
10 *2259:A 0
11 *2397:X 0
12 *617:142 0.000557034
13 *617:97 0.000795119
14 *617:86 0.000611296
15 *617:71 0.00126044
16 *617:54 0.00236594
17 *617:37 0.00163277
18 *617:33 0.00101551
19 *617:31 0.00110362
20 *617:20 0.000116378
21 *617:16 0.000870439
22 *617:6 0.00104163
23 *2396:A *622:14 0
24 *617:142 *1955:A1 3.97382e-05
25 *617:142 *1955:B1_N 4.05745e-05
26 *617:142 *640:14 0.000136242
27 *617:142 *640:25 3.3123e-05
28 *709:DIODE *2253:A 4.34745e-05
29 *2023:A *617:54 0.000228585
30 *2024:B *617:37 0
31 *2058:C *2066:B1 0.000131951
32 *2059:B1 *617:97 1.83667e-05
33 *2060:B *617:71 0.000447976
34 *2062:B *617:86 0.000142629
35 *2062:B *617:97 2.93747e-05
36 *2097:C *617:86 0.00018543
37 *2097:D_N *617:86 0.000141954
38 *2296:D *617:54 0.000224605
39 *2297:CLK *2253:A 1.07335e-05
40 *2297:D *2253:A 6.17437e-06
41 *2302:CLK *617:16 5.29618e-05
42 *2302:D *617:16 0.000141052
43 *2302:RESET_B *617:16 9.32992e-05
44 *2302:RESET_B *617:20 0.000144501
45 *2388:A *2253:A 6.81575e-05
46 *2395:A *617:142 0.000123924
47 *2427:A *617:142 0.000313255
48 *158:8 *617:33 5.33597e-05
49 *158:8 *617:37 8.85189e-05
50 *166:14 *2396:A 8.05936e-05
51 *170:21 *617:142 0
52 *170:32 *617:142 7.27182e-05
53 *170:42 *617:142 2.26406e-05
54 *176:8 *2396:A 4.41619e-05
55 *176:8 *617:16 4.21594e-06
56 *324:28 *2396:A 0
57 *324:28 *617:16 0
58 *333:8 *617:97 0.000137216
59 *338:31 *617:97 5.86328e-05
60 *338:35 *617:97 4.4382e-05
61 *345:25 *2066:B1 9.67842e-05
62 *347:10 *2066:B1 0.000130144
63 *347:10 *617:97 0.000130066
64 *348:6 *617:71 9.88574e-06
65 *348:21 *617:71 0.000141879
66 *352:8 *2066:B1 0
67 *352:8 *617:97 0
68 *381:10 *617:71 4.96717e-05
69 *382:10 *617:71 5.50955e-05
70 *465:18 *617:142 0
71 *467:17 *617:33 0.000186025
72 *467:19 *617:33 0.000341483
73 *467:25 *617:33 0.000142818
74 *467:25 *617:37 0.000138718
75 *467:25 *617:54 0.000275033
76 *467:36 *2253:A 2.92911e-06
77 *467:74 *617:33 0.000178782
78 *467:76 *617:16 9.02099e-06
79 *467:76 *617:20 6.58632e-05
80 *467:76 *617:31 1.03836e-05
81 *467:76 *617:142 5.3304e-05
82 *467:89 *617:16 0
83 *467:89 *617:31 0
84 *467:89 *617:33 0
85 *467:139 *617:31 0
86 *467:139 *617:142 0.000231039
87 *474:10 *617:20 2.47321e-05
88 *474:10 *617:31 7.53384e-06
89 *496:8 *617:71 0
90 *586:6 *2254:A 0.000128159
91 *586:6 *617:54 1.1674e-05
92 *607:38 *2253:A 0.000402806
93 *611:41 *617:54 1.95448e-05
94 *613:53 *617:71 0
95 *615:8 *617:142 0.00053323
96 *615:79 *617:142 0.000138444
97 *615:96 *617:142 0.000143655
98 *615:102 *2066:B1 9.74132e-05
99 *616:10 *2396:A 0
100 *616:10 *617:16 0
101 *616:18 *617:16 6.68793e-05
*RES
1 *2397:X *617:6 38 
2 *617:6 *617:16 42.5321 
3 *617:16 *617:20 17.0507 
4 *617:20 *2259:A 23 
5 *617:20 *617:31 16.4707 
6 *617:31 *617:33 11.7657 
7 *617:33 *617:37 17.2579 
8 *617:37 *2254:A 25.5271 
9 *617:37 *617:54 21.315 
10 *617:54 *2060:A 23.4971 
11 *617:54 *617:71 46.9029 
12 *617:71 *2097:A 23 
13 *617:71 *617:86 8.57571 
14 *617:86 *2064:B1 23 
15 *617:86 *617:97 21.4007 
16 *617:97 *2046:B1 38 
17 *617:97 *2066:B1 48.8129 
18 *617:33 *2253:A 47.1143 
19 *617:31 *617:142 46.7993 
20 *617:142 *2264:A 38 
21 *617:6 *2396:A 42.7229 
*END

*D_NET *618 0.0154849
*CONN
*I *2258:A I *D sky130_fd_sc_hd__inv_2
*I *2227:A I *D sky130_fd_sc_hd__inv_2
*I *2267:A I *D sky130_fd_sc_hd__inv_2
*I *2268:A I *D sky130_fd_sc_hd__inv_2
*I *2261:A I *D sky130_fd_sc_hd__inv_2
*I *2266:A I *D sky130_fd_sc_hd__inv_2
*I *2265:A I *D sky130_fd_sc_hd__inv_2
*I *2233:A I *D sky130_fd_sc_hd__inv_2
*I *2263:A I *D sky130_fd_sc_hd__inv_2
*I *2228:A I *D sky130_fd_sc_hd__inv_2
*I *2398:X O *D sky130_fd_sc_hd__buf_4
*CAP
1 *2258:A 0
2 *2227:A 0
3 *2267:A 0
4 *2268:A 2.34823e-05
5 *2261:A 0
6 *2266:A 0
7 *2265:A 0.000417864
8 *2233:A 0.000375231
9 *2263:A 9.36054e-05
10 *2228:A 0.000202996
11 *2398:X 0.000373684
12 *618:139 0.000186681
13 *618:122 0.000697348
14 *618:91 0.000852185
15 *618:72 0.00110748
16 *618:66 0.000634752
17 *618:54 0.00121415
18 *618:43 0.000855038
19 *618:30 0.00115648
20 *618:24 0.00153166
21 *618:20 0.00106701
22 *618:12 0.000491239
23 *2265:A *637:14 5.41385e-05
24 *2265:A *637:29 6.20061e-05
25 *618:12 *622:14 0.000149047
26 *618:20 *619:12 5.58873e-06
27 *618:24 *619:12 0
28 *618:24 *619:23 0
29 *618:24 *622:14 0
30 *618:30 *622:14 0
31 *618:43 *622:14 0.000423554
32 *618:91 *1953:B1_N 9.9002e-05
33 *618:91 *624:10 0
34 *618:122 *2363:D 7.58527e-05
35 *618:139 *636:10 1.01436e-05
36 *618:139 *636:23 0.000219882
37 *656:DIODE *618:139 5.3304e-05
38 *735:DIODE *2228:A 5.50106e-05
39 *2276:D *2265:A 1.76557e-05
40 *2301:RESET_B *618:20 0.000187129
41 *2312:CLK *618:91 3.04568e-05
42 *2363:RESET_B *618:122 9.987e-05
43 *2363:RESET_B *618:139 2.32101e-05
44 *2460:A *2233:A 0.000834667
45 *2460:A *618:91 4.08767e-05
46 *21:28 *618:24 0
47 *125:27 *618:24 0
48 *138:6 *618:122 0.000539515
49 *138:6 *618:139 2.64616e-05
50 *138:14 *618:66 0.000189309
51 *160:6 *2228:A 3.7122e-06
52 *160:6 *618:30 0.000204688
53 *167:8 *2265:A 0.000255074
54 *205:8 *618:72 0.000109352
55 *207:8 *618:43 0.00025307
56 *219:10 *2265:A 0
57 *273:10 *618:43 0
58 *291:17 *618:24 0
59 *291:29 *618:24 0
60 *323:24 *618:24 0
61 *465:64 *618:139 0
62 *470:12 *618:30 0
63 *470:92 *618:30 0
64 *470:115 *618:43 7.30978e-05
65 *470:139 *618:24 0
66 *470:139 *618:30 0
67 *471:71 *618:12 7.32258e-05
68 *555:20 *618:91 3.50671e-05
69 *615:60 *2233:A 0
70 *615:60 *618:66 0
71 *615:60 *618:72 0
*RES
1 *2398:X *618:12 48.653 
2 *618:12 *618:20 25.8482 
3 *618:20 *618:24 32.0479 
4 *618:24 *618:30 26.6414 
5 *618:30 *2228:A 26.48 
6 *618:30 *618:43 41.0614 
7 *618:43 *2263:A 24.595 
8 *618:43 *618:54 6.815 
9 *618:54 *618:66 22.6643 
10 *618:66 *618:72 5.48929 
11 *618:72 *2233:A 48.3986 
12 *618:72 *618:91 36.5871 
13 *618:91 *2265:A 47.715 
14 *618:91 *2266:A 38 
15 *618:66 *2261:A 38 
16 *618:54 *618:122 11.5793 
17 *618:122 *2268:A 23.4971 
18 *618:122 *618:139 34.205 
19 *618:139 *2267:A 23 
20 *618:24 *2227:A 38 
21 *618:20 *2258:A 23 
*END

*D_NET *619 0.0136793
*CONN
*I *2231:A I *D sky130_fd_sc_hd__inv_2
*I *2234:A I *D sky130_fd_sc_hd__inv_2
*I *2229:A I *D sky130_fd_sc_hd__inv_2
*I *2260:A I *D sky130_fd_sc_hd__inv_2
*I *2262:A I *D sky130_fd_sc_hd__inv_2
*I *2398:A I *D sky130_fd_sc_hd__buf_4
*I *2399:X O *D sky130_fd_sc_hd__buf_2
*CAP
1 *2231:A 4.75875e-05
2 *2234:A 0
3 *2229:A 2.34823e-05
4 *2260:A 0
5 *2262:A 0
6 *2398:A 0
7 *2399:X 2.01797e-05
8 *619:72 0.000760803
9 *619:64 0.0012658
10 *619:51 0.00058781
11 *619:49 0.000445578
12 *619:29 0.000760539
13 *619:23 0.00131515
14 *619:19 0.00103504
15 *619:12 0.000278125
16 *619:6 0.000440076
17 *619:6 *622:8 9.84794e-05
18 *619:12 *622:12 0
19 *619:12 *622:14 2.93029e-05
20 *619:19 *622:8 8.60475e-05
21 *619:19 *622:95 0.000274078
22 *619:19 *622:102 0.000101762
23 *619:19 *622:119 0.00031833
24 *619:49 *622:119 0.00139507
25 *619:51 *622:119 1.40958e-05
26 *619:64 *622:119 1.48719e-05
27 *738:DIODE *619:64 0.000227208
28 *740:DIODE *619:6 9.84794e-05
29 *740:DIODE *619:19 0.000272383
30 *2301:D *619:12 0.000158646
31 *2440:A *619:51 5.50106e-05
32 *2461:A *619:29 3.3577e-05
33 *2494:A *619:64 4.79641e-05
34 *125:27 *619:12 2.96369e-05
35 *175:10 *2231:A 6.17437e-06
36 *175:10 *619:72 5.80963e-05
37 *178:10 *619:72 5.37348e-06
38 *291:17 *619:23 0.000127272
39 *291:17 *619:29 0.000595464
40 *291:29 *619:29 0.00069495
41 *323:24 *619:23 0.000111852
42 *471:108 *2231:A 9.84851e-05
43 *541:10 *619:64 0.000100733
44 *541:12 *619:64 0
45 *541:12 *619:72 0
46 *542:10 *619:51 0.000187129
47 *542:10 *619:64 0.000269775
48 *550:10 *619:12 3.21327e-05
49 *558:20 *619:49 0.000424538
50 *558:20 *619:51 0.000120857
51 *558:24 *619:19 0.000180165
52 *558:24 *619:49 0.000384967
53 *595:10 *619:72 4.06849e-05
54 *618:20 *619:12 5.58873e-06
55 *618:24 *619:12 0
56 *618:24 *619:23 0
*RES
1 *2399:X *619:6 24.0979 
2 *619:6 *619:12 35.075 
3 *619:12 *2398:A 23 
4 *619:6 *619:19 8.24429 
5 *619:19 *619:23 25.7093 
6 *619:23 *619:29 33.1457 
7 *619:29 *2262:A 23 
8 *619:23 *2260:A 38 
9 *619:19 *619:49 46.5921 
10 *619:49 *619:51 3.48 
11 *619:51 *2229:A 23.4971 
12 *619:51 *619:64 25.005 
13 *619:64 *619:72 29.5621 
14 *619:72 *2234:A 23 
15 *619:64 *2231:A 39.0979 
*END

*D_NET *620 0.0245107
*CONN
*I *719:DIODE I *D sky130_fd_sc_hd__diode_2
*I *683:DIODE I *D sky130_fd_sc_hd__diode_2
*I *684:DIODE I *D sky130_fd_sc_hd__diode_2
*I *2235:A I *D sky130_fd_sc_hd__inv_2
*I *2230:A I *D sky130_fd_sc_hd__inv_2
*I *670:DIODE I *D sky130_fd_sc_hd__diode_2
*I *2095:B1 I *D sky130_fd_sc_hd__a21oi_1
*I *676:DIODE I *D sky130_fd_sc_hd__diode_2
*I *2150:B I *D sky130_fd_sc_hd__nor2_1
*I *2236:A I *D sky130_fd_sc_hd__inv_2
*I *685:DIODE I *D sky130_fd_sc_hd__diode_2
*I *689:DIODE I *D sky130_fd_sc_hd__diode_2
*I *2240:A I *D sky130_fd_sc_hd__inv_2
*I *688:DIODE I *D sky130_fd_sc_hd__diode_2
*I *2239:A I *D sky130_fd_sc_hd__inv_2
*I *687:DIODE I *D sky130_fd_sc_hd__diode_2
*I *2238:A I *D sky130_fd_sc_hd__inv_2
*I *686:DIODE I *D sky130_fd_sc_hd__diode_2
*I *2237:A I *D sky130_fd_sc_hd__inv_2
*I *674:DIODE I *D sky130_fd_sc_hd__diode_2
*I *2148:B I *D sky130_fd_sc_hd__nor2_1
*I *2400:X O *D sky130_fd_sc_hd__buf_4
*CAP
1 *719:DIODE 0
2 *683:DIODE 0.000163474
3 *684:DIODE 3.05576e-05
4 *2235:A 0
5 *2230:A 0
6 *670:DIODE 0
7 *2095:B1 0.000188245
8 *676:DIODE 0
9 *2150:B 0
10 *2236:A 0.000142728
11 *685:DIODE 0
12 *689:DIODE 8.1064e-05
13 *2240:A 0
14 *688:DIODE 8.1064e-05
15 *2239:A 0
16 *687:DIODE 2.79004e-05
17 *2238:A 0
18 *686:DIODE 8.1064e-05
19 *2237:A 0
20 *674:DIODE 2.37831e-05
21 *2148:B 0
22 *2400:X 0
23 *620:213 0.000232198
24 *620:199 0.000626842
25 *620:188 0.000884888
26 *620:180 0.000391303
27 *620:136 0.000249654
28 *620:122 0.000792727
29 *620:104 0.000226072
30 *620:100 0.00100659
31 *620:86 2.79004e-05
32 *620:84 0.000590442
33 *620:70 0.000214194
34 *620:66 0.000857491
35 *620:62 0.001144
36 *620:44 5.64003e-05
37 *620:40 0.00205688
38 *620:30 0.00133052
39 *620:26 0.000374543
40 *620:20 0.000601561
41 *620:18 0.000487404
42 *620:16 0.00171437
43 *620:4 0.0013592
44 *674:DIODE *649:23 5.67058e-05
45 *683:DIODE *2400:A 3.53115e-05
46 *683:DIODE *621:21 2.60054e-05
47 *683:DIODE *621:30 5.50049e-05
48 *620:18 *652:43 0
49 *620:26 *648:48 0
50 *620:26 *650:50 8.82787e-05
51 *620:30 *650:50 0.00010018
52 *620:40 *645:16 0
53 *620:40 *648:48 0.00081515
54 *620:40 *648:61 0.000476186
55 *620:66 *621:199 0
56 *620:84 *621:199 0
57 *620:100 *621:199 0
58 *620:188 *621:10 0
59 *620:213 *2400:A 5.67058e-05
60 wb_dat_o[11] *620:84 0
61 wb_dat_o[13] *620:122 0
62 *1957:A *620:44 2.43903e-05
63 *1957:A *620:62 7.16481e-05
64 *2073:A *620:16 0.000159655
65 *2273:RESET_B *620:188 0.000227208
66 *2278:RESET_B *620:199 0.000127537
67 *2283:CLK *620:122 0
68 *2365:A *2236:A 4.00259e-06
69 *2459:A *2236:A 5.69698e-05
70 *142:12 *620:100 8.51329e-05
71 *142:12 *620:122 8.15327e-05
72 *164:12 *620:16 0
73 *183:8 *620:122 0
74 *185:8 *620:122 0
75 *244:8 *620:26 0
76 *257:8 *620:16 9.59223e-05
77 *271:64 *620:44 6.07611e-06
78 *273:34 *620:26 0.000228909
79 *273:34 *620:30 5.30724e-05
80 *296:25 *620:18 0.000244526
81 *316:24 *620:62 0.00121931
82 *316:28 *620:66 9.48381e-06
83 *334:68 *2095:B1 3.34129e-05
84 *334:80 *2095:B1 0.000146165
85 *373:10 *620:66 0.000165978
86 *373:10 *620:84 9.46108e-05
87 *452:8 *620:16 3.71262e-05
88 *472:120 *620:66 0
89 *472:120 *620:84 0
90 *473:44 *620:188 0
91 *473:123 *620:122 0
92 *473:129 *620:100 0
93 *473:129 *620:122 0
94 *492:33 *620:16 0.00013837
95 *493:23 *620:16 0.000850118
96 *493:25 *620:16 0.000141879
97 *493:33 *620:16 7.40317e-05
98 *493:52 *620:16 8.35638e-06
99 *493:52 *620:18 4.9996e-05
100 *494:10 *620:16 0.000294741
101 *494:16 *620:16 0.000243587
102 *494:20 *620:16 0.000186448
103 *554:10 *2236:A 4.06849e-05
104 *554:10 *620:62 4.75206e-05
105 *554:10 *620:136 6.70017e-05
106 *556:33 *620:16 7.37814e-06
107 *556:33 *620:18 0.000103093
108 *556:33 *620:20 3.96156e-05
109 *556:33 *620:26 2.96369e-05
110 *560:100 *620:16 9.68511e-05
111 *560:100 *620:188 0
112 *569:12 *687:DIODE 5.50106e-05
113 *599:10 *620:199 3.22879e-05
114 *613:89 *620:44 0
115 *613:89 *620:62 0
116 *615:148 *620:40 0.00107681
*RES
1 *2400:X *620:4 23 
2 *620:4 *620:16 47.1796 
3 *620:16 *620:18 8.06821 
4 *620:18 *620:20 1.90571 
5 *620:20 *620:26 21.8979 
6 *620:26 *620:30 1.94714 
7 *620:30 *620:40 36.2801 
8 *620:40 *620:44 15.6732 
9 *620:44 *2148:B 23 
10 *620:44 *674:DIODE 23.6214 
11 *620:40 *620:62 31.9961 
12 *620:62 *620:66 21.4836 
13 *620:66 *620:70 17.0507 
14 *620:70 *2237:A 23 
15 *620:70 *686:DIODE 24.5743 
16 *620:66 *620:84 8.24429 
17 *620:84 *620:86 15 
18 *620:86 *2238:A 23 
19 *620:86 *687:DIODE 23.6214 
20 *620:84 *620:100 3.31429 
21 *620:100 *620:104 17.5271 
22 *620:104 *2239:A 23 
23 *620:104 *688:DIODE 24.5743 
24 *620:100 *620:122 28.4643 
25 *620:122 *2240:A 23 
26 *620:122 *689:DIODE 24.5743 
27 *620:62 *620:136 2.05071 
28 *620:136 *685:DIODE 23 
29 *620:136 *2236:A 26.3764 
30 *620:30 *2150:B 23 
31 *620:26 *676:DIODE 23 
32 *620:20 *2095:B1 41.0243 
33 *620:18 *670:DIODE 38 
34 *620:4 *620:180 0.621429 
35 *620:180 *620:188 35.9657 
36 *620:188 *2230:A 23 
37 *620:188 *620:199 12.0971 
38 *620:199 *2235:A 23 
39 *620:199 *684:DIODE 23.6214 
40 *620:180 *620:213 1.57429 
41 *620:213 *683:DIODE 25.9 
42 *620:213 *719:DIODE 23 
*END

*D_NET *621 0.0379305
*CONN
*I *721:DIODE I *D sky130_fd_sc_hd__diode_2
*I *2170:D1 I *D sky130_fd_sc_hd__a2111o_1
*I *2241:A I *D sky130_fd_sc_hd__inv_2
*I *690:DIODE I *D sky130_fd_sc_hd__diode_2
*I *669:DIODE I *D sky130_fd_sc_hd__diode_2
*I *2093:B1 I *D sky130_fd_sc_hd__a21o_1
*I *679:DIODE I *D sky130_fd_sc_hd__diode_2
*I *2146:B I *D sky130_fd_sc_hd__or2_1
*I *672:DIODE I *D sky130_fd_sc_hd__diode_2
*I *696:DIODE I *D sky130_fd_sc_hd__diode_2
*I *2251:A I *D sky130_fd_sc_hd__inv_2
*I *695:DIODE I *D sky130_fd_sc_hd__diode_2
*I *2249:A I *D sky130_fd_sc_hd__inv_2
*I *2248:A I *D sky130_fd_sc_hd__inv_2
*I *694:DIODE I *D sky130_fd_sc_hd__diode_2
*I *693:DIODE I *D sky130_fd_sc_hd__diode_2
*I *2245:A I *D sky130_fd_sc_hd__inv_2
*I *718:DIODE I *D sky130_fd_sc_hd__diode_2
*I *2400:A I *D sky130_fd_sc_hd__buf_4
*I *2401:X O *D sky130_fd_sc_hd__clkbuf_4
*CAP
1 *721:DIODE 0.000221272
2 *2170:D1 3.27331e-05
3 *2241:A 0.000137813
4 *690:DIODE 0
5 *669:DIODE 0
6 *2093:B1 0.000130875
7 *679:DIODE 5.43738e-05
8 *2146:B 0
9 *672:DIODE 0.000106885
10 *696:DIODE 5.45426e-05
11 *2251:A 0
12 *695:DIODE 0
13 *2249:A 7.35678e-05
14 *2248:A 8.29999e-05
15 *694:DIODE 0
16 *693:DIODE 0
17 *2245:A 5.69701e-05
18 *718:DIODE 0
19 *2400:A 6.19423e-05
20 *2401:X 0
21 *621:203 0.000464413
22 *621:199 0.00207279
23 *621:197 0.00284937
24 *621:173 0.000401433
25 *621:167 0.00181043
26 *621:158 0.000916559
27 *621:138 0.000106885
28 *621:106 0.000391087
29 *621:100 0.00129642
30 *621:82 0.000205365
31 *621:66 9.76774e-05
32 *621:64 0.000712941
33 *621:56 0.00162591
34 *621:54 0.000150162
35 *621:52 0.00137839
36 *621:46 0.00177406
37 *621:42 0.00111795
38 *621:36 0.000682416
39 *621:34 0.00212578
40 *621:30 0.00180389
41 *621:21 0.000197955
42 *621:10 0.000362146
43 *621:4 0.000462082
44 *679:DIODE *648:21 2.64616e-05
45 *721:DIODE *720:DIODE 8.6949e-05
46 *721:DIODE *622:121 0.00014196
47 *621:34 *1956:A 3.62323e-05
48 *621:34 *651:72 6.08032e-05
49 *621:34 *651:81 6.07826e-05
50 *621:36 *2169:B2 6.7177e-06
51 *621:36 *648:40 0
52 *621:36 *649:86 5.55278e-05
53 *621:42 *648:40 0
54 *621:167 *648:21 0.000120867
55 *621:173 *648:19 0.000512078
56 *683:DIODE *2400:A 3.53115e-05
57 *683:DIODE *621:21 2.60054e-05
58 *683:DIODE *621:30 5.50049e-05
59 *742:DIODE *2245:A 5.70419e-05
60 *742:DIODE *621:66 2.4754e-05
61 *2000:A2 *621:34 0.000267934
62 *2004:A *621:199 0
63 *2017:A *621:64 0
64 *2084:B *621:197 3.91559e-05
65 *2092:A2 *621:197 0.000300015
66 *2092:B1_N *621:197 9.84851e-05
67 *2093:A2 *2093:B1 5.67058e-05
68 *2118:A *621:106 0
69 *2123:A *621:52 0.000165593
70 *2162:A_N *621:167 0.000443673
71 *2162:A_N *621:197 0.000265472
72 *2169:B1 *2170:D1 9.84794e-05
73 *2171:B1 *621:36 7.73797e-05
74 *2171:B1 *621:42 1.19796e-05
75 *2278:CLK *621:10 7.55491e-05
76 *2294:D *621:52 0
77 *2294:D *621:54 0
78 *2294:D *621:56 0
79 *2294:D *621:64 0
80 *2323:CLK *621:100 0.00052371
81 *2390:A *621:34 0
82 *2452:A *2245:A 4.00259e-06
83 *4:9 *2245:A 8.1796e-05
84 *169:12 *621:34 0.00182581
85 *170:48 *2093:B1 5.29672e-05
86 *170:48 *621:158 2.05503e-05
87 *170:70 *621:158 6.92184e-05
88 *192:10 *621:64 0.000171906
89 *195:8 *621:56 0.000103949
90 *195:8 *621:64 1.01436e-05
91 *229:10 *621:106 0
92 *240:10 *672:DIODE 3.22879e-05
93 *240:10 *621:46 3.31683e-05
94 *246:10 *621:199 0
95 *253:10 *621:34 0.000169674
96 *272:10 *621:34 0.000138708
97 *272:12 *621:34 8.7985e-05
98 *272:16 *621:34 0.000118639
99 *272:16 *621:36 1.50408e-05
100 *275:29 *621:52 0
101 *276:8 *621:42 0
102 *276:8 *621:46 0
103 *277:14 *621:36 0.000164291
104 *278:10 *621:42 2.8971e-05
105 *281:33 *621:34 3.0647e-05
106 *283:10 *621:199 6.95975e-05
107 *286:12 *621:34 0
108 *286:54 *621:197 2.32101e-05
109 *287:14 *621:34 6.38845e-05
110 *291:99 *621:34 0
111 *316:28 *621:199 0
112 *316:34 *621:199 0
113 *319:35 *621:197 0.000521108
114 *322:10 *621:199 0
115 *334:39 *621:173 4.08537e-05
116 *364:12 *621:199 3.0647e-05
117 *364:33 *621:197 2.98648e-05
118 *367:36 *621:199 6.7177e-06
119 *378:10 *621:197 0.000178517
120 *388:42 *621:52 0.000118127
121 *394:10 *621:106 0
122 *401:8 *621:52 0
123 *414:26 *621:173 0
124 *417:8 *621:199 0.000241355
125 *419:10 *621:199 8.4047e-05
126 *425:8 *621:36 0.000296017
127 *426:10 *621:34 0.000161417
128 *427:10 *2170:D1 2.93747e-05
129 *429:14 *621:34 6.40157e-06
130 *429:14 *621:36 0.000242982
131 *430:10 *621:34 0
132 *465:135 *621:52 0
133 *468:12 *621:64 0
134 *468:14 *621:64 0
135 *468:20 *621:64 0
136 *468:138 *621:100 0.000352421
137 *469:10 *621:52 0.000155029
138 *469:14 *621:52 4.49946e-05
139 *469:47 *621:52 6.07929e-05
140 *469:58 *621:46 9.39159e-05
141 *469:58 *621:52 0.000118797
142 *469:76 *621:46 0.000217562
143 *469:93 *621:42 9.84794e-05
144 *469:93 *621:46 0.000138082
145 *469:93 *621:158 8.43466e-05
146 *472:120 *621:199 0.00035793
147 *473:38 *621:34 0
148 *473:44 *621:10 1.83667e-05
149 *473:48 *621:30 6.343e-05
150 *473:123 *621:199 0.000130424
151 *473:129 *621:199 0.000438165
152 *509:26 *621:52 0
153 *509:36 *621:52 0.000133278
154 *512:12 *621:54 0
155 *512:12 *621:56 0
156 *512:38 *621:52 0
157 *513:43 *621:52 0.000130433
158 *514:10 *621:52 0
159 *514:18 *621:52 0
160 *514:31 *621:52 0
161 *521:10 *621:34 4.90891e-05
162 *528:6 *672:DIODE 9.84794e-05
163 *531:8 *621:100 0.000314255
164 *560:100 *621:10 0
165 *582:12 *2245:A 0.000230604
166 *582:12 *2248:A 0.000187129
167 *582:12 *621:66 0.000141954
168 *582:12 *621:82 0.000359332
169 *594:8 *621:10 2.79004e-05
170 *603:16 *621:34 0
171 *604:130 *621:34 0.000773984
172 *608:52 *621:34 0
173 *609:31 *621:199 0
174 *609:53 *621:199 0
175 *620:66 *621:199 0
176 *620:84 *621:199 0
177 *620:100 *621:199 0
178 *620:188 *621:10 0
179 *620:213 *2400:A 5.67058e-05
*RES
1 *2401:X *621:4 23 
2 *621:4 *621:10 34.7229 
3 *621:10 *2400:A 24.5743 
4 *621:10 *621:21 1.47071 
5 *621:21 *718:DIODE 23 
6 *621:21 *621:30 17.5271 
7 *621:30 *621:34 42.1432 
8 *621:34 *621:36 11.9418 
9 *621:36 *621:42 18.0036 
10 *621:42 *621:46 27.1179 
11 *621:46 *621:52 25.5614 
12 *621:52 *621:54 1.20143 
13 *621:54 *621:56 2.25786 
14 *621:56 *621:64 24.715 
15 *621:64 *621:66 1.57429 
16 *621:66 *2245:A 26.0243 
17 *621:66 *693:DIODE 23 
18 *621:64 *621:82 3.95643 
19 *621:82 *694:DIODE 23 
20 *621:82 *2248:A 25.5479 
21 *621:56 *621:100 35.155 
22 *621:100 *621:106 35.4271 
23 *621:106 *2249:A 24.4707 
24 *621:106 *695:DIODE 23 
25 *621:54 *2251:A 38 
26 *621:52 *696:DIODE 38.6214 
27 *621:46 *621:138 15 
28 *621:138 *672:DIODE 25.5271 
29 *621:138 *2146:B 23 
30 *621:42 *621:158 35.6343 
31 *621:158 *679:DIODE 23.6214 
32 *621:158 *621:167 7.29143 
33 *621:167 *621:173 36.8357 
34 *621:173 *2093:B1 26.045 
35 *621:173 *669:DIODE 23 
36 *621:167 *621:197 34.3679 
37 *621:197 *621:199 36.4157 
38 *621:199 *621:203 18.9564 
39 *621:203 *690:DIODE 23 
40 *621:203 *2241:A 25.7757 
41 *621:36 *2170:D1 39.0979 
42 *621:4 *721:DIODE 26.48 
*END

*D_NET *622 0.0344501
*CONN
*I *720:DIODE I *D sky130_fd_sc_hd__diode_2
*I *2401:A I *D sky130_fd_sc_hd__clkbuf_4
*I *717:DIODE I *D sky130_fd_sc_hd__diode_2
*I *722:DIODE I *D sky130_fd_sc_hd__diode_2
*I *2399:A I *D sky130_fd_sc_hd__buf_2
*I *2397:A I *D sky130_fd_sc_hd__clkbuf_4
*I *716:DIODE I *D sky130_fd_sc_hd__diode_2
*I *691:DIODE I *D sky130_fd_sc_hd__diode_2
*I *2242:A I *D sky130_fd_sc_hd__inv_2
*I *692:DIODE I *D sky130_fd_sc_hd__diode_2
*I *2244:A I *D sky130_fd_sc_hd__inv_2
*I *2402:X O *D sky130_fd_sc_hd__buf_2
*CAP
1 *720:DIODE 3.16092e-05
2 *2401:A 4.01155e-05
3 *717:DIODE 0
4 *722:DIODE 0
5 *2399:A 4.79035e-05
6 *2397:A 0
7 *716:DIODE 4.82465e-05
8 *691:DIODE 4.72659e-05
9 *2242:A 4.01155e-05
10 *692:DIODE 3.14316e-05
11 *2244:A 4.96762e-05
12 *2402:X 0
13 *622:121 0.00140907
14 *622:119 0.00316479
15 *622:102 0.00188435
16 *622:95 0.000219147
17 *622:72 0.000251739
18 *622:54 8.73814e-05
19 *622:38 0.00108909
20 *622:32 0.00289736
21 *622:30 0.00188938
22 *622:28 0.00176476
23 *622:14 0.00463511
24 *622:12 0.00281699
25 *622:8 0.000403845
26 *622:4 0.000368046
27 *716:DIODE *623:6 4.06849e-05
28 *622:72 *623:6 9.50292e-05
29 wb_dat_o[8] *622:121 2.65879e-05
30 *721:DIODE *720:DIODE 8.6949e-05
31 *721:DIODE *622:121 0.00014196
32 *738:DIODE *622:119 3.53115e-05
33 *740:DIODE *622:8 4.21378e-05
34 *1963:B *622:14 0.000108681
35 *2012:A *622:32 0
36 *2012:B *622:38 0
37 *2225:B1 *622:14 0
38 *2301:D *622:14 0.000228747
39 *2308:CLK *622:32 0.000147976
40 *2396:A *622:14 0
41 *2464:A *622:121 2.93747e-05
42 *2494:A *622:119 2.32101e-05
43 *2499:A *622:121 7.88926e-05
44 *131:11 *2399:A 0
45 *134:10 *622:14 0
46 *157:8 *622:32 0
47 *160:12 *622:14 7.03766e-05
48 *170:21 *622:28 0.000781722
49 *170:21 *622:32 0
50 *177:8 *622:14 0
51 *207:8 *622:14 9.20311e-06
52 *213:24 *622:28 2.11965e-05
53 *235:8 *622:32 0
54 *273:10 *622:14 0
55 *384:8 *622:32 3.39231e-05
56 *465:33 *622:32 0
57 *466:20 *622:32 0
58 *466:33 *622:32 0
59 *467:89 *622:14 0
60 *467:89 *622:28 0
61 *467:114 *622:14 0.000434065
62 *467:148 *622:28 7.42621e-05
63 *467:159 *622:28 2.16297e-05
64 *467:159 *622:32 6.63698e-05
65 *470:115 *622:14 1.5884e-05
66 *471:71 *622:14 0.000163047
67 *506:37 *622:32 0
68 *538:6 *622:28 0.00048975
69 *541:10 *622:119 0.000165918
70 *541:10 *622:121 0.00010018
71 *550:10 *2399:A 8.9458e-05
72 *550:10 *622:12 8.4047e-05
73 *551:10 *622:119 0.000180218
74 *552:10 *622:14 0
75 *553:10 *622:12 5.94805e-05
76 *553:10 *622:14 0
77 *558:20 *622:119 0.000229104
78 *561:10 *2399:A 0
79 *575:8 *622:38 0.000359332
80 *576:12 *692:DIODE 1.73399e-05
81 *576:12 *2244:A 2.02517e-05
82 *576:12 *622:38 2.65879e-05
83 *576:18 *691:DIODE 1.94812e-05
84 *576:18 *622:38 0.000495081
85 *600:44 *622:32 0.000388511
86 *600:44 *622:38 6.25829e-05
87 *606:17 *622:32 0.000413136
88 *606:19 *622:32 0.000364806
89 *606:23 *622:32 0.00138132
90 *615:49 *622:14 0
91 *615:60 *622:14 0
92 *615:96 *622:32 0
93 *616:10 *622:14 0.000401816
94 *616:18 *622:14 3.95159e-06
95 *616:18 *622:28 9.99686e-05
96 *616:18 *622:72 9.84851e-05
97 *618:12 *622:14 0.000149047
98 *618:24 *622:14 0
99 *618:30 *622:14 0
100 *618:43 *622:14 0.000423554
101 *619:6 *622:8 9.84794e-05
102 *619:12 *622:12 0
103 *619:12 *622:14 2.93029e-05
104 *619:19 *622:8 8.60475e-05
105 *619:19 *622:95 0.000274078
106 *619:19 *622:102 0.000101762
107 *619:19 *622:119 0.00031833
108 *619:49 *622:119 0.00139507
109 *619:51 *622:119 1.40958e-05
110 *619:64 *622:119 1.48719e-05
*RES
1 *2402:X *622:4 23 
2 *622:4 *622:8 18.0036 
3 *622:8 *622:12 2.8275 
4 *622:12 *622:14 57.3682 
5 *622:14 *622:28 44.145 
6 *622:28 *622:30 15 
7 *622:30 *622:32 42.4021 
8 *622:32 *622:38 31.3436 
9 *622:38 *2244:A 24.2014 
10 *622:38 *692:DIODE 23.6214 
11 *622:32 *622:54 15 
12 *622:54 *2242:A 23.8493 
13 *622:54 *691:DIODE 23.6214 
14 *622:14 *622:72 18.9564 
15 *622:72 *716:DIODE 24.0979 
16 *622:72 *2397:A 23 
17 *622:8 *2399:A 39.2014 
18 *622:4 *622:95 3.00357 
19 *622:95 *722:DIODE 23 
20 *622:95 *622:102 1.09786 
21 *622:102 *717:DIODE 23 
22 *622:102 *622:119 31.465 
23 *622:119 *622:121 23.9664 
24 *622:121 *2401:A 23.8493 
25 *622:121 *720:DIODE 24.0979 
*END

*D_NET *623 0.00120378
*CONN
*I *2225:A2 I *D sky130_fd_sc_hd__o21a_1
*I *2458:X O *D sky130_fd_sc_hd__clkbuf_1
*CAP
1 *2225:A2 0
2 *2458:X 0.000483605
3 *623:6 0.000483605
4 *623:6 *2225:A1 1.73399e-05
5 *716:DIODE *623:6 4.06849e-05
6 *748:DIODE *623:6 3.22879e-05
7 *616:18 *623:6 5.12254e-05
8 *622:72 *623:6 9.50292e-05
*RES
1 *2458:X *623:6 31.7207 
2 *623:6 *2225:A2 23 
*END

*D_NET *624 0.000861337
*CONN
*I *1953:B1_N I *D sky130_fd_sc_hd__o21ba_1
*I *2403:X O *D sky130_fd_sc_hd__dlygate4sd3_1
*CAP
1 *1953:B1_N 8.40996e-05
2 *2403:X 0.000142098
3 *624:10 0.000226198
4 *1953:B1_N *637:14 9.77405e-05
5 *2460:A *1953:B1_N 4.63692e-05
6 *273:18 *624:10 2.93431e-05
7 *291:29 *624:10 0.000136486
8 *618:91 *1953:B1_N 9.9002e-05
9 *618:91 *624:10 0
*RES
1 *2403:X *624:10 40.5271 
2 *624:10 *1953:B1_N 40.5479 
*END

*D_NET *625 0.000343996
*CONN
*I *2313:D I *D sky130_fd_sc_hd__dfrtp_1
*I *2414:X O *D sky130_fd_sc_hd__dlygate4sd3_1
*CAP
1 *2313:D 0
2 *2414:X 0.000169444
3 *625:10 0.000169444
4 *166:6 *625:10 5.10891e-06
5 *615:60 *625:10 0
*RES
1 *2414:X *625:10 40.5271 
2 *625:10 *2313:D 38 
*END

*D_NET *626 0.00127921
*CONN
*I *1955:B1_N I *D sky130_fd_sc_hd__o21ba_1
*I *2425:X O *D sky130_fd_sc_hd__dlygate4sd3_1
*CAP
1 *1955:B1_N 8.46167e-05
2 *2425:X 0.000207845
3 *626:8 0.000292461
4 *1955:B1_N *640:14 0.000219383
5 *626:8 *635:40 2.26489e-05
6 *2427:A *1955:B1_N 0.000139357
7 *615:36 *626:8 0.000272321
8 *617:142 *1955:B1_N 4.05745e-05
*RES
1 *2425:X *626:8 42.7229 
2 *626:8 *1955:B1_N 40.5271 
*END

*D_NET *627 0.000324864
*CONN
*I *2311:D I *D sky130_fd_sc_hd__dfrtp_1
*I *2427:X O *D sky130_fd_sc_hd__dlygate4sd3_1
*CAP
1 *2311:D 0
2 *2427:X 4.21614e-05
3 *627:8 4.21614e-05
4 *627:8 *635:19 1.01436e-05
5 *627:8 *635:40 0.000114083
6 *615:36 *627:8 0.000116314
*RES
1 *2427:X *627:8 39.5536 
2 *627:8 *2311:D 38 
*END

*D_NET *628 0.00128473
*CONN
*I *1952:B1_N I *D sky130_fd_sc_hd__o21ba_1
*I *2428:X O *D sky130_fd_sc_hd__dlygate4sd3_1
*CAP
1 *1952:B1_N 0
2 *2428:X 0.000408648
3 *628:10 0.000408648
4 *220:10 *628:10 0.00035793
5 *470:6 *628:10 9.88574e-06
6 *470:10 *628:10 2.7237e-05
7 *475:12 *628:10 7.23822e-05
8 *560:40 *628:10 0
9 *560:64 *628:10 0
*RES
1 *2428:X *628:10 47.1143 
2 *628:10 *1952:B1_N 38 
*END

*D_NET *629 0.000257464
*CONN
*I *2314:D I *D sky130_fd_sc_hd__dfrtp_1
*I *2429:X O *D sky130_fd_sc_hd__dlygate4sd3_1
*CAP
1 *2314:D 0
2 *2429:X 7.68022e-05
3 *629:8 7.68022e-05
4 *291:29 *629:8 3.68205e-05
5 *556:58 *629:8 6.70389e-05
*RES
1 *2429:X *629:8 39.9057 
2 *629:8 *2314:D 38 
*END

*D_NET *630 0.00108737
*CONN
*I *1946:B1_N I *D sky130_fd_sc_hd__o21ba_1
*I *2430:X O *D sky130_fd_sc_hd__dlygate4sd3_1
*CAP
1 *1946:B1_N 5.02146e-05
2 *2430:X 0.000130628
3 *630:8 0.000180843
4 *269:10 *1946:B1_N 5.40337e-05
5 *291:29 *630:8 0.000351626
6 *470:18 *630:8 0.000144209
7 *470:22 *630:8 9.41891e-05
8 *470:37 *1946:B1_N 8.16277e-05
*RES
1 *2430:X *630:8 42.7229 
2 *630:8 *1946:B1_N 39.5743 
*END

*D_NET *631 0.000922702
*CONN
*I *2363:D I *D sky130_fd_sc_hd__dfrtp_1
*I *2431:X O *D sky130_fd_sc_hd__dlygate4sd3_1
*CAP
1 *2363:D 9.9382e-05
2 *2431:X 0.000259533
3 *631:10 0.000358915
4 *291:29 *631:10 4.57432e-05
5 *556:58 *631:10 8.32764e-05
6 *618:122 *2363:D 7.58527e-05
*RES
1 *2431:X *631:10 42.1843 
2 *631:10 *2363:D 39.5743 
*END

*D_NET *632 0.000719873
*CONN
*I *2024:A I *D sky130_fd_sc_hd__and3_1
*I *2432:X O *D sky130_fd_sc_hd__dlygate4sd3_1
*CAP
1 *2024:A 9.85391e-05
2 *2432:X 7.85502e-05
3 *632:8 0.000177089
4 *2024:B *2024:A 4.82237e-05
5 *611:26 *2024:A 0.000231193
6 *611:26 *632:8 8.62783e-05
*RES
1 *2432:X *632:8 39.5536 
2 *632:8 *2024:A 41.0036 
*END

*D_NET *633 0.000971267
*CONN
*I *1954:A2 I *D sky130_fd_sc_hd__o21ba_1
*I *2404:X O *D sky130_fd_sc_hd__dlygate4sd3_1
*CAP
1 *1954:A2 0
2 *2404:X 0.000312047
3 *633:10 0.000312047
4 *633:10 *637:29 0.000317553
5 *218:10 *633:10 2.54046e-05
6 *475:12 *633:10 4.21594e-06
*RES
1 *2404:X *633:10 43.3857 
2 *633:10 *1954:A2 38 
*END

*D_NET *634 0.0151918
*CONN
*I *1954:A1 I *D sky130_fd_sc_hd__o21ba_1
*I *1987:A1 I *D sky130_fd_sc_hd__a22o_1
*I *2152:A1 I *D sky130_fd_sc_hd__o31a_1
*I *2044:B I *D sky130_fd_sc_hd__nor2_2
*I *2058:B I *D sky130_fd_sc_hd__or3_1
*I *2225:A1 I *D sky130_fd_sc_hd__o21a_1
*I *2361:Q O *D sky130_fd_sc_hd__dfxtp_1
*CAP
1 *1954:A1 0
2 *1987:A1 0.000221468
3 *2152:A1 0
4 *2044:B 0
5 *2058:B 0
6 *2225:A1 0.000781858
7 *2361:Q 0
8 *634:95 0.00100537
9 *634:78 0.00143344
10 *634:63 0.00088016
11 *634:48 0.000948441
12 *634:31 0.000534271
13 *634:21 0.00234839
14 *634:4 0.0023211
15 *634:21 *640:25 4.39607e-05
16 *634:31 *635:60 0.000134374
17 *634:48 *635:50 4.21594e-06
18 *634:48 *635:60 2.93747e-05
19 *634:63 *1975:B2 0
20 *634:63 *635:50 0.000136486
21 *634:63 *635:60 4.12182e-05
22 *634:63 *649:66 0
23 *634:78 *1969:B2 0.000525897
24 *634:95 *1969:A1 2.9853e-05
25 *634:95 *1969:B2 0.00018332
26 *634:95 *2034:C 0.000148678
27 *659:DIODE *1987:A1 0.000202487
28 *677:DIODE *634:78 5.50121e-05
29 *1960:B *634:21 2.64616e-05
30 *1960:C *634:21 0.000139352
31 *1960:D_N *634:21 0.000166135
32 *1969:A2 *634:95 5.41385e-05
33 *1969:B1 *634:95 2.93747e-05
34 *1984:A2 *1987:A1 1.14452e-05
35 *2225:B1 *2225:A1 4.95081e-05
36 *2310:D *634:31 5.92579e-05
37 *2311:RESET_B *634:21 0.00012308
38 *2361:D *2225:A1 0.000213654
39 *59:21 *634:48 2.18409e-05
40 *59:21 *634:63 0.000139352
41 *216:8 *634:48 2.76611e-06
42 *245:8 *634:63 5.21127e-05
43 *290:12 *1987:A1 0
44 *290:12 *634:21 7.73735e-05
45 *290:12 *634:95 0
46 *290:33 *634:21 7.26607e-05
47 *292:59 *1987:A1 0.00026413
48 *293:10 *1987:A1 2.3529e-05
49 *293:10 *634:95 3.0647e-05
50 *307:16 *634:63 0
51 *325:10 *634:95 3.75094e-05
52 *334:10 *634:48 4.13938e-05
53 *334:68 *634:48 7.75329e-06
54 *334:68 *634:63 0
55 *335:16 *634:31 4.07715e-05
56 *345:25 *634:31 4.41587e-05
57 *465:16 *634:21 0.000120171
58 *469:101 *634:21 5.50049e-05
59 *469:101 *634:31 0.00019944
60 *498:21 *634:31 0
61 *556:8 *634:63 0.000110116
62 *556:48 *634:63 7.20415e-05
63 *563:14 *634:95 0.000118143
64 *613:23 *1987:A1 0.000163352
65 *613:47 *634:63 5.36457e-05
66 *613:53 *634:48 0
67 *613:53 *634:63 0.000379413
68 *615:36 *2225:A1 4.59935e-05
69 *615:36 *634:21 0.000119362
70 *623:6 *2225:A1 1.73399e-05
*RES
1 *2361:Q *634:4 23 
2 *634:4 *2225:A1 34.4757 
3 *634:4 *634:21 30.45 
4 *634:21 *634:31 38.3686 
5 *634:31 *2058:B 23 
6 *634:21 *634:48 35.0543 
7 *634:48 *2044:B 23 
8 *634:48 *634:63 45.5979 
9 *634:63 *2152:A1 23 
10 *634:63 *634:78 21.3179 
11 *634:78 *1987:A1 43.7793 
12 *634:78 *634:95 33.995 
13 *634:95 *1954:A1 23 
*END

*D_NET *635 0.0101909
*CONN
*I *1984:A1 I *D sky130_fd_sc_hd__a22o_1
*I *2044:A I *D sky130_fd_sc_hd__nor2_2
*I *2058:A I *D sky130_fd_sc_hd__or3_1
*I *1955:A1 I *D sky130_fd_sc_hd__o21ba_1
*I *2226:A1 I *D sky130_fd_sc_hd__o21a_1
*I *2362:Q O *D sky130_fd_sc_hd__dfxtp_1
*CAP
1 *1984:A1 0
2 *2044:A 0
3 *2058:A 0
4 *1955:A1 0.00026114
5 *2226:A1 7.86487e-05
6 *2362:Q 0.000316064
7 *635:60 0.000568972
8 *635:50 0.00110631
9 *635:40 0.00161627
10 *635:19 0.00154033
11 *635:8 0.000594971
12 *1955:A1 *640:14 0.000264746
13 *1984:A2 *635:40 9.58444e-05
14 *1984:A2 *635:50 2.90712e-05
15 *1984:B1 *635:40 3.88863e-05
16 *1984:B2 *635:40 5.50049e-05
17 *1988:A1 *635:40 0.000264559
18 *1988:A2 *635:40 0.000192185
19 *2226:B1 *2226:A1 3.55887e-05
20 *2366:A *635:60 3.98818e-05
21 *59:21 *635:60 4.55171e-05
22 *166:6 *635:40 0.000449981
23 *219:10 *635:40 0
24 *291:29 *635:40 0
25 *291:33 *2226:A1 0.000279936
26 *291:33 *635:19 0.000410924
27 *291:33 *635:40 0.000537305
28 *334:8 *635:60 9.84794e-05
29 *334:10 *635:60 0
30 *334:68 *635:50 0
31 *335:16 *635:60 0.000367547
32 *498:21 *635:60 0
33 *613:53 *635:50 1.47563e-05
34 *615:10 *2226:A1 0.000108569
35 *615:10 *635:19 0.000141397
36 *615:36 *635:19 5.26431e-05
37 *615:36 *635:40 5.30518e-05
38 *617:142 *1955:A1 3.97382e-05
39 *626:8 *635:40 2.26489e-05
40 *627:8 *635:19 1.01436e-05
41 *627:8 *635:40 0.000114083
42 *634:31 *635:60 0.000134374
43 *634:48 *635:50 4.21594e-06
44 *634:48 *635:60 2.93747e-05
45 *634:63 *635:50 0.000136486
46 *634:63 *635:60 4.12182e-05
*RES
1 *2362:Q *635:8 41.9564 
2 *635:8 *2226:A1 41.6664 
3 *635:8 *635:19 5.77929 
4 *635:19 *1955:A1 42.4743 
5 *635:19 *635:40 43.0679 
6 *635:40 *635:50 39.0936 
7 *635:50 *635:60 42.2629 
8 *635:60 *2058:A 23 
9 *635:50 *2044:A 23 
10 *635:40 *1984:A1 23 
*END

*D_NET *636 0.00341819
*CONN
*I *1978:A1 I *D sky130_fd_sc_hd__a22o_1
*I *2034:B I *D sky130_fd_sc_hd__or3_1
*I *1952:A1 I *D sky130_fd_sc_hd__o21ba_1
*I *2314:Q O *D sky130_fd_sc_hd__dfrtp_1
*CAP
1 *1978:A1 0.00040103
2 *2034:B 0.000111946
3 *1952:A1 5.71757e-05
4 *2314:Q 0.000162815
5 *636:23 0.000786685
6 *636:10 0.000493699
7 *2034:B *2034:A 0.000166513
8 *2034:B *638:8 3.70187e-05
9 *636:23 *638:8 0.000102629
10 *656:DIODE *1952:A1 5.67058e-05
11 *1978:A2 *1978:A1 9.84851e-05
12 *2314:RESET_B *636:10 5.3304e-05
13 *211:8 *636:10 8.62783e-05
14 *303:10 *1978:A1 0.00014196
15 *465:64 *2034:B 0
16 *465:64 *636:10 0
17 *465:64 *636:23 0
18 *475:12 *636:23 0
19 *556:48 *1978:A1 0.00037377
20 *560:36 *636:10 1.5769e-05
21 *560:40 *636:10 3.96156e-05
22 *560:40 *636:23 2.76611e-06
23 *618:139 *636:10 1.01436e-05
24 *618:139 *636:23 0.000219882
*RES
1 *2314:Q *636:10 41.0036 
2 *636:10 *1952:A1 39.2429 
3 *636:10 *636:23 5.42714 
4 *636:23 *2034:B 40.61 
5 *636:23 *1978:A1 46.7207 
*END

*D_NET *637 0.00439765
*CONN
*I *1975:A1 I *D sky130_fd_sc_hd__a22o_1
*I *2035:A I *D sky130_fd_sc_hd__or3_1
*I *1953:A2 I *D sky130_fd_sc_hd__o21ba_1
*I *2313:Q O *D sky130_fd_sc_hd__dfrtp_1
*CAP
1 *1975:A1 0.000108135
2 *2035:A 2.34823e-05
3 *1953:A2 0
4 *2313:Q 0
5 *637:29 0.000812978
6 *637:14 0.00060046
7 *637:4 0.00128182
8 *1953:B1_N *637:14 9.77405e-05
9 *1975:A2 *2035:A 0
10 *2265:A *637:14 5.41385e-05
11 *2265:A *637:29 6.20061e-05
12 *2276:D *637:14 3.71544e-05
13 *2460:A *637:14 9.77405e-05
14 *209:10 *637:29 0
15 *218:10 *637:29 2.08324e-05
16 *273:18 *637:29 0.000433899
17 *291:29 *637:14 5.62672e-05
18 *292:31 *1975:A1 2.93845e-05
19 *292:44 *1975:A1 3.22879e-05
20 *292:44 *2035:A 0
21 *301:8 *1975:A1 0.000139352
22 *470:54 *1975:A1 3.83498e-05
23 *470:54 *637:29 1.21972e-05
24 *517:10 *637:29 0.000141869
25 *615:60 *637:14 0
26 *633:10 *637:29 0.000317553
*RES
1 *2313:Q *637:4 23 
2 *637:4 *637:14 38.8657 
3 *637:14 *1953:A2 23 
4 *637:4 *637:29 45.2457 
5 *637:29 *2035:A 23.4971 
6 *637:29 *1975:A1 25.5271 
*END

*D_NET *638 0.00566528
*CONN
*I *1981:A1 I *D sky130_fd_sc_hd__a22o_1
*I *1946:A1 I *D sky130_fd_sc_hd__o21ba_1
*I *2034:A I *D sky130_fd_sc_hd__or3_1
*I *2363:Q O *D sky130_fd_sc_hd__dfrtp_1
*CAP
1 *1981:A1 0
2 *1946:A1 0.00016707
3 *2034:A 0.000134071
4 *2363:Q 0
5 *638:36 0.00135577
6 *638:8 0.000377962
7 *638:4 0.00143259
8 *1964:B *638:36 0.000225393
9 *1965:B *638:36 0.000196642
10 *1970:A1 *638:36 2.93845e-05
11 *1970:B1 *638:36 0.000139357
12 *1981:B1 *638:36 1.14452e-05
13 *2034:B *2034:A 0.000166513
14 *2034:B *638:8 3.70187e-05
15 *2363:RESET_B *638:36 9.5877e-05
16 *138:6 *638:36 4.37283e-05
17 *280:12 *638:36 0
18 *292:10 *638:36 0.000267173
19 *465:64 *2034:A 0
20 *475:12 *2034:A 0
21 *475:12 *638:8 0
22 *492:14 *638:36 0.000268221
23 *556:48 *1946:A1 0.000401106
24 *608:20 *638:36 0.000213328
25 *636:23 *638:8 0.000102629
*RES
1 *2363:Q *638:4 23 
2 *638:4 *638:8 16.9057 
3 *638:8 *2034:A 40.9621 
4 *638:8 *1946:A1 42.4329 
5 *638:4 *638:36 41.8457 
6 *638:36 *1981:A1 38 
*END

*D_NET *639 0.00219945
*CONN
*I *1972:A1 I *D sky130_fd_sc_hd__a22o_1
*I *2034:C I *D sky130_fd_sc_hd__or3_1
*I *2404:A I *D sky130_fd_sc_hd__dlygate4sd3_1
*I *2312:Q O *D sky130_fd_sc_hd__dfrtp_1
*CAP
1 *1972:A1 0.000190618
2 *2034:C 0.000162882
3 *2404:A 0
4 *2312:Q 0
5 *639:10 0.000295069
6 *639:4 0.000322805
7 *1972:A1 *1972:B2 9.72057e-06
8 *273:28 *1972:A1 0.000141052
9 *273:34 *1972:A1 4.5051e-05
10 *295:43 *1972:A1 5.90675e-06
11 *465:64 *2034:C 0.000176541
12 *465:64 *639:10 0.000165593
13 *555:20 *1972:A1 0.000135726
14 *555:20 *639:10 5.14746e-06
15 *563:8 *2034:C 5.21024e-05
16 *563:14 *2034:C 0.000269769
17 *608:71 *2034:C 2.36844e-05
18 *608:71 *639:10 4.90994e-05
19 *634:95 *2034:C 0.000148678
*RES
1 *2312:Q *639:4 23 
2 *639:4 *639:10 17.8793 
3 *639:10 *2404:A 38 
4 *639:10 *2034:C 43.6136 
5 *639:4 *1972:A1 28.3029 
*END

*D_NET *640 0.00544767
*CONN
*I *1969:A1 I *D sky130_fd_sc_hd__a22o_1
*I *2035:B I *D sky130_fd_sc_hd__or3_1
*I *1955:A2 I *D sky130_fd_sc_hd__o21ba_1
*I *2311:Q O *D sky130_fd_sc_hd__dfrtp_1
*CAP
1 *1969:A1 0.000229537
2 *2035:B 0
3 *1955:A2 0
4 *2311:Q 0
5 *640:25 0.00115909
6 *640:14 0.000537221
7 *640:4 0.00146678
8 *1955:A1 *640:14 0.000264746
9 *1955:B1_N *640:14 0.000219383
10 *1969:A2 *1969:A1 9.84851e-05
11 *1972:A2 *1969:A1 4.40504e-05
12 *1972:A2 *640:25 7.7086e-05
13 *2311:RESET_B *640:25 9.84851e-05
14 *2395:A *640:14 0.000226295
15 *2427:A *640:14 9.90162e-05
16 *170:32 *640:14 5.50106e-05
17 *170:42 *640:14 1.27321e-05
18 *273:28 *640:25 1.22906e-05
19 *292:18 *1969:A1 0.000179702
20 *295:43 *640:25 0
21 *295:49 *640:25 0
22 *299:12 *1969:A1 6.83348e-05
23 *299:12 *640:25 8.62876e-05
24 *325:10 *1969:A1 0.000138718
25 *465:18 *640:14 5.56306e-05
26 *465:18 *640:25 0
27 *465:64 *640:25 0
28 *608:71 *640:25 7.56099e-05
29 *608:77 *640:25 0
30 *617:142 *640:14 0.000136242
31 *617:142 *640:25 3.3123e-05
32 *634:21 *640:25 4.39607e-05
33 *634:95 *1969:A1 2.9853e-05
*RES
1 *2311:Q *640:4 23 
2 *640:4 *640:14 42.6771 
3 *640:14 *1955:A2 23 
4 *640:4 *640:25 31.7579 
5 *640:25 *2035:B 38 
6 *640:25 *1969:A1 44.1314 
*END

*D_NET *641 0.0059724
*CONN
*I *2155:A1 I *D sky130_fd_sc_hd__o31a_1
*I *2083:A I *D sky130_fd_sc_hd__or2_1
*I *2221:B1 I *D sky130_fd_sc_hd__o21ai_1
*I *2222:A1 I *D sky130_fd_sc_hd__o211a_1
*I *2220:A2 I *D sky130_fd_sc_hd__a21boi_1
*I *2359:Q O *D sky130_fd_sc_hd__dfxtp_1
*CAP
1 *2155:A1 0.000360248
2 *2083:A 0.000179584
3 *2221:B1 0
4 *2222:A1 1.17411e-05
5 *2220:A2 9.8226e-05
6 *2359:Q 0.000188548
7 *641:53 0.00135146
8 *641:16 0.000144331
9 *641:14 0.000627903
10 *641:6 0.00159372
11 *641:53 *642:8 0
12 *641:53 *642:42 0
13 *666:DIODE *2155:A1 0.000180218
14 *2078:B *2083:A 5.50049e-05
15 *2082:A *2155:A1 0.000132886
16 *2165:A3 *2155:A1 2.18506e-05
17 *2359:D *641:14 3.32987e-05
18 *265:10 *641:16 5.50049e-05
19 *265:10 *641:53 0
20 *355:10 *641:53 0
21 *355:21 *2155:A1 0
22 *355:21 *641:53 0
23 *364:8 *2083:A 0.000141154
24 *364:12 *2155:A1 7.55698e-05
25 *364:12 *641:53 3.0647e-05
26 *423:10 *2155:A1 1.14452e-05
27 *424:10 *2155:A1 0
28 *462:31 *2222:A1 0
29 *462:31 *641:16 5.50049e-05
30 *463:16 *2220:A2 0.00018455
31 *463:16 *641:16 0.000104169
32 *463:29 *641:14 5.94125e-05
33 *469:115 *2220:A2 0.000121413
34 *469:115 *641:16 7.42621e-05
35 *469:123 *641:14 6.31304e-05
36 *469:123 *641:53 0
37 *554:96 *2155:A1 1.76232e-05
38 *557:30 *641:14 0
39 *559:42 *641:53 0
*RES
1 *2359:Q *641:6 25.5271 
2 *641:6 *641:14 38.2443 
3 *641:14 *641:16 2.05071 
4 *641:16 *2220:A2 26.6871 
5 *641:16 *2222:A1 23.4971 
6 *641:14 *2221:B1 23 
7 *641:6 *641:53 29.645 
8 *641:53 *2083:A 41.48 
9 *641:53 *2155:A1 46.0164 
*END

*D_NET *642 0.0042618
*CONN
*I *2068:A I *D sky130_fd_sc_hd__nor2_1
*I *2069:A I *D sky130_fd_sc_hd__or2_1
*I *2223:A_N I *D sky130_fd_sc_hd__nand2b_1
*I *2220:A1 I *D sky130_fd_sc_hd__a21boi_1
*I *2360:Q O *D sky130_fd_sc_hd__dfxtp_1
*CAP
1 *2068:A 8.75586e-05
2 *2069:A 0
3 *2223:A_N 3.76283e-05
4 *2220:A1 0
5 *2360:Q 7.99831e-05
6 *642:42 0.000483458
7 *642:24 0.000513182
8 *642:12 0.00108167
9 *642:8 0.00100674
10 *2069:B *2068:A 5.67058e-05
11 *2222:B1 *642:24 3.37207e-05
12 *266:8 *642:24 8.62876e-05
13 *353:10 *642:42 0
14 *354:10 *2068:A 5.37348e-06
15 *355:10 *642:42 2.45549e-06
16 *462:12 *642:24 0.000140259
17 *462:31 *642:24 0.00021477
18 *463:16 *642:24 6.07611e-06
19 *463:29 *642:24 1.27898e-05
20 *559:34 *2223:A_N 1.14154e-05
21 *559:34 *642:12 1.39317e-05
22 *559:34 *642:24 4.10685e-05
23 *590:10 *642:12 0.00034672
24 *601:24 *642:24 0
25 *641:53 *642:8 0
26 *641:53 *642:42 0
*RES
1 *2360:Q *642:8 39.2014 
2 *642:8 *642:12 23.2443 
3 *642:12 *642:24 38.5343 
4 *642:24 *2220:A1 23 
5 *642:12 *2223:A_N 23.8493 
6 *642:8 *642:42 22.2293 
7 *642:42 *2069:A 23 
8 *642:42 *2068:A 25.0714 
*END

*D_NET *643 0.000414902
*CONN
*I *1938:A I *D sky130_fd_sc_hd__inv_2
*I *2334:Q O *D sky130_fd_sc_hd__dfxtp_1
*CAP
1 *1938:A 4.24639e-05
2 *2334:Q 0.000120465
3 *643:8 0.000162929
4 *170:48 *1938:A 2.64616e-05
5 *170:48 *643:8 6.25829e-05
6 *221:8 *643:8 0
7 *469:76 *643:8 0
*RES
1 *2334:Q *643:8 40.2579 
2 *643:8 *1938:A 38.6214 
*END

*D_NET *644 0.000313525
*CONN
*I *1939:A I *D sky130_fd_sc_hd__inv_2
*I *2335:Q O *D sky130_fd_sc_hd__dfxtp_1
*CAP
1 *1939:A 0.000118764
2 *2335:Q 0.000118764
3 *1939:A *649:58 7.59964e-05
*RES
1 *2335:Q *1939:A 48.9 
*END

*D_NET *645 0.00424024
*CONN
*I *2168:A2 I *D sky130_fd_sc_hd__o22ai_1
*I *2167:B1 I *D sky130_fd_sc_hd__a2bb2o_1
*I *2336:Q O *D sky130_fd_sc_hd__dfxtp_1
*CAP
1 *2168:A2 0.000319708
2 *2167:B1 2.90731e-05
3 *2336:Q 0.000452219
4 *645:16 0.000962706
5 *645:10 0.00106614
6 *2167:B1 *650:10 2.26406e-05
7 *2168:A2 *650:10 0.000176885
8 *2168:A2 *650:42 0.000128954
9 *2168:A2 *650:50 0.000105913
10 *645:16 *648:61 0
11 *170:70 *2167:B1 2.50835e-05
12 *170:70 *2168:A2 1.98354e-05
13 *271:26 *2168:A2 5.3304e-05
14 *286:46 *2167:B1 7.71315e-05
15 *286:46 *2168:A2 0.000345655
16 *414:10 *645:10 9.98109e-05
17 *613:85 *645:10 0.00035518
18 *615:156 *645:10 0
19 *620:40 *645:16 0
*RES
1 *2336:Q *645:10 46.6689 
2 *645:10 *645:16 17.344 
3 *645:16 *2167:B1 39.0254 
4 *645:16 *2168:A2 45.9025 
*END

*D_NET *646 0.00017524
*CONN
*I *1940:A I *D sky130_fd_sc_hd__inv_2
*I *2337:Q O *D sky130_fd_sc_hd__dfxtp_1
*CAP
1 *1940:A 5.92668e-05
2 *2337:Q 5.92668e-05
3 *469:93 *1940:A 5.67058e-05
*RES
1 *2337:Q *1940:A 47.4707 
*END

*D_NET *647 0.00102279
*CONN
*I *2172:A2 I *D sky130_fd_sc_hd__a211o_1
*I *2168:B1 I *D sky130_fd_sc_hd__o22ai_1
*I *2338:Q O *D sky130_fd_sc_hd__dfxtp_1
*CAP
1 *2172:A2 0
2 *2168:B1 0
3 *2338:Q 0.000101097
4 *647:16 0.000168187
5 *647:8 0.000269284
6 *2150:A *647:16 2.93747e-05
7 *2168:B2 *647:16 2.93845e-05
8 *244:8 *647:16 0
9 *272:12 *647:16 7.73662e-05
10 *272:16 *647:16 0.000108913
11 *273:42 *647:8 2.64616e-05
12 *273:42 *647:16 0.00013384
13 *472:55 *647:8 7.88828e-05
*RES
1 *2338:Q *647:8 25.4236 
2 *647:8 *647:16 33.7079 
3 *647:16 *2168:B1 23 
4 *647:8 *2172:A2 23 
*END

*D_NET *648 0.0160045
*CONN
*I *2084:A I *D sky130_fd_sc_hd__nor2_1
*I *2169:A1 I *D sky130_fd_sc_hd__o22ai_1
*I *2001:A_N I *D sky130_fd_sc_hd__and3b_2
*I *1997:B I *D sky130_fd_sc_hd__and3b_1
*I *1947:B I *D sky130_fd_sc_hd__or2_1
*I *1969:B2 I *D sky130_fd_sc_hd__a22o_1
*I *2170:A1 I *D sky130_fd_sc_hd__a2111o_1
*I *2416:A I *D sky130_fd_sc_hd__dlygate4sd3_1
*I *2315:Q O *D sky130_fd_sc_hd__dfxtp_2
*CAP
1 *2084:A 2.51855e-05
2 *2169:A1 0
3 *2001:A_N 0
4 *1997:B 0
5 *1947:B 1.2456e-05
6 *1969:B2 0.00115946
7 *2170:A1 9.3313e-05
8 *2416:A 0.000141131
9 *2315:Q 0
10 *648:89 0.000218525
11 *648:76 0.00068129
12 *648:61 0.000709451
13 *648:48 0.00214782
14 *648:40 0.00177325
15 *648:27 0.000746812
16 *648:21 0.000443737
17 *648:19 0.000751353
18 *648:6 0.000526395
19 *1947:B *649:45 4.77164e-06
20 *648:40 *2169:B2 5.21024e-05
21 *648:40 *651:55 0.000157102
22 *648:76 *649:33 0.000155421
23 *648:89 *649:29 2.93747e-05
24 *648:89 *649:33 9.90162e-05
25 *677:DIODE *1969:B2 7.44161e-06
26 *679:DIODE *648:21 2.64616e-05
27 *1948:B *648:76 0.000181125
28 *2152:A2 *1969:B2 4.5051e-05
29 *2152:B1 *1969:B2 0.000139352
30 *2162:A_N *2084:A 4.2573e-05
31 *2162:A_N *648:21 0.000487147
32 *2169:B1 *2170:A1 0.00010018
33 *2170:A2 *2170:A1 1.56665e-05
34 *2170:A2 *648:27 0.000109901
35 *2316:CLK *648:48 0.000111852
36 *2335:CLK *648:48 2.24608e-05
37 *170:70 *648:40 0
38 *221:8 *2416:A 0
39 *221:8 *648:19 0
40 *271:26 *648:40 0.000359186
41 *276:12 *648:21 5.50049e-05
42 *276:12 *648:27 1.72202e-05
43 *286:46 *648:40 0.000229164
44 *288:31 *648:89 0
45 *316:8 *648:89 0
46 *334:68 *1969:B2 0.000379944
47 *335:8 *1947:B 1.05658e-05
48 *335:8 *648:76 3.94974e-05
49 *413:6 *1969:B2 8.48502e-06
50 *414:16 *648:21 5.41385e-05
51 *465:169 *1947:B 3.34818e-06
52 *465:169 *648:76 2.37582e-05
53 *472:61 *648:48 0.000295773
54 *556:33 *648:48 0
55 *601:24 *2416:A 9.95713e-05
56 *601:24 *648:19 0.000249431
57 *615:148 *648:48 0.000243626
58 *615:156 *648:89 8.50956e-05
59 *620:26 *648:48 0
60 *620:40 *648:48 0.00081515
61 *620:40 *648:61 0.000476186
62 *621:36 *648:40 0
63 *621:42 *648:40 0
64 *621:167 *648:21 0.000120867
65 *621:173 *648:19 0.000512078
66 *634:78 *1969:B2 0.000525897
67 *634:95 *1969:B2 0.00018332
68 *645:16 *648:61 0
*RES
1 *2315:Q *648:6 38 
2 *648:6 *2416:A 41.6664 
3 *648:6 *648:19 25.3571 
4 *648:19 *648:21 9.19714 
5 *648:21 *648:27 2.56857 
6 *648:27 *2170:A1 24.5743 
7 *648:27 *648:40 34.9418 
8 *648:40 *648:48 31.3211 
9 *648:48 *1969:B2 45.5579 
10 *648:40 *648:61 8.91467 
11 *648:61 *1947:B 38.3211 
12 *648:61 *648:76 21.7632 
13 *648:76 *1997:B 23 
14 *648:76 *648:89 33.7286 
15 *648:89 *2001:A_N 23 
16 *648:21 *2169:A1 23 
17 *648:19 *2084:A 23.6214 
*END

*D_NET *649 0.0143666
*CONN
*I *2001:C I *D sky130_fd_sc_hd__and3b_2
*I *1997:A_N I *D sky130_fd_sc_hd__and3b_1
*I *1947:A I *D sky130_fd_sc_hd__or2_1
*I *2171:A1 I *D sky130_fd_sc_hd__a221o_1
*I *2147:A I *D sky130_fd_sc_hd__and2_1
*I *1972:B2 I *D sky130_fd_sc_hd__a22o_1
*I *2167:A1_N I *D sky130_fd_sc_hd__a2bb2o_1
*I *2154:A I *D sky130_fd_sc_hd__and2_1
*I *2340:Q O *D sky130_fd_sc_hd__dfxtp_1
*CAP
1 *2001:C 0
2 *1997:A_N 0
3 *1947:A 0
4 *2171:A1 0
5 *2147:A 0
6 *1972:B2 0.000430852
7 *2167:A1_N 0
8 *2154:A 0.000102809
9 *2340:Q 9.01176e-05
10 *649:86 0.000141263
11 *649:66 0.00102485
12 *649:58 0.00165993
13 *649:54 0.00145924
14 *649:45 0.000719453
15 *649:33 0.000708924
16 *649:29 0.000431138
17 *649:23 0.00123077
18 *649:8 0.00123407
19 *1972:B2 *650:50 0.000572401
20 *649:33 *650:26 9.41704e-05
21 *673:DIODE *649:58 2.79662e-05
22 *673:DIODE *649:66 5.50049e-05
23 *674:DIODE *649:23 5.67058e-05
24 *1939:A *649:58 7.59964e-05
25 *1947:B *649:45 4.77164e-06
26 *1948:B *649:33 9.75779e-05
27 *1972:A1 *1972:B2 9.72057e-06
28 *2167:A2_N *649:45 3.52912e-05
29 *2167:A2_N *649:54 3.75094e-05
30 *2167:B2 *649:45 1.14154e-05
31 *2167:B2 *649:54 0
32 *2335:D *649:58 5.27422e-05
33 *170:70 *649:45 0
34 *242:10 *649:23 0.000443667
35 *271:16 *649:45 0.00019539
36 *271:26 *649:45 0.000119419
37 *273:34 *1972:B2 0.000707089
38 *277:6 *649:54 8.06804e-06
39 *277:6 *649:58 6.71074e-05
40 *277:14 *649:86 0.000138718
41 *282:27 *2154:A 4.21594e-06
42 *286:46 *649:45 0.000247714
43 *295:43 *1972:B2 0.000115052
44 *315:6 *649:33 0.000103647
45 *315:21 *649:29 0.000103537
46 *315:21 *649:33 0.00010655
47 *316:28 *2154:A 0.000165593
48 *316:28 *649:23 0.000241616
49 *319:8 *649:23 5.3304e-05
50 *334:68 *649:66 0.000212712
51 *335:8 *649:45 0
52 *373:10 *2154:A 0
53 *373:10 *649:23 0
54 *465:125 *649:86 0
55 *465:169 *649:45 0.000399881
56 *491:48 *1972:B2 2.18506e-05
57 *555:20 *1972:B2 7.19269e-05
58 *613:27 *1972:B2 3.34129e-05
59 *613:47 *649:66 8.26569e-05
60 *615:128 *649:58 1.94693e-05
61 *621:36 *649:86 5.55278e-05
62 *634:63 *649:66 0
63 *648:76 *649:33 0.000155421
64 *648:89 *649:29 2.93747e-05
65 *648:89 *649:33 9.90162e-05
*RES
1 *2340:Q *649:8 39.0979 
2 *649:8 *2154:A 40.2579 
3 *649:8 *649:23 35.0877 
4 *649:23 *649:29 3.56804 
5 *649:29 *649:33 7.18786 
6 *649:33 *649:45 42.8843 
7 *649:45 *2167:A1_N 23 
8 *649:45 *649:54 3.37643 
9 *649:54 *649:58 15.2871 
10 *649:58 *649:66 41.6414 
11 *649:66 *1972:B2 37.935 
12 *649:58 *2147:A 23 
13 *649:54 *649:86 33.3143 
14 *649:86 *2171:A1 23 
15 *649:33 *1947:A 23 
16 *649:29 *1997:A_N 23 
17 *649:23 *2001:C 23 
*END

*D_NET *650 0.0104357
*CONN
*I *1948:A I *D sky130_fd_sc_hd__nor2_1
*I *1975:B2 I *D sky130_fd_sc_hd__a22o_1
*I *1932:A I *D sky130_fd_sc_hd__inv_2
*I *1996:A I *D sky130_fd_sc_hd__nor2_1
*I *2341:Q O *D sky130_fd_sc_hd__dfxtp_1
*CAP
1 *1948:A 7.06654e-05
2 *1975:B2 0.000358771
3 *1932:A 2.96542e-05
4 *1996:A 0
5 *2341:Q 0.000131072
6 *650:50 0.00169883
7 *650:42 0.00146363
8 *650:26 0.000124749
9 *650:18 0.000421464
10 *650:10 0.000451033
11 *1948:B *1948:A 5.12055e-06
12 *1972:B2 *650:50 0.000572401
13 *1990:A2 *1975:B2 0
14 *2150:A *650:50 0.000361027
15 *2167:B1 *650:10 2.26406e-05
16 *2168:A2 *650:10 0.000176885
17 *2168:A2 *650:42 0.000128954
18 *2168:A2 *650:50 0.000105913
19 *2168:B2 *650:50 0.000127821
20 *2333:CLK *650:50 0.000221997
21 *2333:D *650:50 1.74843e-05
22 *2341:CLK *650:26 6.48142e-05
23 *170:70 *650:10 0.000185357
24 *170:70 *650:42 0.000138177
25 *271:16 *650:10 5.50049e-05
26 *271:26 *650:50 5.3304e-05
27 *273:34 *650:50 0.000300869
28 *292:44 *1975:B2 0.000217038
29 *292:59 *1975:B2 6.37845e-05
30 *307:16 *1975:B2 0.000215791
31 *335:12 *650:18 0.000181125
32 *465:169 *650:26 0.000197479
33 *470:54 *1975:B2 0.000688877
34 *472:14 *650:26 0.000130433
35 *472:39 *1932:A 1.24376e-05
36 *472:39 *650:18 0
37 *491:48 *650:50 0.000644266
38 *492:14 *1975:B2 0.000219383
39 *555:10 *1975:B2 1.03836e-05
40 *613:85 *1932:A 4.17736e-05
41 *613:85 *650:18 0.000242614
42 *620:26 *650:50 8.82787e-05
43 *620:30 *650:50 0.00010018
44 *634:63 *1975:B2 0
45 *649:33 *650:26 9.41704e-05
*RES
1 *2341:Q *650:10 41.2314 
2 *650:10 *650:18 20.5514 
3 *650:18 *650:26 33.7079 
4 *650:26 *1996:A 23 
5 *650:18 *1932:A 23.6214 
6 *650:10 *650:42 16.9057 
7 *650:42 *650:50 47.2314 
8 *650:50 *1975:B2 49.2271 
9 *650:42 *1948:A 24.1186 
*END

*D_NET *651 0.0155879
*CONN
*I *1956:A I *D sky130_fd_sc_hd__or2_1
*I *1978:B2 I *D sky130_fd_sc_hd__a22o_1
*I *1950:A_N I *D sky130_fd_sc_hd__and3b_1
*I *1949:A I *D sky130_fd_sc_hd__and3_1
*I *2169:B2 I *D sky130_fd_sc_hd__o22ai_1
*I *2171:B2 I *D sky130_fd_sc_hd__a221o_1
*I *2149:A I *D sky130_fd_sc_hd__and2_1
*I *2342:Q O *D sky130_fd_sc_hd__dfxtp_1
*CAP
1 *1956:A 0.000126726
2 *1978:B2 0
3 *1950:A_N 0
4 *1949:A 4.45383e-05
5 *2169:B2 0.000153381
6 *2171:B2 5.79587e-05
7 *2149:A 0.000515898
8 *2342:Q 0.000318214
9 *651:91 0.000736895
10 *651:87 0.00108293
11 *651:81 0.000582116
12 *651:72 0.000317025
13 *651:55 0.000725526
14 *651:40 0.000932065
15 *651:27 0.000729955
16 *651:10 0.00120074
17 *1956:A *1956:B 0.000140259
18 *1956:A *652:17 9.67842e-05
19 *1956:A *652:25 2.71291e-05
20 *651:81 *652:25 5.56203e-05
21 *2149:B *2149:A 7.98406e-05
22 *2170:A2 *2169:B2 0.000141052
23 *2171:B1 *651:27 0
24 *2316:CLK *651:91 5.50049e-05
25 *2316:D *651:91 1.64354e-05
26 *2337:D *2149:A 1.76557e-05
27 *271:26 *651:55 0.000369516
28 *273:42 *1949:A 2.93845e-05
29 *277:14 *651:40 6.33303e-06
30 *278:10 *651:27 0
31 *285:20 *651:72 1.83564e-05
32 *286:12 *651:55 2.47241e-05
33 *286:12 *651:72 7.76364e-06
34 *286:12 *651:81 0
35 *286:46 *651:55 0
36 *287:14 *651:72 1.14452e-05
37 *287:14 *651:81 5.01986e-05
38 *295:16 *651:91 0.000484512
39 *295:95 *651:87 7.61097e-05
40 *295:95 *651:91 0.0019816
41 *295:101 *1956:A 4.79641e-05
42 *295:101 *651:87 0.000658443
43 *316:78 *1956:A 0.000313255
44 *334:39 *651:10 0.000110397
45 *425:8 *2169:B2 3.83778e-05
46 *425:8 *651:55 6.61686e-06
47 *427:10 *2169:B2 8.87543e-05
48 *428:10 *651:27 0
49 *429:8 *651:40 5.50106e-05
50 *429:14 *651:55 0.000885422
51 *465:125 *651:10 0.00024843
52 *465:125 *651:27 0.000251607
53 *465:169 *2171:B2 7.80291e-06
54 *465:169 *651:27 2.20818e-05
55 *465:169 *651:40 2.5913e-05
56 *469:93 *2149:A 0.000485446
57 *472:55 *1949:A 2.93845e-05
58 *521:10 *651:87 0.000140259
59 *556:48 *651:91 0.000585337
60 *621:34 *1956:A 3.62323e-05
61 *621:34 *651:72 6.08032e-05
62 *621:34 *651:81 6.07826e-05
63 *621:36 *2169:B2 6.7177e-06
64 *648:40 *2169:B2 5.21024e-05
65 *648:40 *651:55 0.000157102
*RES
1 *2342:Q *651:10 45.2707 
2 *651:10 *2149:A 46.6171 
3 *651:10 *651:27 21.5457 
4 *651:27 *2171:B2 24.3516 
5 *651:27 *651:40 18.9564 
6 *651:40 *2169:B2 41.625 
7 *651:40 *651:55 12.47 
8 *651:55 *1949:A 39.1186 
9 *651:55 *651:72 3.85286 
10 *651:72 *1950:A_N 38 
11 *651:72 *651:81 2.61 
12 *651:81 *651:87 23.9693 
13 *651:87 *651:91 27.3221 
14 *651:91 *1978:B2 23 
15 *651:81 *1956:A 42.6814 
*END

*D_NET *652 0.00262686
*CONN
*I *2424:A I *D sky130_fd_sc_hd__dlygate4sd3_1
*I *1956:B I *D sky130_fd_sc_hd__or2_1
*I *1950:B I *D sky130_fd_sc_hd__and3b_1
*I *2409:A I *D sky130_fd_sc_hd__dlygate4sd3_1
*I *2316:Q O *D sky130_fd_sc_hd__dfxtp_1
*CAP
1 *2424:A 0
2 *1956:B 3.08712e-05
3 *1950:B 0
4 *2409:A 0
5 *2316:Q 6.87736e-05
6 *652:43 0.000121289
7 *652:25 0.000164342
8 *652:17 0.000362149
9 *652:10 0.000247133
10 *652:6 0.000270259
11 *1956:A *1956:B 0.000140259
12 *1956:A *652:17 9.67842e-05
13 *1956:A *652:25 2.71291e-05
14 *286:12 *652:25 5.01247e-05
15 *287:14 *652:25 0.00010018
16 *295:95 *652:10 2.34437e-05
17 *295:101 *1956:B 0.000127821
18 *295:101 *652:6 3.53115e-05
19 *295:101 *652:10 0.000143655
20 *295:101 *652:17 0.000468711
21 *316:78 *652:17 9.30054e-05
22 *430:10 *652:43 0
23 *620:18 *652:43 0
24 *651:81 *652:25 5.56203e-05
*RES
1 *2316:Q *652:6 24.0979 
2 *652:6 *652:10 2.42357 
3 *652:10 *2409:A 23 
4 *652:10 *652:17 5.38571 
5 *652:17 *652:25 33.3557 
6 *652:25 *1950:B 23 
7 *652:17 *1956:B 24.5743 
8 *652:6 *652:43 31.9057 
9 *652:43 *2424:A 23 
*END
